    1C
    1UUSER                                                              
    1UDATE              26.october.2022                                 
    1UTIME              23:36:52                                        
    1UHOST                                                              
    1UPGM               CalculiX                                        
    1UVERSION           Version 2.17                             
    1UCOMPILETIME       Thu Jul 23 21:43:50 CEST 2020                    
    1UDIR                                                               
    1UDBN                                                               
    1UMAT    1SOLIDMATERIAL                                             
    2C                          4305                                     1
 -1         1 1.08128E+02 3.14136E+01 0.00000E+00
 -1         2 1.20272E+02 2.66662E+01 0.00000E+00
 -1         3 1.50000E+02 0.00000E+00 0.00000E+00
 -1         4 1.50000E+02 5.00000E+01 0.00000E+00
 -1         5 0.00000E+00 0.00000E+00 0.00000E+00
 -1         6 0.00000E+00 5.00000E+01 0.00000E+00
 -1         7 0.00000E+00 4.70500E+01 0.00000E+00
 -1         8 0.00000E+00 4.41000E+01 0.00000E+00
 -1         9 0.00000E+00 4.11500E+01 0.00000E+00
 -1        10 0.00000E+00 3.82000E+01 0.00000E+00
 -1        11 0.00000E+00 3.52500E+01 0.00000E+00
 -1        12 0.00000E+00 3.23500E+01 0.00000E+00
 -1        13 0.00000E+00 2.94000E+01 0.00000E+00
 -1        14 0.00000E+00 2.64500E+01 0.00000E+00
 -1        15 0.00000E+00 2.35000E+01 0.00000E+00
 -1        16 0.00000E+00 2.05500E+01 0.00000E+00
 -1        17 0.00000E+00 1.76000E+01 0.00000E+00
 -1        18 0.00000E+00 1.47000E+01 0.00000E+00
 -1        19 0.00000E+00 1.17500E+01 0.00000E+00
 -1        20 0.00000E+00 8.80000E+00 0.00000E+00
 -1        21 0.00000E+00 5.85000E+00 0.00000E+00
 -1        22 0.00000E+00 2.90000E+00 0.00000E+00
 -1        23 3.15000E+00 5.00000E+01 0.00000E+00
 -1        24 6.15000E+00 5.00000E+01 0.00000E+00
 -1        25 9.15000E+00 5.00000E+01 0.00000E+00
 -1        26 1.21500E+01 5.00000E+01 0.00000E+00
 -1        27 1.51500E+01 5.00000E+01 0.00000E+00
 -1        28 1.81500E+01 5.00000E+01 0.00000E+00
 -1        29 2.11500E+01 5.00000E+01 0.00000E+00
 -1        30 2.41500E+01 5.00000E+01 0.00000E+00
 -1        31 2.71500E+01 5.00000E+01 0.00000E+00
 -1        32 3.01500E+01 5.00000E+01 0.00000E+00
 -1        33 3.31500E+01 5.00000E+01 0.00000E+00
 -1        34 3.61500E+01 5.00000E+01 0.00000E+00
 -1        35 3.91500E+01 5.00000E+01 0.00000E+00
 -1        36 4.21500E+01 5.00000E+01 0.00000E+00
 -1        37 4.51500E+01 5.00000E+01 0.00000E+00
 -1        38 4.81500E+01 5.00000E+01 0.00000E+00
 -1        39 5.11500E+01 5.00000E+01 0.00000E+00
 -1        40 5.41500E+01 5.00000E+01 0.00000E+00
 -1        41 5.71500E+01 5.00000E+01 0.00000E+00
 -1        42 6.01500E+01 5.00000E+01 0.00000E+00
 -1        43 6.31500E+01 5.00000E+01 0.00000E+00
 -1        44 6.61500E+01 5.00000E+01 0.00000E+00
 -1        45 6.91500E+01 5.00000E+01 0.00000E+00
 -1        46 7.21500E+01 5.00000E+01 0.00000E+00
 -1        47 7.51500E+01 5.00000E+01 0.00000E+00
 -1        48 7.81500E+01 5.00000E+01 0.00000E+00
 -1        49 8.11500E+01 5.00000E+01 0.00000E+00
 -1        50 8.41500E+01 5.00000E+01 0.00000E+00
 -1        51 8.71500E+01 5.00000E+01 0.00000E+00
 -1        52 9.01500E+01 5.00000E+01 0.00000E+00
 -1        53 9.31500E+01 5.00000E+01 0.00000E+00
 -1        54 9.61500E+01 5.00000E+01 0.00000E+00
 -1        55 9.91500E+01 5.00000E+01 0.00000E+00
 -1        56 1.02150E+02 5.00000E+01 0.00000E+00
 -1        57 1.05150E+02 5.00000E+01 0.00000E+00
 -1        58 1.08150E+02 5.00000E+01 0.00000E+00
 -1        59 1.11150E+02 5.00000E+01 0.00000E+00
 -1        60 1.14150E+02 5.00000E+01 0.00000E+00
 -1        61 1.17150E+02 5.00000E+01 0.00000E+00
 -1        62 1.20150E+02 5.00000E+01 0.00000E+00
 -1        63 1.23150E+02 5.00000E+01 0.00000E+00
 -1        64 1.26150E+02 5.00000E+01 0.00000E+00
 -1        65 1.29150E+02 5.00000E+01 0.00000E+00
 -1        66 1.32150E+02 5.00000E+01 0.00000E+00
 -1        67 1.35150E+02 5.00000E+01 0.00000E+00
 -1        68 1.38150E+02 5.00000E+01 0.00000E+00
 -1        69 1.41150E+02 5.00000E+01 0.00000E+00
 -1        70 1.44150E+02 5.00000E+01 0.00000E+00
 -1        71 1.47150E+02 5.00000E+01 0.00000E+00
 -1        72 3.15000E+00 0.00000E+00 0.00000E+00
 -1        73 6.15000E+00 0.00000E+00 0.00000E+00
 -1        74 9.15000E+00 0.00000E+00 0.00000E+00
 -1        75 1.21500E+01 0.00000E+00 0.00000E+00
 -1        76 1.51500E+01 0.00000E+00 0.00000E+00
 -1        77 1.81500E+01 0.00000E+00 0.00000E+00
 -1        78 2.11500E+01 0.00000E+00 0.00000E+00
 -1        79 2.41500E+01 0.00000E+00 0.00000E+00
 -1        80 2.71500E+01 0.00000E+00 0.00000E+00
 -1        81 3.01500E+01 0.00000E+00 0.00000E+00
 -1        82 3.31500E+01 0.00000E+00 0.00000E+00
 -1        83 3.61500E+01 0.00000E+00 0.00000E+00
 -1        84 3.91500E+01 0.00000E+00 0.00000E+00
 -1        85 4.21500E+01 0.00000E+00 0.00000E+00
 -1        86 4.51500E+01 0.00000E+00 0.00000E+00
 -1        87 4.81500E+01 0.00000E+00 0.00000E+00
 -1        88 5.11500E+01 0.00000E+00 0.00000E+00
 -1        89 5.41500E+01 0.00000E+00 0.00000E+00
 -1        90 5.71500E+01 0.00000E+00 0.00000E+00
 -1        91 6.01500E+01 0.00000E+00 0.00000E+00
 -1        92 6.31500E+01 0.00000E+00 0.00000E+00
 -1        93 6.61500E+01 0.00000E+00 0.00000E+00
 -1        94 6.91500E+01 0.00000E+00 0.00000E+00
 -1        95 7.21500E+01 0.00000E+00 0.00000E+00
 -1        96 7.51500E+01 0.00000E+00 0.00000E+00
 -1        97 7.81500E+01 0.00000E+00 0.00000E+00
 -1        98 8.11500E+01 0.00000E+00 0.00000E+00
 -1        99 8.41500E+01 0.00000E+00 0.00000E+00
 -1       100 8.71500E+01 0.00000E+00 0.00000E+00
 -1       101 9.01500E+01 0.00000E+00 0.00000E+00
 -1       102 9.31500E+01 0.00000E+00 0.00000E+00
 -1       103 9.61500E+01 0.00000E+00 0.00000E+00
 -1       104 9.91500E+01 0.00000E+00 0.00000E+00
 -1       105 1.02150E+02 0.00000E+00 0.00000E+00
 -1       106 1.05150E+02 0.00000E+00 0.00000E+00
 -1       107 1.08150E+02 0.00000E+00 0.00000E+00
 -1       108 1.11150E+02 0.00000E+00 0.00000E+00
 -1       109 1.14150E+02 0.00000E+00 0.00000E+00
 -1       110 1.17150E+02 0.00000E+00 0.00000E+00
 -1       111 1.20150E+02 0.00000E+00 0.00000E+00
 -1       112 1.23150E+02 0.00000E+00 0.00000E+00
 -1       113 1.26150E+02 0.00000E+00 0.00000E+00
 -1       114 1.29150E+02 0.00000E+00 0.00000E+00
 -1       115 1.32150E+02 0.00000E+00 0.00000E+00
 -1       116 1.35150E+02 0.00000E+00 0.00000E+00
 -1       117 1.38150E+02 0.00000E+00 0.00000E+00
 -1       118 1.41150E+02 0.00000E+00 0.00000E+00
 -1       119 1.44150E+02 0.00000E+00 0.00000E+00
 -1       120 1.47150E+02 0.00000E+00 0.00000E+00
 -1       121 1.50000E+02 2.95000E+00 0.00000E+00
 -1       122 1.50000E+02 5.90000E+00 0.00000E+00
 -1       123 1.50000E+02 8.85000E+00 0.00000E+00
 -1       124 1.50000E+02 1.18000E+01 0.00000E+00
 -1       125 1.50000E+02 1.47500E+01 0.00000E+00
 -1       126 1.50000E+02 1.76500E+01 0.00000E+00
 -1       127 1.50000E+02 2.06000E+01 0.00000E+00
 -1       128 1.50000E+02 2.35500E+01 0.00000E+00
 -1       129 1.50000E+02 2.65000E+01 0.00000E+00
 -1       130 1.50000E+02 2.94500E+01 0.00000E+00
 -1       131 1.50000E+02 3.24000E+01 0.00000E+00
 -1       132 1.50000E+02 3.53000E+01 0.00000E+00
 -1       133 1.50000E+02 3.82500E+01 0.00000E+00
 -1       134 1.50000E+02 4.12000E+01 0.00000E+00
 -1       135 1.50000E+02 4.41500E+01 0.00000E+00
 -1       136 1.50000E+02 4.71000E+01 0.00000E+00
 -1       137 1.20114E+02 2.51879E+01 0.00000E+00
 -1       138 1.19665E+02 2.38139E+01 0.00000E+00
 -1       139 1.18906E+02 2.25109E+01 0.00000E+00
 -1       140 1.17917E+02 2.14287E+01 0.00000E+00
 -1       141 1.16732E+02 2.05811E+01 0.00000E+00
 -1       142 1.15264E+02 1.99554E+01 0.00000E+00
 -1       143 1.13834E+02 1.96888E+01 0.00000E+00
 -1       144 1.12291E+02 1.97354E+01 0.00000E+00
 -1       145 1.10806E+02 2.01152E+01 0.00000E+00
 -1       146 1.09464E+02 2.07930E+01 0.00000E+00
 -1       147 1.08235E+02 2.18060E+01 0.00000E+00
 -1       148 1.07310E+02 2.29994E+01 0.00000E+00
 -1       149 1.06640E+02 2.44283E+01 0.00000E+00
 -1       150 1.06315E+02 2.58929E+01 0.00000E+00
 -1       151 1.06308E+02 2.73756E+01 0.00000E+00
 -1       152 1.06634E+02 2.88884E+01 0.00000E+00
 -1       153 1.07287E+02 3.02962E+01 0.00000E+00
 -1       154 1.09252E+02 3.23966E+01 0.00000E+00
 -1       155 1.10600E+02 3.31361E+01 0.00000E+00
 -1       156 1.12011E+02 3.35516E+01 0.00000E+00
 -1       157 1.13529E+02 3.36615E+01 0.00000E+00
 -1       158 1.15061E+02 3.34337E+01 0.00000E+00
 -1       159 1.16521E+02 3.28668E+01 0.00000E+00
 -1       160 1.17723E+02 3.20689E+01 0.00000E+00
 -1       161 1.18755E+02 3.10185E+01 0.00000E+00
 -1       162 1.19564E+02 2.97348E+01 0.00000E+00
 -1       163 1.20097E+02 2.82216E+01 0.00000E+00
 -1       164 2.59800E+00 4.55750E+01 0.00000E+00
 -1       165 2.59800E+00 4.26250E+01 0.00000E+00
 -1       166 2.59800E+00 3.96750E+01 0.00000E+00
 -1       167 2.59800E+00 3.67250E+01 0.00000E+00
 -1       168 2.59800E+00 3.38250E+01 0.00000E+00
 -1       169 2.59800E+00 3.08750E+01 0.00000E+00
 -1       170 2.59800E+00 2.79250E+01 0.00000E+00
 -1       171 2.59800E+00 2.49750E+01 0.00000E+00
 -1       172 2.59800E+00 2.20250E+01 0.00000E+00
 -1       173 2.59800E+00 1.90750E+01 0.00000E+00
 -1       174 2.59800E+00 1.61750E+01 0.00000E+00
 -1       175 2.59800E+00 1.32250E+01 0.00000E+00
 -1       176 2.59800E+00 1.02750E+01 0.00000E+00
 -1       177 2.59800E+00 7.32500E+00 0.00000E+00
 -1       178 2.59800E+00 4.37500E+00 0.00000E+00
 -1       179 2.87400E+00 2.18750E+00 0.00000E+00
 -1       180 4.65000E+00 4.74020E+01 0.00000E+00
 -1       181 7.65000E+00 4.74020E+01 0.00000E+00
 -1       182 1.06500E+01 4.74020E+01 0.00000E+00
 -1       183 1.36500E+01 4.74020E+01 0.00000E+00
 -1       184 1.66500E+01 4.74020E+01 0.00000E+00
 -1       185 1.96500E+01 4.74020E+01 0.00000E+00
 -1       186 2.26500E+01 4.74020E+01 0.00000E+00
 -1       187 2.56500E+01 4.74020E+01 0.00000E+00
 -1       188 2.86500E+01 4.74020E+01 0.00000E+00
 -1       189 3.16500E+01 4.74020E+01 0.00000E+00
 -1       190 3.46500E+01 4.74020E+01 0.00000E+00
 -1       191 3.76500E+01 4.74020E+01 0.00000E+00
 -1       192 4.06500E+01 4.74020E+01 0.00000E+00
 -1       193 4.36500E+01 4.74020E+01 0.00000E+00
 -1       194 4.66500E+01 4.74020E+01 0.00000E+00
 -1       195 4.96500E+01 4.74020E+01 0.00000E+00
 -1       196 5.26500E+01 4.74020E+01 0.00000E+00
 -1       197 5.56500E+01 4.74020E+01 0.00000E+00
 -1       198 5.86500E+01 4.74020E+01 0.00000E+00
 -1       199 6.16500E+01 4.74020E+01 0.00000E+00
 -1       200 6.46500E+01 4.74020E+01 0.00000E+00
 -1       201 6.76500E+01 4.74020E+01 0.00000E+00
 -1       202 7.06500E+01 4.74020E+01 0.00000E+00
 -1       203 7.36500E+01 4.74020E+01 0.00000E+00
 -1       204 7.66500E+01 4.74020E+01 0.00000E+00
 -1       205 7.96500E+01 4.74020E+01 0.00000E+00
 -1       206 8.26500E+01 4.74020E+01 0.00000E+00
 -1       207 8.56500E+01 4.74020E+01 0.00000E+00
 -1       208 8.86500E+01 4.74020E+01 0.00000E+00
 -1       209 9.16500E+01 4.74020E+01 0.00000E+00
 -1       210 9.46500E+01 4.74020E+01 0.00000E+00
 -1       211 9.76500E+01 4.74020E+01 0.00000E+00
 -1       212 1.00650E+02 4.74020E+01 0.00000E+00
 -1       213 1.03650E+02 4.74020E+01 0.00000E+00
 -1       214 1.06650E+02 4.74020E+01 0.00000E+00
 -1       215 1.09650E+02 4.74020E+01 0.00000E+00
 -1       216 1.12650E+02 4.74020E+01 0.00000E+00
 -1       217 1.15650E+02 4.74020E+01 0.00000E+00
 -1       218 1.18650E+02 4.74020E+01 0.00000E+00
 -1       219 1.21650E+02 4.74020E+01 0.00000E+00
 -1       220 1.24650E+02 4.74020E+01 0.00000E+00
 -1       221 1.27650E+02 4.74020E+01 0.00000E+00
 -1       222 1.30650E+02 4.74020E+01 0.00000E+00
 -1       223 1.33650E+02 4.74020E+01 0.00000E+00
 -1       224 1.36650E+02 4.74020E+01 0.00000E+00
 -1       225 1.39650E+02 4.74020E+01 0.00000E+00
 -1       226 1.42650E+02 4.74020E+01 0.00000E+00
 -1       227 1.45650E+02 4.74020E+01 0.00000E+00
 -1       228 5.87400E+00 2.18750E+00 0.00000E+00
 -1       229 8.87400E+00 2.18750E+00 0.00000E+00
 -1       230 1.18740E+01 2.18750E+00 0.00000E+00
 -1       231 1.48740E+01 2.18750E+00 0.00000E+00
 -1       232 1.78740E+01 2.18750E+00 0.00000E+00
 -1       233 2.08740E+01 2.18750E+00 0.00000E+00
 -1       234 2.38740E+01 2.18750E+00 0.00000E+00
 -1       235 2.68740E+01 2.18750E+00 0.00000E+00
 -1       236 2.98740E+01 2.18750E+00 0.00000E+00
 -1       237 3.28740E+01 2.18750E+00 0.00000E+00
 -1       238 3.58740E+01 2.18750E+00 0.00000E+00
 -1       239 3.88740E+01 2.18750E+00 0.00000E+00
 -1       240 4.18740E+01 2.18750E+00 0.00000E+00
 -1       241 4.48740E+01 2.18750E+00 0.00000E+00
 -1       242 4.78740E+01 2.18750E+00 0.00000E+00
 -1       243 5.08740E+01 2.18750E+00 0.00000E+00
 -1       244 5.38740E+01 2.18750E+00 0.00000E+00
 -1       245 5.68740E+01 2.18750E+00 0.00000E+00
 -1       246 5.98740E+01 2.18750E+00 0.00000E+00
 -1       247 6.28740E+01 2.18750E+00 0.00000E+00
 -1       248 6.58740E+01 2.18750E+00 0.00000E+00
 -1       249 6.88740E+01 2.18750E+00 0.00000E+00
 -1       250 7.18740E+01 2.18750E+00 0.00000E+00
 -1       251 7.48740E+01 2.18750E+00 0.00000E+00
 -1       252 7.78740E+01 2.18750E+00 0.00000E+00
 -1       253 8.08740E+01 2.18750E+00 0.00000E+00
 -1       254 8.38740E+01 2.18750E+00 0.00000E+00
 -1       255 8.68740E+01 2.18750E+00 0.00000E+00
 -1       256 8.98740E+01 2.18750E+00 0.00000E+00
 -1       257 9.28740E+01 2.18750E+00 0.00000E+00
 -1       258 9.58740E+01 2.18750E+00 0.00000E+00
 -1       259 9.88740E+01 2.18750E+00 0.00000E+00
 -1       260 1.01874E+02 2.18750E+00 0.00000E+00
 -1       261 1.04874E+02 2.18750E+00 0.00000E+00
 -1       262 1.07874E+02 2.18750E+00 0.00000E+00
 -1       263 1.10874E+02 2.18750E+00 0.00000E+00
 -1       264 1.13874E+02 2.18750E+00 0.00000E+00
 -1       265 1.16874E+02 2.18750E+00 0.00000E+00
 -1       266 1.19874E+02 2.18750E+00 0.00000E+00
 -1       267 1.22874E+02 2.18750E+00 0.00000E+00
 -1       268 1.25874E+02 2.18750E+00 0.00000E+00
 -1       269 1.28874E+02 2.18750E+00 0.00000E+00
 -1       270 1.31874E+02 2.18750E+00 0.00000E+00
 -1       271 1.34874E+02 2.18750E+00 0.00000E+00
 -1       272 1.37874E+02 2.18750E+00 0.00000E+00
 -1       273 1.40874E+02 2.18750E+00 0.00000E+00
 -1       274 1.43874E+02 2.18750E+00 0.00000E+00
 -1       275 1.46874E+02 2.18750E+00 0.00000E+00
 -1       276 1.47402E+02 4.42500E+00 0.00000E+00
 -1       277 1.47402E+02 7.37500E+00 0.00000E+00
 -1       278 1.47402E+02 1.03250E+01 0.00000E+00
 -1       279 1.47402E+02 1.32750E+01 0.00000E+00
 -1       280 1.47402E+02 1.61750E+01 0.00000E+00
 -1       281 1.47402E+02 1.91250E+01 0.00000E+00
 -1       282 1.47402E+02 2.20750E+01 0.00000E+00
 -1       283 1.47402E+02 2.50250E+01 0.00000E+00
 -1       284 1.47402E+02 2.79750E+01 0.00000E+00
 -1       285 1.47402E+02 3.09250E+01 0.00000E+00
 -1       286 1.47402E+02 3.38250E+01 0.00000E+00
 -1       287 1.47402E+02 3.67750E+01 0.00000E+00
 -1       288 1.47402E+02 3.97250E+01 0.00000E+00
 -1       289 1.47402E+02 4.26750E+01 0.00000E+00
 -1       290 1.46526E+02 4.50385E+01 0.00000E+00
 -1       291 1.21399E+02 2.57983E+01 0.00000E+00
 -1       292 1.21042E+02 2.41239E+01 0.00000E+00
 -1       293 1.20478E+02 2.24676E+01 0.00000E+00
 -1       294 1.19306E+02 2.11519E+01 0.00000E+00
 -1       295 1.18030E+02 2.00190E+01 0.00000E+00
 -1       296 1.16572E+02 1.89216E+01 0.00000E+00
 -1       297 1.14771E+02 1.86302E+01 0.00000E+00
 -1       298 1.13021E+02 1.83327E+01 0.00000E+00
 -1       299 1.11248E+02 1.87507E+01 0.00000E+00
 -1       300 1.09588E+02 1.93719E+01 0.00000E+00
 -1       301 1.08078E+02 2.03639E+01 0.00000E+00
 -1       302 1.06814E+02 2.16599E+01 0.00000E+00
 -1       303 1.05725E+02 2.31281E+01 0.00000E+00
 -1       304 1.05294E+02 2.48984E+01 0.00000E+00
 -1       305 1.05099E+02 2.66287E+01 0.00000E+00
 -1       306 1.05286E+02 2.83874E+01 0.00000E+00
 -1       307 1.05709E+02 3.01727E+01 0.00000E+00
 -1       308 1.06672E+02 3.16344E+01 0.00000E+00
 -1       309 1.07892E+02 3.28176E+01 0.00000E+00
 -1       310 1.09303E+02 3.39027E+01 0.00000E+00
 -1       311 1.10963E+02 3.45068E+01 0.00000E+00
 -1       312 1.12676E+02 3.48994E+01 0.00000E+00
 -1       313 1.14498E+02 3.49126E+01 0.00000E+00
 -1       314 1.16261E+02 3.43585E+01 0.00000E+00
 -1       315 1.17792E+02 3.34781E+01 0.00000E+00
 -1       316 1.19104E+02 3.23932E+01 0.00000E+00
 -1       317 1.20185E+02 3.10231E+01 0.00000E+00
 -1       318 1.21132E+02 2.94370E+01 0.00000E+00
 -1       319 1.21473E+02 2.75888E+01 0.00000E+00
 -1       320 5.19600E+00 4.11500E+01 0.00000E+00
 -1       321 5.19600E+00 4.41000E+01 0.00000E+00
 -1       322 5.19600E+00 3.52750E+01 0.00000E+00
 -1       323 5.19600E+00 3.23250E+01 0.00000E+00
 -1       324 5.19600E+00 2.93750E+01 0.00000E+00
 -1       325 5.19600E+00 2.64250E+01 0.00000E+00
 -1       326 5.19600E+00 2.34750E+01 0.00000E+00
 -1       327 5.19600E+00 2.05250E+01 0.00000E+00
 -1       328 5.19600E+00 1.76250E+01 0.00000E+00
 -1       329 5.19600E+00 1.46750E+01 0.00000E+00
 -1       330 5.19600E+00 1.17250E+01 0.00000E+00
 -1       331 5.19600E+00 8.77500E+00 0.00000E+00
 -1       332 5.19600E+00 5.82500E+00 0.00000E+00
 -1       333 5.53500E+00 4.00625E+00 0.00000E+00
 -1       334 8.53500E+00 4.00625E+00 0.00000E+00
 -1       335 9.15000E+00 4.48040E+01 0.00000E+00
 -1       336 1.21500E+01 4.48040E+01 0.00000E+00
 -1       337 1.51500E+01 4.48040E+01 0.00000E+00
 -1       338 1.81500E+01 4.48040E+01 0.00000E+00
 -1       339 2.11500E+01 4.48040E+01 0.00000E+00
 -1       340 2.41500E+01 4.48040E+01 0.00000E+00
 -1       341 2.71500E+01 4.48040E+01 0.00000E+00
 -1       342 3.01500E+01 4.48040E+01 0.00000E+00
 -1       343 3.31500E+01 4.48040E+01 0.00000E+00
 -1       344 3.61500E+01 4.48040E+01 0.00000E+00
 -1       345 3.91500E+01 4.48040E+01 0.00000E+00
 -1       346 4.21500E+01 4.48040E+01 0.00000E+00
 -1       347 4.51500E+01 4.48040E+01 0.00000E+00
 -1       348 4.81500E+01 4.48040E+01 0.00000E+00
 -1       349 5.11500E+01 4.48040E+01 0.00000E+00
 -1       350 5.41500E+01 4.48040E+01 0.00000E+00
 -1       351 5.71500E+01 4.48040E+01 0.00000E+00
 -1       352 6.01500E+01 4.48040E+01 0.00000E+00
 -1       353 6.31500E+01 4.48040E+01 0.00000E+00
 -1       354 6.61500E+01 4.48040E+01 0.00000E+00
 -1       355 6.91500E+01 4.48040E+01 0.00000E+00
 -1       356 7.21500E+01 4.48040E+01 0.00000E+00
 -1       357 7.51500E+01 4.48040E+01 0.00000E+00
 -1       358 7.81500E+01 4.48040E+01 0.00000E+00
 -1       359 8.11500E+01 4.48040E+01 0.00000E+00
 -1       360 8.41500E+01 4.48040E+01 0.00000E+00
 -1       361 8.71500E+01 4.48040E+01 0.00000E+00
 -1       362 9.01500E+01 4.48040E+01 0.00000E+00
 -1       363 9.31500E+01 4.48040E+01 0.00000E+00
 -1       364 9.61500E+01 4.48040E+01 0.00000E+00
 -1       365 9.91500E+01 4.48040E+01 0.00000E+00
 -1       366 1.02150E+02 4.48040E+01 0.00000E+00
 -1       367 1.05150E+02 4.48040E+01 0.00000E+00
 -1       368 1.08150E+02 4.48040E+01 0.00000E+00
 -1       369 1.11150E+02 4.48040E+01 0.00000E+00
 -1       370 1.14150E+02 4.48040E+01 0.00000E+00
 -1       371 1.17150E+02 4.48040E+01 0.00000E+00
 -1       372 1.20150E+02 4.48040E+01 0.00000E+00
 -1       373 1.23150E+02 4.48040E+01 0.00000E+00
 -1       374 1.26150E+02 4.48040E+01 0.00000E+00
 -1       375 1.29150E+02 4.48040E+01 0.00000E+00
 -1       376 1.32150E+02 4.48040E+01 0.00000E+00
 -1       377 1.35150E+02 4.48040E+01 0.00000E+00
 -1       378 1.38150E+02 4.48040E+01 0.00000E+00
 -1       379 1.41150E+02 4.48040E+01 0.00000E+00
 -1       380 1.43838E+02 4.49212E+01 0.00000E+00
 -1       381 1.15350E+01 4.00625E+00 0.00000E+00
 -1       382 1.45350E+01 4.00625E+00 0.00000E+00
 -1       383 1.75350E+01 4.00625E+00 0.00000E+00
 -1       384 2.05350E+01 4.00625E+00 0.00000E+00
 -1       385 2.35350E+01 4.00625E+00 0.00000E+00
 -1       386 2.65350E+01 4.00625E+00 0.00000E+00
 -1       387 2.95350E+01 4.00625E+00 0.00000E+00
 -1       388 3.25350E+01 4.00625E+00 0.00000E+00
 -1       389 3.55350E+01 4.00625E+00 0.00000E+00
 -1       390 3.85350E+01 4.00625E+00 0.00000E+00
 -1       391 4.15350E+01 4.00625E+00 0.00000E+00
 -1       392 4.45350E+01 4.00625E+00 0.00000E+00
 -1       393 4.75350E+01 4.00625E+00 0.00000E+00
 -1       394 5.05350E+01 4.00625E+00 0.00000E+00
 -1       395 5.35350E+01 4.00625E+00 0.00000E+00
 -1       396 5.65350E+01 4.00625E+00 0.00000E+00
 -1       397 5.95350E+01 4.00625E+00 0.00000E+00
 -1       398 6.25350E+01 4.00625E+00 0.00000E+00
 -1       399 6.55350E+01 4.00625E+00 0.00000E+00
 -1       400 6.85350E+01 4.00625E+00 0.00000E+00
 -1       401 7.15350E+01 4.00625E+00 0.00000E+00
 -1       402 7.45350E+01 4.00625E+00 0.00000E+00
 -1       403 7.75350E+01 4.00625E+00 0.00000E+00
 -1       404 8.05350E+01 4.00625E+00 0.00000E+00
 -1       405 8.35350E+01 4.00625E+00 0.00000E+00
 -1       406 8.65350E+01 4.00625E+00 0.00000E+00
 -1       407 8.95350E+01 4.00625E+00 0.00000E+00
 -1       408 9.25350E+01 4.00625E+00 0.00000E+00
 -1       409 9.55350E+01 4.00625E+00 0.00000E+00
 -1       410 9.85350E+01 4.00625E+00 0.00000E+00
 -1       411 1.01535E+02 4.00625E+00 0.00000E+00
 -1       412 1.04535E+02 4.00625E+00 0.00000E+00
 -1       413 1.07535E+02 4.00625E+00 0.00000E+00
 -1       414 1.10535E+02 4.00625E+00 0.00000E+00
 -1       415 1.13535E+02 4.00625E+00 0.00000E+00
 -1       416 1.16535E+02 4.00625E+00 0.00000E+00
 -1       417 1.19535E+02 4.00625E+00 0.00000E+00
 -1       418 1.22535E+02 4.00625E+00 0.00000E+00
 -1       419 1.25535E+02 4.00625E+00 0.00000E+00
 -1       420 1.28535E+02 4.00625E+00 0.00000E+00
 -1       421 1.31535E+02 4.00625E+00 0.00000E+00
 -1       422 1.34535E+02 4.00625E+00 0.00000E+00
 -1       423 1.37535E+02 4.00625E+00 0.00000E+00
 -1       424 1.40535E+02 4.00625E+00 0.00000E+00
 -1       425 1.43535E+02 4.00625E+00 0.00000E+00
 -1       426 1.45469E+02 4.21562E+00 0.00000E+00
 -1       427 1.44804E+02 1.18000E+01 0.00000E+00
 -1       428 1.44804E+02 8.85000E+00 0.00000E+00
 -1       429 1.45136E+02 6.53281E+00 0.00000E+00
 -1       430 1.44804E+02 1.47000E+01 0.00000E+00
 -1       431 1.44804E+02 1.76500E+01 0.00000E+00
 -1       432 1.44804E+02 2.06000E+01 0.00000E+00
 -1       433 1.44804E+02 2.35500E+01 0.00000E+00
 -1       434 1.44804E+02 2.65000E+01 0.00000E+00
 -1       435 1.44804E+02 2.94500E+01 0.00000E+00
 -1       436 1.44804E+02 3.23500E+01 0.00000E+00
 -1       437 1.44804E+02 3.53000E+01 0.00000E+00
 -1       438 1.44804E+02 3.82500E+01 0.00000E+00
 -1       439 1.44804E+02 4.12000E+01 0.00000E+00
 -1       440 1.22304E+02 2.27695E+01 0.00000E+00
 -1       441 1.23066E+02 2.66262E+01 0.00000E+00
 -1       442 1.22661E+02 2.44440E+01 0.00000E+00
 -1       443 1.20860E+02 2.09478E+01 0.00000E+00
 -1       444 1.19640E+02 1.94909E+01 0.00000E+00
 -1       445 5.19600E+00 3.82125E+01 0.00000E+00
 -1       446 1.15919E+02 1.72482E+01 0.00000E+00
 -1       447 1.14168E+02 1.69508E+01 0.00000E+00
 -1       448 1.11779E+02 1.70355E+01 0.00000E+00
 -1       449 1.09934E+02 1.77689E+01 0.00000E+00
 -1       450 1.08075E+02 1.87146E+01 0.00000E+00
 -1       451 1.06218E+02 1.98143E+01 0.00000E+00
 -1       452 1.05130E+02 2.12825E+01 0.00000E+00
 -1       453 1.03518E+02 2.35278E+01 0.00000E+00
 -1       454 1.03909E+02 2.56189E+01 0.00000E+00
 -1       455 1.03821E+02 2.76538E+01 0.00000E+00
 -1       456 1.03992E+02 2.96365E+01 0.00000E+00
 -1       457 1.05108E+02 3.16168E+01 0.00000E+00
 -1       458 1.06321E+02 3.32166E+01 0.00000E+00
 -1       459 1.07705E+02 3.45204E+01 0.00000E+00
 -1       460 1.09661E+02 3.55016E+01 0.00000E+00
 -1       461 1.11530E+02 3.59666E+01 0.00000E+00
 -1       462 1.13576E+02 3.64535E+01 0.00000E+00
 -1       463 1.15869E+02 3.61918E+01 0.00000E+00
 -1       464 1.17881E+02 3.54053E+01 0.00000E+00
 -1       465 1.19435E+02 3.41281E+01 0.00000E+00
 -1       466 1.20794E+02 3.26148E+01 0.00000E+00
 -1       467 1.21741E+02 3.10287E+01 0.00000E+00
 -1       468 1.22577E+02 2.87480E+01 0.00000E+00
 -1       469 1.18181E+02 1.83935E+01 0.00000E+00
 -1       470 1.17528E+02 1.67201E+01 0.00000E+00
 -1       471 1.23186E+02 3.03397E+01 0.00000E+00
 -1       472 1.00350E+01 6.60425E+00 0.00000E+00
 -1       473 7.79400E+00 3.08500E+01 0.00000E+00
 -1       474 7.79400E+00 3.38000E+01 0.00000E+00
 -1       475 7.79400E+00 2.49500E+01 0.00000E+00
 -1       476 7.79400E+00 2.20000E+01 0.00000E+00
 -1       477 7.79400E+00 1.91000E+01 0.00000E+00
 -1       478 7.79400E+00 1.61500E+01 0.00000E+00
 -1       479 7.79400E+00 1.32000E+01 0.00000E+00
 -1       480 7.79400E+00 1.02500E+01 0.00000E+00
 -1       481 1.24467E+02 2.52374E+01 0.00000E+00
 -1       482 1.30350E+01 6.60425E+00 0.00000E+00
 -1       483 1.06500E+01 4.22060E+01 0.00000E+00
 -1       484 1.36500E+01 4.22060E+01 0.00000E+00
 -1       485 1.66500E+01 4.22060E+01 0.00000E+00
 -1       486 1.96500E+01 4.22060E+01 0.00000E+00
 -1       487 2.26500E+01 4.22060E+01 0.00000E+00
 -1       488 2.56500E+01 4.22060E+01 0.00000E+00
 -1       489 2.86500E+01 4.22060E+01 0.00000E+00
 -1       490 3.16500E+01 4.22060E+01 0.00000E+00
 -1       491 3.46500E+01 4.22060E+01 0.00000E+00
 -1       492 3.76500E+01 4.22060E+01 0.00000E+00
 -1       493 4.06500E+01 4.22060E+01 0.00000E+00
 -1       494 4.36500E+01 4.22060E+01 0.00000E+00
 -1       495 4.66500E+01 4.22060E+01 0.00000E+00
 -1       496 4.96500E+01 4.22060E+01 0.00000E+00
 -1       497 5.26500E+01 4.22060E+01 0.00000E+00
 -1       498 5.56500E+01 4.22060E+01 0.00000E+00
 -1       499 5.86500E+01 4.22060E+01 0.00000E+00
 -1       500 6.16500E+01 4.22060E+01 0.00000E+00
 -1       501 6.46500E+01 4.22060E+01 0.00000E+00
 -1       502 6.76500E+01 4.22060E+01 0.00000E+00
 -1       503 7.06500E+01 4.22060E+01 0.00000E+00
 -1       504 7.36500E+01 4.22060E+01 0.00000E+00
 -1       505 7.66500E+01 4.22060E+01 0.00000E+00
 -1       506 7.96500E+01 4.22060E+01 0.00000E+00
 -1       507 8.26500E+01 4.22060E+01 0.00000E+00
 -1       508 8.56500E+01 4.22060E+01 0.00000E+00
 -1       509 8.86500E+01 4.22060E+01 0.00000E+00
 -1       510 9.16500E+01 4.22060E+01 0.00000E+00
 -1       511 9.46500E+01 4.22060E+01 0.00000E+00
 -1       512 9.76500E+01 4.22060E+01 0.00000E+00
 -1       513 1.00650E+02 4.22060E+01 0.00000E+00
 -1       514 1.03650E+02 4.22060E+01 0.00000E+00
 -1       515 1.06650E+02 4.22060E+01 0.00000E+00
 -1       516 1.09650E+02 4.22060E+01 0.00000E+00
 -1       517 1.12650E+02 4.22060E+01 0.00000E+00
 -1       518 1.15650E+02 4.22060E+01 0.00000E+00
 -1       519 1.18650E+02 4.22060E+01 0.00000E+00
 -1       520 1.21650E+02 4.22060E+01 0.00000E+00
 -1       521 1.24650E+02 4.22060E+01 0.00000E+00
 -1       522 1.27650E+02 4.22060E+01 0.00000E+00
 -1       523 1.30650E+02 4.22060E+01 0.00000E+00
 -1       524 1.33650E+02 4.22060E+01 0.00000E+00
 -1       525 1.36650E+02 4.22060E+01 0.00000E+00
 -1       526 1.39650E+02 4.22060E+01 0.00000E+00
 -1       527 1.24110E+02 2.35630E+01 0.00000E+00
 -1       528 1.90350E+01 6.60425E+00 0.00000E+00
 -1       529 2.20350E+01 6.60425E+00 0.00000E+00
 -1       530 2.50350E+01 6.60425E+00 0.00000E+00
 -1       531 2.80350E+01 6.60425E+00 0.00000E+00
 -1       532 3.10350E+01 6.60425E+00 0.00000E+00
 -1       533 3.40350E+01 6.60425E+00 0.00000E+00
 -1       534 3.70350E+01 6.60425E+00 0.00000E+00
 -1       535 4.00350E+01 6.60425E+00 0.00000E+00
 -1       536 4.30350E+01 6.60425E+00 0.00000E+00
 -1       537 4.60350E+01 6.60425E+00 0.00000E+00
 -1       538 4.90350E+01 6.60425E+00 0.00000E+00
 -1       539 5.20350E+01 6.60425E+00 0.00000E+00
 -1       540 5.50350E+01 6.60425E+00 0.00000E+00
 -1       541 5.80350E+01 6.60425E+00 0.00000E+00
 -1       542 6.10350E+01 6.60425E+00 0.00000E+00
 -1       543 6.40350E+01 6.60425E+00 0.00000E+00
 -1       544 6.70350E+01 6.60425E+00 0.00000E+00
 -1       545 7.00350E+01 6.60425E+00 0.00000E+00
 -1       546 7.30350E+01 6.60425E+00 0.00000E+00
 -1       547 7.60350E+01 6.60425E+00 0.00000E+00
 -1       548 7.90350E+01 6.60425E+00 0.00000E+00
 -1       549 8.20350E+01 6.60425E+00 0.00000E+00
 -1       550 8.50350E+01 6.60425E+00 0.00000E+00
 -1       551 8.80350E+01 6.60425E+00 0.00000E+00
 -1       552 9.10350E+01 6.60425E+00 0.00000E+00
 -1       553 9.40350E+01 6.60425E+00 0.00000E+00
 -1       554 9.70350E+01 6.60425E+00 0.00000E+00
 -1       555 1.00035E+02 6.60425E+00 0.00000E+00
 -1       556 1.03035E+02 6.60425E+00 0.00000E+00
 -1       557 1.06035E+02 6.60425E+00 0.00000E+00
 -1       558 1.09035E+02 6.60425E+00 0.00000E+00
 -1       559 1.12035E+02 6.60425E+00 0.00000E+00
 -1       560 1.15035E+02 6.60425E+00 0.00000E+00
 -1       561 1.18035E+02 6.60425E+00 0.00000E+00
 -1       562 1.21035E+02 6.60425E+00 0.00000E+00
 -1       563 1.24035E+02 6.60425E+00 0.00000E+00
 -1       564 1.27035E+02 6.60425E+00 0.00000E+00
 -1       565 1.30035E+02 6.60425E+00 0.00000E+00
 -1       566 1.33035E+02 6.60425E+00 0.00000E+00
 -1       567 1.36035E+02 6.60425E+00 0.00000E+00
 -1       568 1.39035E+02 6.60425E+00 0.00000E+00
 -1       569 1.42035E+02 6.60425E+00 0.00000E+00
 -1       570 1.42206E+02 1.61750E+01 0.00000E+00
 -1       571 1.42206E+02 1.91250E+01 0.00000E+00
 -1       572 1.42206E+02 1.03250E+01 0.00000E+00
 -1       573 1.42206E+02 1.32500E+01 0.00000E+00
 -1       574 1.42206E+02 2.20750E+01 0.00000E+00
 -1       575 1.42206E+02 2.50250E+01 0.00000E+00
 -1       576 1.42206E+02 2.79750E+01 0.00000E+00
 -1       577 1.42206E+02 3.08750E+01 0.00000E+00
 -1       578 1.42206E+02 3.38250E+01 0.00000E+00
 -1       579 1.42206E+02 3.67750E+01 0.00000E+00
 -1       580 1.42206E+02 3.97250E+01 0.00000E+00
 -1       581 1.24248E+02 2.80156E+01 0.00000E+00
 -1       582 1.60350E+01 6.60425E+00 0.00000E+00
 -1       583 1.22729E+02 2.09494E+01 0.00000E+00
 -1       584 7.92300E+00 4.16780E+01 0.00000E+00
 -1       585 1.21328E+02 3.44615E+01 0.00000E+00
 -1       586 1.06188E+02 1.76445E+01 0.00000E+00
 -1       587 7.79400E+00 2.79000E+01 0.00000E+00
 -1       588 1.10223E+02 1.58084E+01 0.00000E+00
 -1       589 1.15331E+02 1.54086E+01 0.00000E+00
 -1       590 1.02027E+02 2.48886E+01 0.00000E+00
 -1       591 1.12916E+02 1.53628E+01 0.00000E+00
 -1       592 1.08046E+02 1.66988E+01 0.00000E+00
 -1       593 1.04296E+02 1.95268E+01 0.00000E+00
 -1       594 1.02684E+02 2.17721E+01 0.00000E+00
 -1       595 1.01939E+02 2.69235E+01 0.00000E+00
 -1       596 1.02110E+02 2.89062E+01 0.00000E+00
 -1       597 1.03129E+02 3.14279E+01 0.00000E+00
 -1       598 1.04348E+02 3.34530E+01 0.00000E+00
 -1       599 1.05732E+02 3.47568E+01 0.00000E+00
 -1       600 1.07839E+02 3.66939E+01 0.00000E+00
 -1       601 1.10263E+02 3.70732E+01 0.00000E+00
 -1       602 1.12175E+02 3.77970E+01 0.00000E+00
 -1       603 1.14907E+02 3.79434E+01 0.00000E+00
 -1       604 1.17560E+02 3.75521E+01 0.00000E+00
 -1       605 1.19694E+02 3.60269E+01 0.00000E+00
 -1       606 1.22668E+02 3.26581E+01 0.00000E+00
 -1       607 1.21436E+02 1.92258E+01 0.00000E+00
 -1       608 1.19942E+02 1.75717E+01 0.00000E+00
 -1       609 7.61550E+00 6.21462E+00 0.00000E+00
 -1       610 7.79400E+00 3.67375E+01 0.00000E+00
 -1       611 1.25649E+02 2.66268E+01 0.00000E+00
 -1       612 1.24535E+02 2.17428E+01 0.00000E+00
 -1       613 1.24857E+02 2.96073E+01 0.00000E+00
 -1       614 1.41678E+02 4.22645E+01 0.00000E+00
 -1       615 1.01194E+02 2.31329E+01 0.00000E+00
 -1       616 1.03920E+01 2.05500E+01 0.00000E+00
 -1       617 1.03920E+01 2.35000E+01 0.00000E+00
 -1       618 1.03920E+01 1.46750E+01 0.00000E+00
 -1       619 1.03920E+01 1.17250E+01 0.00000E+00
 -1       620 1.40178E+02 3.96665E+01 0.00000E+00
 -1       621 1.15350E+01 9.20225E+00 0.00000E+00
 -1       622 1.51500E+01 3.96080E+01 0.00000E+00
 -1       623 1.81500E+01 3.96080E+01 0.00000E+00
 -1       624 2.11500E+01 3.96080E+01 0.00000E+00
 -1       625 2.41500E+01 3.96080E+01 0.00000E+00
 -1       626 2.71500E+01 3.96080E+01 0.00000E+00
 -1       627 3.01500E+01 3.96080E+01 0.00000E+00
 -1       628 3.31500E+01 3.96080E+01 0.00000E+00
 -1       629 3.61500E+01 3.96080E+01 0.00000E+00
 -1       630 3.91500E+01 3.96080E+01 0.00000E+00
 -1       631 4.21500E+01 3.96080E+01 0.00000E+00
 -1       632 4.51500E+01 3.96080E+01 0.00000E+00
 -1       633 4.81500E+01 3.96080E+01 0.00000E+00
 -1       634 5.11500E+01 3.96080E+01 0.00000E+00
 -1       635 5.41500E+01 3.96080E+01 0.00000E+00
 -1       636 5.71500E+01 3.96080E+01 0.00000E+00
 -1       637 6.01500E+01 3.96080E+01 0.00000E+00
 -1       638 6.31500E+01 3.96080E+01 0.00000E+00
 -1       639 6.61500E+01 3.96080E+01 0.00000E+00
 -1       640 6.91500E+01 3.96080E+01 0.00000E+00
 -1       641 7.21500E+01 3.96080E+01 0.00000E+00
 -1       642 7.51500E+01 3.96080E+01 0.00000E+00
 -1       643 7.81500E+01 3.96080E+01 0.00000E+00
 -1       644 8.11500E+01 3.96080E+01 0.00000E+00
 -1       645 8.41500E+01 3.96080E+01 0.00000E+00
 -1       646 8.71500E+01 3.96080E+01 0.00000E+00
 -1       647 9.01500E+01 3.96080E+01 0.00000E+00
 -1       648 9.31500E+01 3.96080E+01 0.00000E+00
 -1       649 9.61500E+01 3.96080E+01 0.00000E+00
 -1       650 9.91500E+01 3.96080E+01 0.00000E+00
 -1       651 1.02150E+02 3.96080E+01 0.00000E+00
 -1       652 1.05150E+02 3.96080E+01 0.00000E+00
 -1       653 1.08150E+02 3.96080E+01 0.00000E+00
 -1       654 1.14150E+02 4.01558E+01 0.00000E+00
 -1       655 1.17150E+02 3.99882E+01 0.00000E+00
 -1       656 1.20150E+02 3.99882E+01 0.00000E+00
 -1       657 1.23150E+02 3.99882E+01 0.00000E+00
 -1       658 1.26150E+02 3.99882E+01 0.00000E+00
 -1       659 1.29150E+02 3.99882E+01 0.00000E+00
 -1       660 1.32150E+02 3.99882E+01 0.00000E+00
 -1       661 1.35150E+02 3.99882E+01 0.00000E+00
 -1       662 1.37664E+02 3.98273E+01 0.00000E+00
 -1       663 1.21900E+02 1.73051E+01 0.00000E+00
 -1       664 2.35350E+01 9.20225E+00 0.00000E+00
 -1       665 2.05350E+01 9.20225E+00 0.00000E+00
 -1       666 2.95350E+01 9.20225E+00 0.00000E+00
 -1       667 3.25350E+01 9.20225E+00 0.00000E+00
 -1       668 3.55350E+01 9.20225E+00 0.00000E+00
 -1       669 3.85350E+01 9.20225E+00 0.00000E+00
 -1       670 4.15350E+01 9.20225E+00 0.00000E+00
 -1       671 4.45350E+01 9.20225E+00 0.00000E+00
 -1       672 4.75350E+01 9.20225E+00 0.00000E+00
 -1       673 5.05350E+01 9.20225E+00 0.00000E+00
 -1       674 5.35350E+01 9.20225E+00 0.00000E+00
 -1       675 5.65350E+01 9.20225E+00 0.00000E+00
 -1       676 5.95350E+01 9.20225E+00 0.00000E+00
 -1       677 6.25350E+01 9.20225E+00 0.00000E+00
 -1       678 6.55350E+01 9.20225E+00 0.00000E+00
 -1       679 6.85350E+01 9.20225E+00 0.00000E+00
 -1       680 7.15350E+01 9.20225E+00 0.00000E+00
 -1       681 7.45350E+01 9.20225E+00 0.00000E+00
 -1       682 7.75350E+01 9.20225E+00 0.00000E+00
 -1       683 8.05350E+01 9.20225E+00 0.00000E+00
 -1       684 8.35350E+01 9.20225E+00 0.00000E+00
 -1       685 8.65350E+01 9.20225E+00 0.00000E+00
 -1       686 8.95350E+01 9.20225E+00 0.00000E+00
 -1       687 9.25350E+01 9.20225E+00 0.00000E+00
 -1       688 9.55350E+01 9.20225E+00 0.00000E+00
 -1       689 9.85350E+01 9.20225E+00 0.00000E+00
 -1       690 1.01535E+02 9.20225E+00 0.00000E+00
 -1       691 1.04535E+02 9.20225E+00 0.00000E+00
 -1       692 1.07535E+02 9.20225E+00 0.00000E+00
 -1       693 1.10535E+02 9.20225E+00 0.00000E+00
 -1       694 1.13535E+02 9.20225E+00 0.00000E+00
 -1       695 1.16535E+02 9.20225E+00 0.00000E+00
 -1       696 1.19535E+02 9.20225E+00 0.00000E+00
 -1       697 1.22535E+02 9.20225E+00 0.00000E+00
 -1       698 1.25535E+02 9.20225E+00 0.00000E+00
 -1       699 1.28535E+02 9.20225E+00 0.00000E+00
 -1       700 1.31535E+02 9.20225E+00 0.00000E+00
 -1       701 1.34535E+02 9.20225E+00 0.00000E+00
 -1       702 1.37535E+02 9.20225E+00 0.00000E+00
 -1       703 1.39870E+02 9.76363E+00 0.00000E+00
 -1       704 1.39608E+02 2.35500E+01 0.00000E+00
 -1       705 1.08232E+02 1.40458E+01 0.00000E+00
 -1       706 1.39608E+02 1.76500E+01 0.00000E+00
 -1       707 1.39608E+02 2.65000E+01 0.00000E+00
 -1       708 1.39608E+02 2.06000E+01 0.00000E+00
 -1       709 1.39608E+02 2.94000E+01 0.00000E+00
 -1       710 1.39608E+02 3.23500E+01 0.00000E+00
 -1       711 1.39608E+02 3.53000E+01 0.00000E+00
 -1       712 1.75350E+01 9.20225E+00 0.00000E+00
 -1       713 1.07220E+01 3.94717E+01 0.00000E+00
 -1       714 1.45350E+01 9.20225E+00 0.00000E+00
 -1       715 1.19819E+02 3.84574E+01 0.00000E+00
 -1       716 1.06373E+02 1.49915E+01 0.00000E+00
 -1       717 1.00149E+02 2.80767E+01 0.00000E+00
 -1       718 2.65350E+01 9.20225E+00 0.00000E+00
 -1       719 1.23455E+02 1.90586E+01 0.00000E+00
 -1       720 1.03920E+01 1.76125E+01 0.00000E+00
 -1       721 1.03796E+02 1.71325E+01 0.00000E+00
 -1       722 1.03920E+01 3.23250E+01 0.00000E+00
 -1       723 1.23509E+02 3.46827E+01 0.00000E+00
 -1       724 1.14159E+02 1.35034E+01 0.00000E+00
 -1       725 1.01029E+02 3.08095E+01 0.00000E+00
 -1       726 1.00437E+02 2.58392E+01 0.00000E+00
 -1       727 1.01825E+02 1.94537E+01 0.00000E+00
 -1       728 1.26294E+02 2.39727E+01 0.00000E+00
 -1       729 1.11235E+02 1.35629E+01 0.00000E+00
 -1       730 1.02125E+02 3.34114E+01 0.00000E+00
 -1       731 1.03519E+02 3.57190E+01 0.00000E+00
 -1       732 1.05834E+02 3.76635E+01 0.00000E+00
 -1       733 1.19362E+02 1.53705E+01 0.00000E+00
 -1       734 1.21697E+02 3.64827E+01 0.00000E+00
 -1       735 1.24601E+02 3.18728E+01 0.00000E+00
 -1       736 1.17164E+02 1.40590E+01 0.00000E+00
 -1       737 1.03920E+01 3.52625E+01 0.00000E+00
 -1       738 1.03920E+01 2.64500E+01 0.00000E+00
 -1       739 1.21319E+02 1.51039E+01 0.00000E+00
 -1       740 1.25261E+02 1.98520E+01 0.00000E+00
 -1       741 1.26258E+02 2.82185E+01 0.00000E+00
 -1       742 1.10913E+02 4.00015E+01 0.00000E+00
 -1       743 1.39870E+02 1.26886E+01 0.00000E+00
 -1       744 1.38636E+02 3.75637E+01 0.00000E+00
 -1       745 1.00334E+02 2.08145E+01 0.00000E+00
 -1       746 9.96038E+01 2.40835E+01 0.00000E+00
 -1       747 1.39739E+02 1.51693E+01 0.00000E+00
 -1       748 1.03920E+01 2.93875E+01 0.00000E+00
 -1       749 1.29900E+01 1.32000E+01 0.00000E+00
 -1       750 1.03560E+02 1.42271E+01 0.00000E+00
 -1       751 1.96500E+01 3.70100E+01 0.00000E+00
 -1       752 2.26500E+01 3.70100E+01 0.00000E+00
 -1       753 2.56500E+01 3.70100E+01 0.00000E+00
 -1       754 2.86500E+01 3.70100E+01 0.00000E+00
 -1       755 3.16500E+01 3.70100E+01 0.00000E+00
 -1       756 3.46500E+01 3.70100E+01 0.00000E+00
 -1       757 3.76500E+01 3.70100E+01 0.00000E+00
 -1       758 4.06500E+01 3.70100E+01 0.00000E+00
 -1       759 4.36500E+01 3.70100E+01 0.00000E+00
 -1       760 4.66500E+01 3.70100E+01 0.00000E+00
 -1       761 4.96500E+01 3.70100E+01 0.00000E+00
 -1       762 5.26500E+01 3.70100E+01 0.00000E+00
 -1       763 5.56500E+01 3.70100E+01 0.00000E+00
 -1       764 5.86500E+01 3.70100E+01 0.00000E+00
 -1       765 6.16500E+01 3.70100E+01 0.00000E+00
 -1       766 6.46500E+01 3.70100E+01 0.00000E+00
 -1       767 6.76500E+01 3.70100E+01 0.00000E+00
 -1       768 7.06500E+01 3.70100E+01 0.00000E+00
 -1       769 7.36500E+01 3.70100E+01 0.00000E+00
 -1       770 7.66500E+01 3.70100E+01 0.00000E+00
 -1       771 7.96500E+01 3.70100E+01 0.00000E+00
 -1       772 8.26500E+01 3.70100E+01 0.00000E+00
 -1       773 8.56500E+01 3.70100E+01 0.00000E+00
 -1       774 8.86500E+01 3.70100E+01 0.00000E+00
 -1       775 9.16500E+01 3.70100E+01 0.00000E+00
 -1       776 9.46500E+01 3.70100E+01 0.00000E+00
 -1       777 9.76500E+01 3.70100E+01 0.00000E+00
 -1       778 1.00650E+02 3.70100E+01 0.00000E+00
 -1       779 1.24086E+02 1.69326E+01 0.00000E+00
 -1       780 1.25966E+02 3.40203E+01 0.00000E+00
 -1       781 1.24650E+02 3.73902E+01 0.00000E+00
 -1       782 1.27650E+02 3.73902E+01 0.00000E+00
 -1       783 1.30650E+02 3.73902E+01 0.00000E+00
 -1       784 1.33650E+02 3.73902E+01 0.00000E+00
 -1       785 3.40350E+01 1.18003E+01 0.00000E+00
 -1       786 3.10350E+01 1.18003E+01 0.00000E+00
 -1       787 4.00350E+01 1.18003E+01 0.00000E+00
 -1       788 4.30350E+01 1.18003E+01 0.00000E+00
 -1       789 4.60350E+01 1.18003E+01 0.00000E+00
 -1       790 4.90350E+01 1.18003E+01 0.00000E+00
 -1       791 5.20350E+01 1.18003E+01 0.00000E+00
 -1       792 5.50350E+01 1.18003E+01 0.00000E+00
 -1       793 5.80350E+01 1.18003E+01 0.00000E+00
 -1       794 6.10350E+01 1.18003E+01 0.00000E+00
 -1       795 6.40350E+01 1.18003E+01 0.00000E+00
 -1       796 6.70350E+01 1.18003E+01 0.00000E+00
 -1       797 7.00350E+01 1.18003E+01 0.00000E+00
 -1       798 7.30350E+01 1.18003E+01 0.00000E+00
 -1       799 7.60350E+01 1.18003E+01 0.00000E+00
 -1       800 7.90350E+01 1.18003E+01 0.00000E+00
 -1       801 8.20350E+01 1.18003E+01 0.00000E+00
 -1       802 8.50350E+01 1.18003E+01 0.00000E+00
 -1       803 8.80350E+01 1.18003E+01 0.00000E+00
 -1       804 9.10350E+01 1.18003E+01 0.00000E+00
 -1       805 9.40350E+01 1.18003E+01 0.00000E+00
 -1       806 9.70350E+01 1.18003E+01 0.00000E+00
 -1       807 1.00035E+02 1.18003E+01 0.00000E+00
 -1       808 1.09035E+02 1.18003E+01 0.00000E+00
 -1       809 1.21035E+02 1.18003E+01 0.00000E+00
 -1       810 1.24035E+02 1.18003E+01 0.00000E+00
 -1       811 1.27035E+02 1.18003E+01 0.00000E+00
 -1       812 1.30035E+02 1.18003E+01 0.00000E+00
 -1       813 1.33035E+02 1.18003E+01 0.00000E+00
 -1       814 1.36035E+02 1.18003E+01 0.00000E+00
 -1       815 1.37953E+02 1.22444E+01 0.00000E+00
 -1       816 1.37010E+02 3.38250E+01 0.00000E+00
 -1       817 1.37010E+02 2.50250E+01 0.00000E+00
 -1       818 1.00992E+02 1.67492E+01 0.00000E+00
 -1       819 1.90350E+01 1.18003E+01 0.00000E+00
 -1       820 1.48200E+01 3.53988E+01 0.00000E+00
 -1       821 1.06297E+02 1.25419E+01 0.00000E+00
 -1       822 1.37010E+02 3.08750E+01 0.00000E+00
 -1       823 9.95335E+01 3.29715E+01 0.00000E+00
 -1       824 3.70350E+01 1.18003E+01 0.00000E+00
 -1       825 1.37010E+02 2.79500E+01 0.00000E+00
 -1       826 2.20350E+01 1.18003E+01 0.00000E+00
 -1       827 1.28127E+02 2.58232E+01 0.00000E+00
 -1       828 9.86532E+01 3.02387E+01 0.00000E+00
 -1       829 1.37625E+01 1.12011E+01 0.00000E+00
 -1       830 1.26433E+02 3.09326E+01 0.00000E+00
 -1       831 1.72350E+01 3.62044E+01 0.00000E+00
 -1       832 1.29900E+01 2.20250E+01 0.00000E+00
 -1       833 9.85920E+01 2.67389E+01 0.00000E+00
 -1       834 1.27020E+02 2.20819E+01 0.00000E+00
 -1       835 1.19313E+02 1.29542E+01 0.00000E+00
 -1       836 1.29900E+01 2.49750E+01 0.00000E+00
 -1       837 1.25892E+02 1.77261E+01 0.00000E+00
 -1       838 9.70962E+01 2.89010E+01 0.00000E+00
 -1       839 1.23505E+02 1.47314E+01 0.00000E+00
 -1       840 1.36164E+02 3.72293E+01 0.00000E+00
 -1       841 1.22365E+02 3.89985E+01 0.00000E+00
 -1       842 2.80350E+01 1.18003E+01 0.00000E+00
 -1       843 1.18883E+02 1.13673E+01 0.00000E+00
 -1       844 2.50350E+01 1.18003E+01 0.00000E+00
 -1       845 1.37010E+02 2.20750E+01 0.00000E+00
 -1       846 1.37010E+02 1.91250E+01 0.00000E+00
 -1       847 1.29900E+01 3.08563E+01 0.00000E+00
 -1       848 1.37141E+02 1.66443E+01 0.00000E+00
 -1       849 9.95014E+01 1.81100E+01 0.00000E+00
 -1       850 9.77587E+01 2.49833E+01 0.00000E+00
 -1       851 1.29900E+01 1.61375E+01 0.00000E+00
 -1       852 1.63988E+01 1.15007E+01 0.00000E+00
 -1       853 1.29900E+01 1.90812E+01 0.00000E+00
 -1       854 1.28853E+02 2.39324E+01 0.00000E+00
 -1       855 9.87443E+01 2.17652E+01 0.00000E+00
 -1       856 1.39050E+01 3.31275E+01 0.00000E+00
 -1       857 2.41500E+01 3.44120E+01 0.00000E+00
 -1       858 2.71500E+01 3.44120E+01 0.00000E+00
 -1       859 3.01500E+01 3.44120E+01 0.00000E+00
 -1       860 3.31500E+01 3.44120E+01 0.00000E+00
 -1       861 3.61500E+01 3.44120E+01 0.00000E+00
 -1       862 3.91500E+01 3.44120E+01 0.00000E+00
 -1       863 4.21500E+01 3.44120E+01 0.00000E+00
 -1       864 4.51500E+01 3.44120E+01 0.00000E+00
 -1       865 4.81500E+01 3.44120E+01 0.00000E+00
 -1       866 5.11500E+01 3.44120E+01 0.00000E+00
 -1       867 5.41500E+01 3.44120E+01 0.00000E+00
 -1       868 5.71500E+01 3.44120E+01 0.00000E+00
 -1       869 6.01500E+01 3.44120E+01 0.00000E+00
 -1       870 6.31500E+01 3.44120E+01 0.00000E+00
 -1       871 6.61500E+01 3.44120E+01 0.00000E+00
 -1       872 6.91500E+01 3.44120E+01 0.00000E+00
 -1       873 7.21500E+01 3.44120E+01 0.00000E+00
 -1       874 7.51500E+01 3.44120E+01 0.00000E+00
 -1       875 7.81500E+01 3.44120E+01 0.00000E+00
 -1       876 8.11500E+01 3.44120E+01 0.00000E+00
 -1       877 8.41500E+01 3.44120E+01 0.00000E+00
 -1       878 8.71500E+01 3.44120E+01 0.00000E+00
 -1       879 9.01500E+01 3.44120E+01 0.00000E+00
 -1       880 9.31500E+01 3.44120E+01 0.00000E+00
 -1       881 9.61500E+01 3.44120E+01 0.00000E+00
 -1       882 1.34496E+02 3.39858E+01 0.00000E+00
 -1       883 1.29150E+02 3.47922E+01 0.00000E+00
 -1       884 1.31823E+02 3.43890E+01 0.00000E+00
 -1       885 1.28392E+02 3.28081E+01 0.00000E+00
 -1       886 4.45350E+01 1.43982E+01 0.00000E+00
 -1       887 4.15350E+01 1.43982E+01 0.00000E+00
 -1       888 5.05350E+01 1.43982E+01 0.00000E+00
 -1       889 5.35350E+01 1.43982E+01 0.00000E+00
 -1       890 5.65350E+01 1.43982E+01 0.00000E+00
 -1       891 5.95350E+01 1.43982E+01 0.00000E+00
 -1       892 6.25350E+01 1.43982E+01 0.00000E+00
 -1       893 6.55350E+01 1.43982E+01 0.00000E+00
 -1       894 6.85350E+01 1.43982E+01 0.00000E+00
 -1       895 7.15350E+01 1.43982E+01 0.00000E+00
 -1       896 7.45350E+01 1.43982E+01 0.00000E+00
 -1       897 7.75350E+01 1.43982E+01 0.00000E+00
 -1       898 8.05350E+01 1.43982E+01 0.00000E+00
 -1       899 8.35350E+01 1.43982E+01 0.00000E+00
 -1       900 8.65350E+01 1.43982E+01 0.00000E+00
 -1       901 8.95350E+01 1.43982E+01 0.00000E+00
 -1       902 9.25350E+01 1.43982E+01 0.00000E+00
 -1       903 9.55350E+01 1.43982E+01 0.00000E+00
 -1       904 9.85350E+01 1.43982E+01 0.00000E+00
 -1       905 1.31535E+02 1.43982E+01 0.00000E+00
 -1       906 1.34535E+02 1.43982E+01 0.00000E+00
 -1       907 1.29900E+01 2.79188E+01 0.00000E+00
 -1       908 1.29205E+02 2.85912E+01 0.00000E+00
 -1       909 1.28535E+02 1.43982E+01 0.00000E+00
 -1       910 1.26020E+02 1.45648E+01 0.00000E+00
 -1       911 1.34496E+02 3.10358E+01 0.00000E+00
 -1       912 2.05350E+01 1.43982E+01 0.00000E+00
 -1       913 4.75350E+01 1.43982E+01 0.00000E+00
 -1       914 9.66231E+01 3.16565E+01 0.00000E+00
 -1       915 3.25350E+01 1.43982E+01 0.00000E+00
 -1       916 1.37547E+02 1.44444E+01 0.00000E+00
 -1       917 1.27651E+02 1.99559E+01 0.00000E+00
 -1       918 2.11500E+01 3.44120E+01 0.00000E+00
 -1       919 1.29484E+02 2.18064E+01 0.00000E+00
 -1       920 9.79113E+01 1.90607E+01 0.00000E+00
 -1       921 2.95350E+01 1.43982E+01 0.00000E+00
 -1       922 1.67723E+01 3.32923E+01 0.00000E+00
 -1       923 1.34412E+02 2.64875E+01 0.00000E+00
 -1       924 3.85350E+01 1.43982E+01 0.00000E+00
 -1       925 1.55880E+01 2.93875E+01 0.00000E+00
 -1       926 1.61801E+01 3.13399E+01 0.00000E+00
 -1       927 1.55880E+01 1.46687E+01 0.00000E+00
 -1       928 1.34481E+02 1.77474E+01 0.00000E+00
 -1       929 2.35350E+01 1.43982E+01 0.00000E+00
 -1       930 1.34412E+02 2.35375E+01 0.00000E+00
 -1       931 1.34447E+02 2.06424E+01 0.00000E+00
 -1       932 1.55880E+01 2.05531E+01 0.00000E+00
 -1       933 1.55880E+01 2.35031E+01 0.00000E+00
 -1       934 9.62629E+01 2.71453E+01 0.00000E+00
 -1       935 1.59934E+01 1.30847E+01 0.00000E+00
 -1       936 1.31045E+02 2.62804E+01 0.00000E+00
 -1       937 3.55350E+01 1.43982E+01 0.00000E+00
 -1       938 1.75351E+01 1.43983E+01 0.00000E+00
 -1       939 9.68992E+01 2.26649E+01 0.00000E+00
 -1       940 1.89611E+01 3.38522E+01 0.00000E+00
 -1       941 2.86500E+01 3.18140E+01 0.00000E+00
 -1       942 3.16500E+01 3.18140E+01 0.00000E+00
 -1       943 3.46500E+01 3.18140E+01 0.00000E+00
 -1       944 3.76500E+01 3.18140E+01 0.00000E+00
 -1       945 4.06500E+01 3.18140E+01 0.00000E+00
 -1       946 4.36500E+01 3.18140E+01 0.00000E+00
 -1       947 4.66500E+01 3.18140E+01 0.00000E+00
 -1       948 4.96500E+01 3.18140E+01 0.00000E+00
 -1       949 5.26500E+01 3.18140E+01 0.00000E+00
 -1       950 5.56500E+01 3.18140E+01 0.00000E+00
 -1       951 5.86500E+01 3.18140E+01 0.00000E+00
 -1       952 6.16500E+01 3.18140E+01 0.00000E+00
 -1       953 6.46500E+01 3.18140E+01 0.00000E+00
 -1       954 6.76500E+01 3.18140E+01 0.00000E+00
 -1       955 7.06500E+01 3.18140E+01 0.00000E+00
 -1       956 7.36500E+01 3.18140E+01 0.00000E+00
 -1       957 7.66500E+01 3.18140E+01 0.00000E+00
 -1       958 7.96500E+01 3.18140E+01 0.00000E+00
 -1       959 8.26500E+01 3.18140E+01 0.00000E+00
 -1       960 8.56500E+01 3.18140E+01 0.00000E+00
 -1       961 8.86500E+01 3.18140E+01 0.00000E+00
 -1       962 9.16500E+01 3.18140E+01 0.00000E+00
 -1       963 9.41366E+01 3.17352E+01 0.00000E+00
 -1       964 4.30350E+01 1.69963E+01 0.00000E+00
 -1       965 2.26500E+01 3.18140E+01 0.00000E+00
 -1       966 2.65350E+01 1.43982E+01 0.00000E+00
 -1       967 5.50350E+01 1.69963E+01 0.00000E+00
 -1       968 5.20350E+01 1.69963E+01 0.00000E+00
 -1       969 6.10350E+01 1.69963E+01 0.00000E+00
 -1       970 6.40350E+01 1.69963E+01 0.00000E+00
 -1       971 6.70350E+01 1.69963E+01 0.00000E+00
 -1       972 7.00350E+01 1.69963E+01 0.00000E+00
 -1       973 7.30350E+01 1.69963E+01 0.00000E+00
 -1       974 7.60350E+01 1.69963E+01 0.00000E+00
 -1       975 7.90350E+01 1.69963E+01 0.00000E+00
 -1       976 8.20350E+01 1.69963E+01 0.00000E+00
 -1       977 8.50350E+01 1.69963E+01 0.00000E+00
 -1       978 8.80350E+01 1.69963E+01 0.00000E+00
 -1       979 9.10350E+01 1.69963E+01 0.00000E+00
 -1       980 9.40350E+01 1.69963E+01 0.00000E+00
 -1       981 1.31057E+02 1.77888E+01 0.00000E+00
 -1       982 5.80350E+01 1.69963E+01 0.00000E+00
 -1       983 1.31823E+02 3.14390E+01 0.00000E+00
 -1       984 1.55880E+01 2.64453E+01 0.00000E+00
 -1       985 9.67232E+01 1.67295E+01 0.00000E+00
 -1       986 1.28475E+02 1.77574E+01 0.00000E+00
 -1       987 1.90351E+01 1.69963E+01 0.00000E+00
 -1       988 1.55880E+01 1.76109E+01 0.00000E+00
 -1       989 2.56500E+01 3.18140E+01 0.00000E+00
 -1       990 4.00350E+01 1.69963E+01 0.00000E+00
 -1       991 2.04611E+01 3.12542E+01 0.00000E+00
 -1       992 9.60662E+01 1.99604E+01 0.00000E+00
 -1       993 3.10350E+01 1.69963E+01 0.00000E+00
 -1       994 1.31901E+02 2.88088E+01 0.00000E+00
 -1       995 1.81860E+01 2.79164E+01 0.00000E+00
 -1       996 4.60350E+01 1.69963E+01 0.00000E+00
 -1       997 9.46097E+01 2.89797E+01 0.00000E+00
 -1       998 1.87781E+01 2.98688E+01 0.00000E+00
 -1       999 4.90350E+01 1.69963E+01 0.00000E+00
 -1      1000 2.20351E+01 1.69963E+01 0.00000E+00
 -1      1001 3.40350E+01 1.69963E+01 0.00000E+00
 -1      1002 1.81860E+01 1.90820E+01 0.00000E+00
 -1      1003 9.54035E+01 2.48269E+01 0.00000E+00
 -1      1004 1.81860E+01 2.20320E+01 0.00000E+00
 -1      1005 1.31815E+02 2.33642E+01 0.00000E+00
 -1      1006 1.30271E+02 1.97976E+01 0.00000E+00
 -1      1007 3.01500E+01 2.92160E+01 0.00000E+00
 -1      1008 3.31500E+01 2.92160E+01 0.00000E+00
 -1      1009 3.61500E+01 2.92160E+01 0.00000E+00
 -1      1010 3.91500E+01 2.92160E+01 0.00000E+00
 -1      1011 4.21500E+01 2.92160E+01 0.00000E+00
 -1      1012 4.51500E+01 2.92160E+01 0.00000E+00
 -1      1013 4.81500E+01 2.92160E+01 0.00000E+00
 -1      1014 5.11500E+01 2.92160E+01 0.00000E+00
 -1      1015 5.41500E+01 2.92160E+01 0.00000E+00
 -1      1016 5.71500E+01 2.92160E+01 0.00000E+00
 -1      1017 6.01500E+01 2.92160E+01 0.00000E+00
 -1      1018 6.31500E+01 2.92160E+01 0.00000E+00
 -1      1019 6.61500E+01 2.92160E+01 0.00000E+00
 -1      1020 6.91500E+01 2.92160E+01 0.00000E+00
 -1      1021 7.21500E+01 2.92160E+01 0.00000E+00
 -1      1022 7.51500E+01 2.92160E+01 0.00000E+00
 -1      1023 7.81500E+01 2.92160E+01 0.00000E+00
 -1      1024 8.11500E+01 2.92160E+01 0.00000E+00
 -1      1025 8.41500E+01 2.92160E+01 0.00000E+00
 -1      1026 8.71500E+01 2.92160E+01 0.00000E+00
 -1      1027 9.01500E+01 2.92160E+01 0.00000E+00
 -1      1028 2.71500E+01 2.92160E+01 0.00000E+00
 -1      1029 2.50351E+01 1.69963E+01 0.00000E+00
 -1      1030 5.35350E+01 1.95942E+01 0.00000E+00
 -1      1031 1.81860E+01 2.49742E+01 0.00000E+00
 -1      1032 1.89624E+01 3.15621E+01 0.00000E+00
 -1      1033 2.80350E+01 1.69963E+01 0.00000E+00
 -1      1034 1.32341E+02 2.16676E+01 0.00000E+00
 -1      1035 6.55350E+01 1.95942E+01 0.00000E+00
 -1      1036 6.25350E+01 1.95942E+01 0.00000E+00
 -1      1037 7.15350E+01 1.95942E+01 0.00000E+00
 -1      1038 7.45350E+01 1.95942E+01 0.00000E+00
 -1      1039 7.75350E+01 1.95942E+01 0.00000E+00
 -1      1040 8.05350E+01 1.95942E+01 0.00000E+00
 -1      1041 8.35350E+01 1.95942E+01 0.00000E+00
 -1      1042 8.65350E+01 1.95942E+01 0.00000E+00
 -1      1043 8.95350E+01 1.95942E+01 0.00000E+00
 -1      1044 9.25350E+01 1.95942E+01 0.00000E+00
 -1      1045 5.65350E+01 1.95942E+01 0.00000E+00
 -1      1046 9.37502E+01 2.66614E+01 0.00000E+00
 -1      1047 5.05350E+01 1.95942E+01 0.00000E+00
 -1      1048 3.70350E+01 1.69963E+01 0.00000E+00
 -1      1049 2.41500E+01 2.92160E+01 0.00000E+00
 -1      1050 5.95350E+01 1.95942E+01 0.00000E+00
 -1      1051 6.85350E+01 1.95942E+01 0.00000E+00
 -1      1052 2.11860E+01 1.90820E+01 0.00000E+00
 -1      1053 4.15350E+01 1.95942E+01 0.00000E+00
 -1      1054 9.23798E+01 2.90979E+01 0.00000E+00
 -1      1055 9.39998E+01 2.20774E+01 0.00000E+00
 -1      1056 2.95350E+01 1.95943E+01 0.00000E+00
 -1      1057 2.07840E+01 2.64453E+01 0.00000E+00
 -1      1058 4.45350E+01 1.95942E+01 0.00000E+00
 -1      1059 2.13761E+01 2.83977E+01 0.00000E+00
 -1      1060 4.75350E+01 1.95942E+01 0.00000E+00
 -1      1061 3.25350E+01 1.95943E+01 0.00000E+00
 -1      1062 2.86500E+01 2.66180E+01 0.00000E+00
 -1      1063 2.15076E+01 2.24095E+01 0.00000E+00
 -1      1064 3.46500E+01 2.66180E+01 0.00000E+00
 -1      1065 3.76500E+01 2.66180E+01 0.00000E+00
 -1      1066 4.06500E+01 2.66180E+01 0.00000E+00
 -1      1067 4.36500E+01 2.66180E+01 0.00000E+00
 -1      1068 4.66500E+01 2.66180E+01 0.00000E+00
 -1      1069 4.96500E+01 2.66180E+01 0.00000E+00
 -1      1070 5.26500E+01 2.66180E+01 0.00000E+00
 -1      1071 5.56500E+01 2.66180E+01 0.00000E+00
 -1      1072 5.86500E+01 2.66180E+01 0.00000E+00
 -1      1073 6.16500E+01 2.66180E+01 0.00000E+00
 -1      1074 6.46500E+01 2.66180E+01 0.00000E+00
 -1      1075 6.76500E+01 2.66180E+01 0.00000E+00
 -1      1076 7.06500E+01 2.66180E+01 0.00000E+00
 -1      1077 7.36500E+01 2.66180E+01 0.00000E+00
 -1      1078 7.66500E+01 2.66180E+01 0.00000E+00
 -1      1079 7.96500E+01 2.66180E+01 0.00000E+00
 -1      1080 8.26500E+01 2.66180E+01 0.00000E+00
 -1      1081 8.56500E+01 2.66180E+01 0.00000E+00
 -1      1082 8.86500E+01 2.66180E+01 0.00000E+00
 -1      1083 5.80350E+01 2.21922E+01 0.00000E+00
 -1      1084 7.00350E+01 2.21922E+01 0.00000E+00
 -1      1085 2.65351E+01 1.95943E+01 0.00000E+00
 -1      1086 2.35579E+01 2.72636E+01 0.00000E+00
 -1      1087 7.90350E+01 2.21922E+01 0.00000E+00
 -1      1088 6.40350E+01 2.21922E+01 0.00000E+00
 -1      1089 7.60350E+01 2.21922E+01 0.00000E+00
 -1      1090 7.30350E+01 2.21922E+01 0.00000E+00
 -1      1091 8.20350E+01 2.21922E+01 0.00000E+00
 -1      1092 8.50350E+01 2.21922E+01 0.00000E+00
 -1      1093 8.80350E+01 2.21922E+01 0.00000E+00
 -1      1094 9.10350E+01 2.21922E+01 0.00000E+00
 -1      1095 5.50350E+01 2.21922E+01 0.00000E+00
 -1      1096 6.70350E+01 2.21922E+01 0.00000E+00
 -1      1097 9.15204E+01 2.67795E+01 0.00000E+00
 -1      1098 5.20350E+01 2.21922E+01 0.00000E+00
 -1      1099 4.90350E+01 2.21922E+01 0.00000E+00
 -1      1100 2.38605E+01 1.93381E+01 0.00000E+00
 -1      1101 9.27601E+01 2.44284E+01 0.00000E+00
 -1      1102 6.10350E+01 2.21922E+01 0.00000E+00
 -1      1103 3.85350E+01 1.95942E+01 0.00000E+00
 -1      1104 2.61039E+01 2.69408E+01 0.00000E+00
 -1      1105 3.16500E+01 2.66180E+01 0.00000E+00
 -1      1106 4.60350E+01 2.21922E+01 0.00000E+00
 -1      1107 2.38057E+01 2.46751E+01 0.00000E+00
 -1      1108 4.30350E+01 2.21922E+01 0.00000E+00
 -1      1109 2.80350E+01 2.21923E+01 0.00000E+00
 -1      1110 3.55350E+01 1.95943E+01 0.00000E+00
 -1      1111 3.10350E+01 2.21923E+01 0.00000E+00
 -1      1112 4.00350E+01 2.21922E+01 0.00000E+00
 -1      1113 3.91500E+01 2.40200E+01 0.00000E+00
 -1      1114 2.51704E+01 2.21347E+01 0.00000E+00
 -1      1115 3.61500E+01 2.40200E+01 0.00000E+00
 -1      1116 3.35925E+01 2.31061E+01 0.00000E+00
 -1      1117 2.57692E+01 2.47627E+01 0.00000E+00
 -1      1118 0.00000E+00 4.85250E+01 0.00000E+00
 -1      1119 0.00000E+00 4.55750E+01 0.00000E+00
 -1      1120 0.00000E+00 4.26250E+01 0.00000E+00
 -1      1121 0.00000E+00 3.96750E+01 0.00000E+00
 -1      1122 0.00000E+00 3.67250E+01 0.00000E+00
 -1      1123 0.00000E+00 3.38000E+01 0.00000E+00
 -1      1124 0.00000E+00 3.08750E+01 0.00000E+00
 -1      1125 0.00000E+00 2.79250E+01 0.00000E+00
 -1      1126 0.00000E+00 2.49750E+01 0.00000E+00
 -1      1127 0.00000E+00 2.20250E+01 0.00000E+00
 -1      1128 0.00000E+00 1.90750E+01 0.00000E+00
 -1      1129 0.00000E+00 1.61500E+01 0.00000E+00
 -1      1130 0.00000E+00 1.32250E+01 0.00000E+00
 -1      1131 0.00000E+00 1.02750E+01 0.00000E+00
 -1      1132 0.00000E+00 7.32500E+00 0.00000E+00
 -1      1133 0.00000E+00 4.37500E+00 0.00000E+00
 -1      1134 0.00000E+00 1.45000E+00 0.00000E+00
 -1      1135 1.57500E+00 5.00000E+01 0.00000E+00
 -1      1136 4.65000E+00 5.00000E+01 0.00000E+00
 -1      1137 7.65000E+00 5.00000E+01 0.00000E+00
 -1      1138 1.06500E+01 5.00000E+01 0.00000E+00
 -1      1139 1.36500E+01 5.00000E+01 0.00000E+00
 -1      1140 1.66500E+01 5.00000E+01 0.00000E+00
 -1      1141 1.96500E+01 5.00000E+01 0.00000E+00
 -1      1142 2.26500E+01 5.00000E+01 0.00000E+00
 -1      1143 2.56500E+01 5.00000E+01 0.00000E+00
 -1      1144 2.86500E+01 5.00000E+01 0.00000E+00
 -1      1145 3.16500E+01 5.00000E+01 0.00000E+00
 -1      1146 3.46500E+01 5.00000E+01 0.00000E+00
 -1      1147 3.76500E+01 5.00000E+01 0.00000E+00
 -1      1148 4.06500E+01 5.00000E+01 0.00000E+00
 -1      1149 4.36500E+01 5.00000E+01 0.00000E+00
 -1      1150 4.66500E+01 5.00000E+01 0.00000E+00
 -1      1151 4.96500E+01 5.00000E+01 0.00000E+00
 -1      1152 5.26500E+01 5.00000E+01 0.00000E+00
 -1      1153 5.56500E+01 5.00000E+01 0.00000E+00
 -1      1154 5.86500E+01 5.00000E+01 0.00000E+00
 -1      1155 6.16500E+01 5.00000E+01 0.00000E+00
 -1      1156 6.46500E+01 5.00000E+01 0.00000E+00
 -1      1157 6.76500E+01 5.00000E+01 0.00000E+00
 -1      1158 7.06500E+01 5.00000E+01 0.00000E+00
 -1      1159 7.36500E+01 5.00000E+01 0.00000E+00
 -1      1160 7.66500E+01 5.00000E+01 0.00000E+00
 -1      1161 7.96500E+01 5.00000E+01 0.00000E+00
 -1      1162 8.26500E+01 5.00000E+01 0.00000E+00
 -1      1163 8.56500E+01 5.00000E+01 0.00000E+00
 -1      1164 8.86500E+01 5.00000E+01 0.00000E+00
 -1      1165 9.16500E+01 5.00000E+01 0.00000E+00
 -1      1166 9.46500E+01 5.00000E+01 0.00000E+00
 -1      1167 9.76500E+01 5.00000E+01 0.00000E+00
 -1      1168 1.00650E+02 5.00000E+01 0.00000E+00
 -1      1169 1.03650E+02 5.00000E+01 0.00000E+00
 -1      1170 1.06650E+02 5.00000E+01 0.00000E+00
 -1      1171 1.09650E+02 5.00000E+01 0.00000E+00
 -1      1172 1.12650E+02 5.00000E+01 0.00000E+00
 -1      1173 1.15650E+02 5.00000E+01 0.00000E+00
 -1      1174 1.18650E+02 5.00000E+01 0.00000E+00
 -1      1175 1.21650E+02 5.00000E+01 0.00000E+00
 -1      1176 1.24650E+02 5.00000E+01 0.00000E+00
 -1      1177 1.27650E+02 5.00000E+01 0.00000E+00
 -1      1178 1.30650E+02 5.00000E+01 0.00000E+00
 -1      1179 1.33650E+02 5.00000E+01 0.00000E+00
 -1      1180 1.36650E+02 5.00000E+01 0.00000E+00
 -1      1181 1.39650E+02 5.00000E+01 0.00000E+00
 -1      1182 1.42650E+02 5.00000E+01 0.00000E+00
 -1      1183 1.45650E+02 5.00000E+01 0.00000E+00
 -1      1184 1.48575E+02 5.00000E+01 0.00000E+00
 -1      1185 1.57500E+00 0.00000E+00 0.00000E+00
 -1      1186 4.65000E+00 0.00000E+00 0.00000E+00
 -1      1187 7.65000E+00 0.00000E+00 0.00000E+00
 -1      1188 1.06500E+01 0.00000E+00 0.00000E+00
 -1      1189 1.36500E+01 0.00000E+00 0.00000E+00
 -1      1190 1.66500E+01 0.00000E+00 0.00000E+00
 -1      1191 1.96500E+01 0.00000E+00 0.00000E+00
 -1      1192 2.26500E+01 0.00000E+00 0.00000E+00
 -1      1193 2.56500E+01 0.00000E+00 0.00000E+00
 -1      1194 2.86500E+01 0.00000E+00 0.00000E+00
 -1      1195 3.16500E+01 0.00000E+00 0.00000E+00
 -1      1196 3.46500E+01 0.00000E+00 0.00000E+00
 -1      1197 3.76500E+01 0.00000E+00 0.00000E+00
 -1      1198 4.06500E+01 0.00000E+00 0.00000E+00
 -1      1199 4.36500E+01 0.00000E+00 0.00000E+00
 -1      1200 4.66500E+01 0.00000E+00 0.00000E+00
 -1      1201 4.96500E+01 0.00000E+00 0.00000E+00
 -1      1202 5.26500E+01 0.00000E+00 0.00000E+00
 -1      1203 5.56500E+01 0.00000E+00 0.00000E+00
 -1      1204 5.86500E+01 0.00000E+00 0.00000E+00
 -1      1205 6.16500E+01 0.00000E+00 0.00000E+00
 -1      1206 6.46500E+01 0.00000E+00 0.00000E+00
 -1      1207 6.76500E+01 0.00000E+00 0.00000E+00
 -1      1208 7.06500E+01 0.00000E+00 0.00000E+00
 -1      1209 7.36500E+01 0.00000E+00 0.00000E+00
 -1      1210 7.66500E+01 0.00000E+00 0.00000E+00
 -1      1211 7.96500E+01 0.00000E+00 0.00000E+00
 -1      1212 8.26500E+01 0.00000E+00 0.00000E+00
 -1      1213 8.56500E+01 0.00000E+00 0.00000E+00
 -1      1214 8.86500E+01 0.00000E+00 0.00000E+00
 -1      1215 9.16500E+01 0.00000E+00 0.00000E+00
 -1      1216 9.46500E+01 0.00000E+00 0.00000E+00
 -1      1217 9.76500E+01 0.00000E+00 0.00000E+00
 -1      1218 1.00650E+02 0.00000E+00 0.00000E+00
 -1      1219 1.03650E+02 0.00000E+00 0.00000E+00
 -1      1220 1.06650E+02 0.00000E+00 0.00000E+00
 -1      1221 1.09650E+02 0.00000E+00 0.00000E+00
 -1      1222 1.12650E+02 0.00000E+00 0.00000E+00
 -1      1223 1.15650E+02 0.00000E+00 0.00000E+00
 -1      1224 1.18650E+02 0.00000E+00 0.00000E+00
 -1      1225 1.21650E+02 0.00000E+00 0.00000E+00
 -1      1226 1.24650E+02 0.00000E+00 0.00000E+00
 -1      1227 1.27650E+02 0.00000E+00 0.00000E+00
 -1      1228 1.30650E+02 0.00000E+00 0.00000E+00
 -1      1229 1.33650E+02 0.00000E+00 0.00000E+00
 -1      1230 1.36650E+02 0.00000E+00 0.00000E+00
 -1      1231 1.39650E+02 0.00000E+00 0.00000E+00
 -1      1232 1.42650E+02 0.00000E+00 0.00000E+00
 -1      1233 1.45650E+02 0.00000E+00 0.00000E+00
 -1      1234 1.48575E+02 0.00000E+00 0.00000E+00
 -1      1235 1.50000E+02 1.47500E+00 0.00000E+00
 -1      1236 1.50000E+02 4.42500E+00 0.00000E+00
 -1      1237 1.50000E+02 7.37500E+00 0.00000E+00
 -1      1238 1.50000E+02 1.03250E+01 0.00000E+00
 -1      1239 1.50000E+02 1.32750E+01 0.00000E+00
 -1      1240 1.50000E+02 1.62000E+01 0.00000E+00
 -1      1241 1.50000E+02 1.91250E+01 0.00000E+00
 -1      1242 1.50000E+02 2.20750E+01 0.00000E+00
 -1      1243 1.50000E+02 2.50250E+01 0.00000E+00
 -1      1244 1.50000E+02 2.79750E+01 0.00000E+00
 -1      1245 1.50000E+02 3.09250E+01 0.00000E+00
 -1      1246 1.50000E+02 3.38500E+01 0.00000E+00
 -1      1247 1.50000E+02 3.67750E+01 0.00000E+00
 -1      1248 1.50000E+02 3.97250E+01 0.00000E+00
 -1      1249 1.50000E+02 4.26750E+01 0.00000E+00
 -1      1250 1.50000E+02 4.56250E+01 0.00000E+00
 -1      1251 1.50000E+02 4.85500E+01 0.00000E+00
 -1      1252 1.20233E+02 2.59229E+01 0.00000E+00
 -1      1253 1.19925E+02 2.44893E+01 0.00000E+00
 -1      1254 1.19320E+02 2.31419E+01 0.00000E+00
 -1      1255 1.18439E+02 2.19438E+01 0.00000E+00
 -1      1256 1.17347E+02 2.09740E+01 0.00000E+00
 -1      1257 1.16016E+02 2.02262E+01 0.00000E+00
 -1      1258 1.14556E+02 1.97849E+01 0.00000E+00
 -1      1259 1.13061E+02 1.96694E+01 0.00000E+00
 -1      1260 1.11538E+02 1.98845E+01 0.00000E+00
 -1      1261 1.10116E+02 2.04180E+01 0.00000E+00
 -1      1262 1.08820E+02 2.12644E+01 0.00000E+00
 -1      1263 1.07740E+02 2.23777E+01 0.00000E+00
 -1      1264 1.06934E+02 2.36949E+01 0.00000E+00
 -1      1265 1.06438E+02 2.51519E+01 0.00000E+00
 -1      1266 1.06272E+02 2.66341E+01 0.00000E+00
 -1      1267 1.06429E+02 2.81410E+01 0.00000E+00
 -1      1268 1.06922E+02 2.96104E+01 0.00000E+00
 -1      1269 1.07680E+02 3.08760E+01 0.00000E+00
 -1      1270 1.08664E+02 3.19351E+01 0.00000E+00
 -1      1271 1.09906E+02 3.28034E+01 0.00000E+00
 -1      1272 1.11295E+02 3.33810E+01 0.00000E+00
 -1      1273 1.12767E+02 3.36480E+01 0.00000E+00
 -1      1274 1.14302E+02 3.35901E+01 0.00000E+00
 -1      1275 1.15807E+02 3.31912E+01 0.00000E+00
 -1      1276 1.17143E+02 3.24989E+01 0.00000E+00
 -1      1277 1.18267E+02 3.15709E+01 0.00000E+00
 -1      1278 1.19194E+02 3.03986E+01 0.00000E+00
 -1      1279 1.19874E+02 2.89935E+01 0.00000E+00
 -1      1280 1.20228E+02 2.74488E+01 0.00000E+00
 -1      1281 1.57500E+00 4.85250E+01 0.00000E+00
 -1      1282 1.29900E+00 4.48375E+01 0.00000E+00
 -1      1283 1.29900E+00 4.63125E+01 0.00000E+00
 -1      1284 1.29900E+00 4.18875E+01 0.00000E+00
 -1      1285 1.29900E+00 4.33625E+01 0.00000E+00
 -1      1286 2.59800E+00 4.41000E+01 0.00000E+00
 -1      1287 1.29900E+00 3.89375E+01 0.00000E+00
 -1      1288 1.29900E+00 4.04125E+01 0.00000E+00
 -1      1289 2.59800E+00 4.11500E+01 0.00000E+00
 -1      1290 1.29900E+00 3.59875E+01 0.00000E+00
 -1      1291 1.29900E+00 3.74625E+01 0.00000E+00
 -1      1292 2.59800E+00 3.82000E+01 0.00000E+00
 -1      1293 1.29900E+00 3.30875E+01 0.00000E+00
 -1      1294 1.29900E+00 3.45375E+01 0.00000E+00
 -1      1295 2.59800E+00 3.52750E+01 0.00000E+00
 -1      1296 1.29900E+00 3.01375E+01 0.00000E+00
 -1      1297 1.29900E+00 3.16125E+01 0.00000E+00
 -1      1298 2.59800E+00 3.23500E+01 0.00000E+00
 -1      1299 1.29900E+00 2.71875E+01 0.00000E+00
 -1      1300 1.29900E+00 2.86625E+01 0.00000E+00
 -1      1301 2.59800E+00 2.94000E+01 0.00000E+00
 -1      1302 1.29900E+00 2.42375E+01 0.00000E+00
 -1      1303 1.29900E+00 2.57125E+01 0.00000E+00
 -1      1304 2.59800E+00 2.64500E+01 0.00000E+00
 -1      1305 1.29900E+00 2.12875E+01 0.00000E+00
 -1      1306 1.29900E+00 2.27625E+01 0.00000E+00
 -1      1307 2.59800E+00 2.35000E+01 0.00000E+00
 -1      1308 1.29900E+00 1.83375E+01 0.00000E+00
 -1      1309 1.29900E+00 1.98125E+01 0.00000E+00
 -1      1310 2.59800E+00 2.05500E+01 0.00000E+00
 -1      1311 1.29900E+00 1.54375E+01 0.00000E+00
 -1      1312 1.29900E+00 1.68875E+01 0.00000E+00
 -1      1313 2.59800E+00 1.76250E+01 0.00000E+00
 -1      1314 1.29900E+00 1.24875E+01 0.00000E+00
 -1      1315 1.29900E+00 1.39625E+01 0.00000E+00
 -1      1316 2.59800E+00 1.47000E+01 0.00000E+00
 -1      1317 1.29900E+00 9.53750E+00 0.00000E+00
 -1      1318 1.29900E+00 1.10125E+01 0.00000E+00
 -1      1319 2.59800E+00 1.17500E+01 0.00000E+00
 -1      1320 1.29900E+00 6.58750E+00 0.00000E+00
 -1      1321 1.29900E+00 8.06250E+00 0.00000E+00
 -1      1322 2.59800E+00 8.80000E+00 0.00000E+00
 -1      1323 1.29900E+00 3.63750E+00 0.00000E+00
 -1      1324 1.29900E+00 5.11250E+00 0.00000E+00
 -1      1325 2.59800E+00 5.85000E+00 0.00000E+00
 -1      1326 1.43700E+00 1.09375E+00 0.00000E+00
 -1      1327 1.43700E+00 2.54375E+00 0.00000E+00
 -1      1328 2.73600E+00 3.28125E+00 0.00000E+00
 -1      1329 3.01200E+00 1.09375E+00 0.00000E+00
 -1      1330 3.90000E+00 4.87010E+01 0.00000E+00
 -1      1331 5.40000E+00 4.87010E+01 0.00000E+00
 -1      1332 6.90000E+00 4.87010E+01 0.00000E+00
 -1      1333 8.40000E+00 4.87010E+01 0.00000E+00
 -1      1334 6.15000E+00 4.74020E+01 0.00000E+00
 -1      1335 9.90000E+00 4.87010E+01 0.00000E+00
 -1      1336 1.14000E+01 4.87010E+01 0.00000E+00
 -1      1337 9.15000E+00 4.74020E+01 0.00000E+00
 -1      1338 1.29000E+01 4.87010E+01 0.00000E+00
 -1      1339 1.44000E+01 4.87010E+01 0.00000E+00
 -1      1340 1.21500E+01 4.74020E+01 0.00000E+00
 -1      1341 1.59000E+01 4.87010E+01 0.00000E+00
 -1      1342 1.74000E+01 4.87010E+01 0.00000E+00
 -1      1343 1.51500E+01 4.74020E+01 0.00000E+00
 -1      1344 1.89000E+01 4.87010E+01 0.00000E+00
 -1      1345 2.04000E+01 4.87010E+01 0.00000E+00
 -1      1346 1.81500E+01 4.74020E+01 0.00000E+00
 -1      1347 2.19000E+01 4.87010E+01 0.00000E+00
 -1      1348 2.34000E+01 4.87010E+01 0.00000E+00
 -1      1349 2.11500E+01 4.74020E+01 0.00000E+00
 -1      1350 2.49000E+01 4.87010E+01 0.00000E+00
 -1      1351 2.64000E+01 4.87010E+01 0.00000E+00
 -1      1352 2.41500E+01 4.74020E+01 0.00000E+00
 -1      1353 2.79000E+01 4.87010E+01 0.00000E+00
 -1      1354 2.94000E+01 4.87010E+01 0.00000E+00
 -1      1355 2.71500E+01 4.74020E+01 0.00000E+00
 -1      1356 3.09000E+01 4.87010E+01 0.00000E+00
 -1      1357 3.24000E+01 4.87010E+01 0.00000E+00
 -1      1358 3.01500E+01 4.74020E+01 0.00000E+00
 -1      1359 3.39000E+01 4.87010E+01 0.00000E+00
 -1      1360 3.54000E+01 4.87010E+01 0.00000E+00
 -1      1361 3.31500E+01 4.74020E+01 0.00000E+00
 -1      1362 3.69000E+01 4.87010E+01 0.00000E+00
 -1      1363 3.84000E+01 4.87010E+01 0.00000E+00
 -1      1364 3.61500E+01 4.74020E+01 0.00000E+00
 -1      1365 3.99000E+01 4.87010E+01 0.00000E+00
 -1      1366 4.14000E+01 4.87010E+01 0.00000E+00
 -1      1367 3.91500E+01 4.74020E+01 0.00000E+00
 -1      1368 4.29000E+01 4.87010E+01 0.00000E+00
 -1      1369 4.44000E+01 4.87010E+01 0.00000E+00
 -1      1370 4.21500E+01 4.74020E+01 0.00000E+00
 -1      1371 4.59000E+01 4.87010E+01 0.00000E+00
 -1      1372 4.74000E+01 4.87010E+01 0.00000E+00
 -1      1373 4.51500E+01 4.74020E+01 0.00000E+00
 -1      1374 4.89000E+01 4.87010E+01 0.00000E+00
 -1      1375 5.04000E+01 4.87010E+01 0.00000E+00
 -1      1376 4.81500E+01 4.74020E+01 0.00000E+00
 -1      1377 5.19000E+01 4.87010E+01 0.00000E+00
 -1      1378 5.34000E+01 4.87010E+01 0.00000E+00
 -1      1379 5.11500E+01 4.74020E+01 0.00000E+00
 -1      1380 5.49000E+01 4.87010E+01 0.00000E+00
 -1      1381 5.64000E+01 4.87010E+01 0.00000E+00
 -1      1382 5.41500E+01 4.74020E+01 0.00000E+00
 -1      1383 5.79000E+01 4.87010E+01 0.00000E+00
 -1      1384 5.94000E+01 4.87010E+01 0.00000E+00
 -1      1385 5.71500E+01 4.74020E+01 0.00000E+00
 -1      1386 6.09000E+01 4.87010E+01 0.00000E+00
 -1      1387 6.24000E+01 4.87010E+01 0.00000E+00
 -1      1388 6.01500E+01 4.74020E+01 0.00000E+00
 -1      1389 6.39000E+01 4.87010E+01 0.00000E+00
 -1      1390 6.54000E+01 4.87010E+01 0.00000E+00
 -1      1391 6.31500E+01 4.74020E+01 0.00000E+00
 -1      1392 6.69000E+01 4.87010E+01 0.00000E+00
 -1      1393 6.84000E+01 4.87010E+01 0.00000E+00
 -1      1394 6.61500E+01 4.74020E+01 0.00000E+00
 -1      1395 6.99000E+01 4.87010E+01 0.00000E+00
 -1      1396 7.14000E+01 4.87010E+01 0.00000E+00
 -1      1397 6.91500E+01 4.74020E+01 0.00000E+00
 -1      1398 7.29000E+01 4.87010E+01 0.00000E+00
 -1      1399 7.44000E+01 4.87010E+01 0.00000E+00
 -1      1400 7.21500E+01 4.74020E+01 0.00000E+00
 -1      1401 7.59000E+01 4.87010E+01 0.00000E+00
 -1      1402 7.74000E+01 4.87010E+01 0.00000E+00
 -1      1403 7.51500E+01 4.74020E+01 0.00000E+00
 -1      1404 7.89000E+01 4.87010E+01 0.00000E+00
 -1      1405 8.04000E+01 4.87010E+01 0.00000E+00
 -1      1406 7.81500E+01 4.74020E+01 0.00000E+00
 -1      1407 8.19000E+01 4.87010E+01 0.00000E+00
 -1      1408 8.34000E+01 4.87010E+01 0.00000E+00
 -1      1409 8.11500E+01 4.74020E+01 0.00000E+00
 -1      1410 8.49000E+01 4.87010E+01 0.00000E+00
 -1      1411 8.64000E+01 4.87010E+01 0.00000E+00
 -1      1412 8.41500E+01 4.74020E+01 0.00000E+00
 -1      1413 8.79000E+01 4.87010E+01 0.00000E+00
 -1      1414 8.94000E+01 4.87010E+01 0.00000E+00
 -1      1415 8.71500E+01 4.74020E+01 0.00000E+00
 -1      1416 9.09000E+01 4.87010E+01 0.00000E+00
 -1      1417 9.24000E+01 4.87010E+01 0.00000E+00
 -1      1418 9.01500E+01 4.74020E+01 0.00000E+00
 -1      1419 9.39000E+01 4.87010E+01 0.00000E+00
 -1      1420 9.54000E+01 4.87010E+01 0.00000E+00
 -1      1421 9.31500E+01 4.74020E+01 0.00000E+00
 -1      1422 9.69000E+01 4.87010E+01 0.00000E+00
 -1      1423 9.84000E+01 4.87010E+01 0.00000E+00
 -1      1424 9.61500E+01 4.74020E+01 0.00000E+00
 -1      1425 9.99000E+01 4.87010E+01 0.00000E+00
 -1      1426 1.01400E+02 4.87010E+01 0.00000E+00
 -1      1427 9.91500E+01 4.74020E+01 0.00000E+00
 -1      1428 1.02900E+02 4.87010E+01 0.00000E+00
 -1      1429 1.04400E+02 4.87010E+01 0.00000E+00
 -1      1430 1.02150E+02 4.74020E+01 0.00000E+00
 -1      1431 1.05900E+02 4.87010E+01 0.00000E+00
 -1      1432 1.07400E+02 4.87010E+01 0.00000E+00
 -1      1433 1.05150E+02 4.74020E+01 0.00000E+00
 -1      1434 1.08900E+02 4.87010E+01 0.00000E+00
 -1      1435 1.10400E+02 4.87010E+01 0.00000E+00
 -1      1436 1.08150E+02 4.74020E+01 0.00000E+00
 -1      1437 1.11900E+02 4.87010E+01 0.00000E+00
 -1      1438 1.13400E+02 4.87010E+01 0.00000E+00
 -1      1439 1.11150E+02 4.74020E+01 0.00000E+00
 -1      1440 1.14900E+02 4.87010E+01 0.00000E+00
 -1      1441 1.16400E+02 4.87010E+01 0.00000E+00
 -1      1442 1.14150E+02 4.74020E+01 0.00000E+00
 -1      1443 1.17900E+02 4.87010E+01 0.00000E+00
 -1      1444 1.19400E+02 4.87010E+01 0.00000E+00
 -1      1445 1.17150E+02 4.74020E+01 0.00000E+00
 -1      1446 1.20900E+02 4.87010E+01 0.00000E+00
 -1      1447 1.22400E+02 4.87010E+01 0.00000E+00
 -1      1448 1.20150E+02 4.74020E+01 0.00000E+00
 -1      1449 1.23900E+02 4.87010E+01 0.00000E+00
 -1      1450 1.25400E+02 4.87010E+01 0.00000E+00
 -1      1451 1.23150E+02 4.74020E+01 0.00000E+00
 -1      1452 1.26900E+02 4.87010E+01 0.00000E+00
 -1      1453 1.28400E+02 4.87010E+01 0.00000E+00
 -1      1454 1.26150E+02 4.74020E+01 0.00000E+00
 -1      1455 1.29900E+02 4.87010E+01 0.00000E+00
 -1      1456 1.31400E+02 4.87010E+01 0.00000E+00
 -1      1457 1.29150E+02 4.74020E+01 0.00000E+00
 -1      1458 1.32900E+02 4.87010E+01 0.00000E+00
 -1      1459 1.34400E+02 4.87010E+01 0.00000E+00
 -1      1460 1.32150E+02 4.74020E+01 0.00000E+00
 -1      1461 1.35900E+02 4.87010E+01 0.00000E+00
 -1      1462 1.37400E+02 4.87010E+01 0.00000E+00
 -1      1463 1.35150E+02 4.74020E+01 0.00000E+00
 -1      1464 1.38900E+02 4.87010E+01 0.00000E+00
 -1      1465 1.40400E+02 4.87010E+01 0.00000E+00
 -1      1466 1.38150E+02 4.74020E+01 0.00000E+00
 -1      1467 1.41900E+02 4.87010E+01 0.00000E+00
 -1      1468 1.43400E+02 4.87010E+01 0.00000E+00
 -1      1469 1.41150E+02 4.74020E+01 0.00000E+00
 -1      1470 1.44900E+02 4.87010E+01 0.00000E+00
 -1      1471 1.46400E+02 4.87010E+01 0.00000E+00
 -1      1472 1.44150E+02 4.74020E+01 0.00000E+00
 -1      1473 1.48575E+02 4.85500E+01 0.00000E+00
 -1      1474 1.47825E+02 4.72510E+01 0.00000E+00
 -1      1475 6.01200E+00 1.09375E+00 0.00000E+00
 -1      1476 4.51200E+00 1.09375E+00 0.00000E+00
 -1      1477 4.37400E+00 2.18750E+00 0.00000E+00
 -1      1478 9.01200E+00 1.09375E+00 0.00000E+00
 -1      1479 7.51200E+00 1.09375E+00 0.00000E+00
 -1      1480 7.37400E+00 2.18750E+00 0.00000E+00
 -1      1481 1.20120E+01 1.09375E+00 0.00000E+00
 -1      1482 1.05120E+01 1.09375E+00 0.00000E+00
 -1      1483 1.03740E+01 2.18750E+00 0.00000E+00
 -1      1484 1.50120E+01 1.09375E+00 0.00000E+00
 -1      1485 1.35120E+01 1.09375E+00 0.00000E+00
 -1      1486 1.33740E+01 2.18750E+00 0.00000E+00
 -1      1487 1.80120E+01 1.09375E+00 0.00000E+00
 -1      1488 1.65120E+01 1.09375E+00 0.00000E+00
 -1      1489 1.63740E+01 2.18750E+00 0.00000E+00
 -1      1490 2.10120E+01 1.09375E+00 0.00000E+00
 -1      1491 1.95120E+01 1.09375E+00 0.00000E+00
 -1      1492 1.93740E+01 2.18750E+00 0.00000E+00
 -1      1493 2.40120E+01 1.09375E+00 0.00000E+00
 -1      1494 2.25120E+01 1.09375E+00 0.00000E+00
 -1      1495 2.23740E+01 2.18750E+00 0.00000E+00
 -1      1496 2.70120E+01 1.09375E+00 0.00000E+00
 -1      1497 2.55120E+01 1.09375E+00 0.00000E+00
 -1      1498 2.53740E+01 2.18750E+00 0.00000E+00
 -1      1499 3.00120E+01 1.09375E+00 0.00000E+00
 -1      1500 2.85120E+01 1.09375E+00 0.00000E+00
 -1      1501 2.83740E+01 2.18750E+00 0.00000E+00
 -1      1502 3.30120E+01 1.09375E+00 0.00000E+00
 -1      1503 3.15120E+01 1.09375E+00 0.00000E+00
 -1      1504 3.13740E+01 2.18750E+00 0.00000E+00
 -1      1505 3.60120E+01 1.09375E+00 0.00000E+00
 -1      1506 3.45120E+01 1.09375E+00 0.00000E+00
 -1      1507 3.43740E+01 2.18750E+00 0.00000E+00
 -1      1508 3.90120E+01 1.09375E+00 0.00000E+00
 -1      1509 3.75120E+01 1.09375E+00 0.00000E+00
 -1      1510 3.73740E+01 2.18750E+00 0.00000E+00
 -1      1511 4.20120E+01 1.09375E+00 0.00000E+00
 -1      1512 4.05120E+01 1.09375E+00 0.00000E+00
 -1      1513 4.03740E+01 2.18750E+00 0.00000E+00
 -1      1514 4.50120E+01 1.09375E+00 0.00000E+00
 -1      1515 4.35120E+01 1.09375E+00 0.00000E+00
 -1      1516 4.33740E+01 2.18750E+00 0.00000E+00
 -1      1517 4.80120E+01 1.09375E+00 0.00000E+00
 -1      1518 4.65120E+01 1.09375E+00 0.00000E+00
 -1      1519 4.63740E+01 2.18750E+00 0.00000E+00
 -1      1520 5.10120E+01 1.09375E+00 0.00000E+00
 -1      1521 4.95120E+01 1.09375E+00 0.00000E+00
 -1      1522 4.93740E+01 2.18750E+00 0.00000E+00
 -1      1523 5.40120E+01 1.09375E+00 0.00000E+00
 -1      1524 5.25120E+01 1.09375E+00 0.00000E+00
 -1      1525 5.23740E+01 2.18750E+00 0.00000E+00
 -1      1526 5.70120E+01 1.09375E+00 0.00000E+00
 -1      1527 5.55120E+01 1.09375E+00 0.00000E+00
 -1      1528 5.53740E+01 2.18750E+00 0.00000E+00
 -1      1529 6.00120E+01 1.09375E+00 0.00000E+00
 -1      1530 5.85120E+01 1.09375E+00 0.00000E+00
 -1      1531 5.83740E+01 2.18750E+00 0.00000E+00
 -1      1532 6.30120E+01 1.09375E+00 0.00000E+00
 -1      1533 6.15120E+01 1.09375E+00 0.00000E+00
 -1      1534 6.13740E+01 2.18750E+00 0.00000E+00
 -1      1535 6.60120E+01 1.09375E+00 0.00000E+00
 -1      1536 6.45120E+01 1.09375E+00 0.00000E+00
 -1      1537 6.43740E+01 2.18750E+00 0.00000E+00
 -1      1538 6.90120E+01 1.09375E+00 0.00000E+00
 -1      1539 6.75120E+01 1.09375E+00 0.00000E+00
 -1      1540 6.73740E+01 2.18750E+00 0.00000E+00
 -1      1541 7.20120E+01 1.09375E+00 0.00000E+00
 -1      1542 7.05120E+01 1.09375E+00 0.00000E+00
 -1      1543 7.03740E+01 2.18750E+00 0.00000E+00
 -1      1544 7.50120E+01 1.09375E+00 0.00000E+00
 -1      1545 7.35120E+01 1.09375E+00 0.00000E+00
 -1      1546 7.33740E+01 2.18750E+00 0.00000E+00
 -1      1547 7.80120E+01 1.09375E+00 0.00000E+00
 -1      1548 7.65120E+01 1.09375E+00 0.00000E+00
 -1      1549 7.63740E+01 2.18750E+00 0.00000E+00
 -1      1550 8.10120E+01 1.09375E+00 0.00000E+00
 -1      1551 7.95120E+01 1.09375E+00 0.00000E+00
 -1      1552 7.93740E+01 2.18750E+00 0.00000E+00
 -1      1553 8.40120E+01 1.09375E+00 0.00000E+00
 -1      1554 8.25120E+01 1.09375E+00 0.00000E+00
 -1      1555 8.23740E+01 2.18750E+00 0.00000E+00
 -1      1556 8.70120E+01 1.09375E+00 0.00000E+00
 -1      1557 8.55120E+01 1.09375E+00 0.00000E+00
 -1      1558 8.53740E+01 2.18750E+00 0.00000E+00
 -1      1559 9.00120E+01 1.09375E+00 0.00000E+00
 -1      1560 8.85120E+01 1.09375E+00 0.00000E+00
 -1      1561 8.83740E+01 2.18750E+00 0.00000E+00
 -1      1562 9.30120E+01 1.09375E+00 0.00000E+00
 -1      1563 9.15120E+01 1.09375E+00 0.00000E+00
 -1      1564 9.13740E+01 2.18750E+00 0.00000E+00
 -1      1565 9.60120E+01 1.09375E+00 0.00000E+00
 -1      1566 9.45120E+01 1.09375E+00 0.00000E+00
 -1      1567 9.43740E+01 2.18750E+00 0.00000E+00
 -1      1568 9.90120E+01 1.09375E+00 0.00000E+00
 -1      1569 9.75120E+01 1.09375E+00 0.00000E+00
 -1      1570 9.73740E+01 2.18750E+00 0.00000E+00
 -1      1571 1.02012E+02 1.09375E+00 0.00000E+00
 -1      1572 1.00512E+02 1.09375E+00 0.00000E+00
 -1      1573 1.00374E+02 2.18750E+00 0.00000E+00
 -1      1574 1.05012E+02 1.09375E+00 0.00000E+00
 -1      1575 1.03512E+02 1.09375E+00 0.00000E+00
 -1      1576 1.03374E+02 2.18750E+00 0.00000E+00
 -1      1577 1.08012E+02 1.09375E+00 0.00000E+00
 -1      1578 1.06512E+02 1.09375E+00 0.00000E+00
 -1      1579 1.06374E+02 2.18750E+00 0.00000E+00
 -1      1580 1.11012E+02 1.09375E+00 0.00000E+00
 -1      1581 1.09512E+02 1.09375E+00 0.00000E+00
 -1      1582 1.09374E+02 2.18750E+00 0.00000E+00
 -1      1583 1.14012E+02 1.09375E+00 0.00000E+00
 -1      1584 1.12512E+02 1.09375E+00 0.00000E+00
 -1      1585 1.12374E+02 2.18750E+00 0.00000E+00
 -1      1586 1.17012E+02 1.09375E+00 0.00000E+00
 -1      1587 1.15512E+02 1.09375E+00 0.00000E+00
 -1      1588 1.15374E+02 2.18750E+00 0.00000E+00
 -1      1589 1.20012E+02 1.09375E+00 0.00000E+00
 -1      1590 1.18512E+02 1.09375E+00 0.00000E+00
 -1      1591 1.18374E+02 2.18750E+00 0.00000E+00
 -1      1592 1.23012E+02 1.09375E+00 0.00000E+00
 -1      1593 1.21512E+02 1.09375E+00 0.00000E+00
 -1      1594 1.21374E+02 2.18750E+00 0.00000E+00
 -1      1595 1.26012E+02 1.09375E+00 0.00000E+00
 -1      1596 1.24512E+02 1.09375E+00 0.00000E+00
 -1      1597 1.24374E+02 2.18750E+00 0.00000E+00
 -1      1598 1.29012E+02 1.09375E+00 0.00000E+00
 -1      1599 1.27512E+02 1.09375E+00 0.00000E+00
 -1      1600 1.27374E+02 2.18750E+00 0.00000E+00
 -1      1601 1.32012E+02 1.09375E+00 0.00000E+00
 -1      1602 1.30512E+02 1.09375E+00 0.00000E+00
 -1      1603 1.30374E+02 2.18750E+00 0.00000E+00
 -1      1604 1.35012E+02 1.09375E+00 0.00000E+00
 -1      1605 1.33512E+02 1.09375E+00 0.00000E+00
 -1      1606 1.33374E+02 2.18750E+00 0.00000E+00
 -1      1607 1.38012E+02 1.09375E+00 0.00000E+00
 -1      1608 1.36512E+02 1.09375E+00 0.00000E+00
 -1      1609 1.36374E+02 2.18750E+00 0.00000E+00
 -1      1610 1.41012E+02 1.09375E+00 0.00000E+00
 -1      1611 1.39512E+02 1.09375E+00 0.00000E+00
 -1      1612 1.39374E+02 2.18750E+00 0.00000E+00
 -1      1613 1.44012E+02 1.09375E+00 0.00000E+00
 -1      1614 1.42512E+02 1.09375E+00 0.00000E+00
 -1      1615 1.42374E+02 2.18750E+00 0.00000E+00
 -1      1616 1.47012E+02 1.09375E+00 0.00000E+00
 -1      1617 1.45512E+02 1.09375E+00 0.00000E+00
 -1      1618 1.45374E+02 2.18750E+00 0.00000E+00
 -1      1619 1.48575E+02 1.47500E+00 0.00000E+00
 -1      1620 1.48701E+02 5.16250E+00 0.00000E+00
 -1      1621 1.48701E+02 3.68750E+00 0.00000E+00
 -1      1622 1.48701E+02 8.11250E+00 0.00000E+00
 -1      1623 1.48701E+02 6.63750E+00 0.00000E+00
 -1      1624 1.47402E+02 5.90000E+00 0.00000E+00
 -1      1625 1.48701E+02 1.10625E+01 0.00000E+00
 -1      1626 1.48701E+02 9.58750E+00 0.00000E+00
 -1      1627 1.47402E+02 8.85000E+00 0.00000E+00
 -1      1628 1.48701E+02 1.40125E+01 0.00000E+00
 -1      1629 1.48701E+02 1.25375E+01 0.00000E+00
 -1      1630 1.47402E+02 1.18000E+01 0.00000E+00
 -1      1631 1.48701E+02 1.69125E+01 0.00000E+00
 -1      1632 1.48701E+02 1.54625E+01 0.00000E+00
 -1      1633 1.47402E+02 1.47250E+01 0.00000E+00
 -1      1634 1.48701E+02 1.98625E+01 0.00000E+00
 -1      1635 1.48701E+02 1.83875E+01 0.00000E+00
 -1      1636 1.47402E+02 1.76500E+01 0.00000E+00
 -1      1637 1.48701E+02 2.28125E+01 0.00000E+00
 -1      1638 1.48701E+02 2.13375E+01 0.00000E+00
 -1      1639 1.47402E+02 2.06000E+01 0.00000E+00
 -1      1640 1.48701E+02 2.57625E+01 0.00000E+00
 -1      1641 1.48701E+02 2.42875E+01 0.00000E+00
 -1      1642 1.47402E+02 2.35500E+01 0.00000E+00
 -1      1643 1.48701E+02 2.87125E+01 0.00000E+00
 -1      1644 1.48701E+02 2.72375E+01 0.00000E+00
 -1      1645 1.47402E+02 2.65000E+01 0.00000E+00
 -1      1646 1.48701E+02 3.16625E+01 0.00000E+00
 -1      1647 1.48701E+02 3.01875E+01 0.00000E+00
 -1      1648 1.47402E+02 2.94500E+01 0.00000E+00
 -1      1649 1.48701E+02 3.45625E+01 0.00000E+00
 -1      1650 1.48701E+02 3.31125E+01 0.00000E+00
 -1      1651 1.47402E+02 3.23750E+01 0.00000E+00
 -1      1652 1.48701E+02 3.75125E+01 0.00000E+00
 -1      1653 1.48701E+02 3.60375E+01 0.00000E+00
 -1      1654 1.47402E+02 3.53000E+01 0.00000E+00
 -1      1655 1.48701E+02 4.04625E+01 0.00000E+00
 -1      1656 1.48701E+02 3.89875E+01 0.00000E+00
 -1      1657 1.47402E+02 3.82500E+01 0.00000E+00
 -1      1658 1.48701E+02 4.34125E+01 0.00000E+00
 -1      1659 1.48701E+02 4.19375E+01 0.00000E+00
 -1      1660 1.47402E+02 4.12000E+01 0.00000E+00
 -1      1661 1.48263E+02 4.60692E+01 0.00000E+00
 -1      1662 1.48263E+02 4.45942E+01 0.00000E+00
 -1      1663 1.46964E+02 4.38568E+01 0.00000E+00
 -1      1664 1.46088E+02 4.62202E+01 0.00000E+00
 -1      1665 1.20757E+02 2.54931E+01 0.00000E+00
 -1      1666 1.20836E+02 2.62323E+01 0.00000E+00
 -1      1667 1.20353E+02 2.39689E+01 0.00000E+00
 -1      1668 1.20578E+02 2.46559E+01 0.00000E+00
 -1      1669 1.19692E+02 2.24893E+01 0.00000E+00
 -1      1670 1.20071E+02 2.31407E+01 0.00000E+00
 -1      1671 1.18611E+02 2.12903E+01 0.00000E+00
 -1      1672 1.19106E+02 2.18314E+01 0.00000E+00
 -1      1673 1.17381E+02 2.03001E+01 0.00000E+00
 -1      1674 1.17973E+02 2.07239E+01 0.00000E+00
 -1      1675 1.15918E+02 1.94385E+01 0.00000E+00
 -1      1676 1.16652E+02 1.97514E+01 0.00000E+00
 -1      1677 1.14302E+02 1.91595E+01 0.00000E+00
 -1      1678 1.15017E+02 1.92928E+01 0.00000E+00
 -1      1679 1.12656E+02 1.90341E+01 0.00000E+00
 -1      1680 1.13427E+02 1.90108E+01 0.00000E+00
 -1      1681 1.11027E+02 1.94330E+01 0.00000E+00
 -1      1682 1.11769E+02 1.92430E+01 0.00000E+00
 -1      1683 1.09526E+02 2.00825E+01 0.00000E+00
 -1      1684 1.10197E+02 1.97436E+01 0.00000E+00
 -1      1685 1.08156E+02 2.10850E+01 0.00000E+00
 -1      1686 1.08771E+02 2.05785E+01 0.00000E+00
 -1      1687 1.07062E+02 2.23297E+01 0.00000E+00
 -1      1688 1.07524E+02 2.17330E+01 0.00000E+00
 -1      1689 1.06182E+02 2.37782E+01 0.00000E+00
 -1      1690 1.06517E+02 2.30638E+01 0.00000E+00
 -1      1691 1.05804E+02 2.53956E+01 0.00000E+00
 -1      1692 1.05967E+02 2.46634E+01 0.00000E+00
 -1      1693 1.05704E+02 2.70022E+01 0.00000E+00
 -1      1694 1.05707E+02 2.62608E+01 0.00000E+00
 -1      1695 1.05960E+02 2.86379E+01 0.00000E+00
 -1      1696 1.05797E+02 2.78815E+01 0.00000E+00
 -1      1697 1.06498E+02 3.02345E+01 0.00000E+00
 -1      1698 1.06172E+02 2.95305E+01 0.00000E+00
 -1      1699 1.07400E+02 3.15240E+01 0.00000E+00
 -1      1700 1.06980E+02 3.09653E+01 0.00000E+00
 -1      1701 1.08572E+02 3.26071E+01 0.00000E+00
 -1      1702 1.08010E+02 3.21156E+01 0.00000E+00
 -1      1703 1.09951E+02 3.35194E+01 0.00000E+00
 -1      1704 1.09277E+02 3.31497E+01 0.00000E+00
 -1      1705 1.11487E+02 3.40292E+01 0.00000E+00
 -1      1706 1.10782E+02 3.38214E+01 0.00000E+00
 -1      1707 1.13103E+02 3.42804E+01 0.00000E+00
 -1      1708 1.12344E+02 3.42255E+01 0.00000E+00
 -1      1709 1.14780E+02 3.41732E+01 0.00000E+00
 -1      1710 1.14014E+02 3.42871E+01 0.00000E+00
 -1      1711 1.16391E+02 3.36126E+01 0.00000E+00
 -1      1712 1.15661E+02 3.38961E+01 0.00000E+00
 -1      1713 1.17758E+02 3.27735E+01 0.00000E+00
 -1      1714 1.17157E+02 3.31724E+01 0.00000E+00
 -1      1715 1.18929E+02 3.17059E+01 0.00000E+00
 -1      1716 1.18414E+02 3.22311E+01 0.00000E+00
 -1      1717 1.19874E+02 3.03790E+01 0.00000E+00
 -1      1718 1.19470E+02 3.10208E+01 0.00000E+00
 -1      1719 1.20615E+02 2.88293E+01 0.00000E+00
 -1      1720 1.20348E+02 2.95859E+01 0.00000E+00
 -1      1721 1.20873E+02 2.71275E+01 0.00000E+00
 -1      1722 1.20785E+02 2.79052E+01 0.00000E+00
 -1      1723 1.18668E+02 2.05855E+01 0.00000E+00
 -1      1724 1.19892E+02 2.18098E+01 0.00000E+00
 -1      1725 1.48437E+02 2.56875E+00 0.00000E+00
 -1      1726 1.47138E+02 3.30625E+00 0.00000E+00
 -1      1727 1.21220E+02 2.49611E+01 0.00000E+00
 -1      1728 1.20760E+02 2.32957E+01 0.00000E+00
 -1      1729 1.21436E+02 2.66936E+01 0.00000E+00
 -1      1730 1.17301E+02 1.94703E+01 0.00000E+00
 -1      1731 1.15671E+02 1.87759E+01 0.00000E+00
 -1      1732 1.13896E+02 1.84815E+01 0.00000E+00
 -1      1733 1.12134E+02 1.85417E+01 0.00000E+00
 -1      1734 1.10418E+02 1.90613E+01 0.00000E+00
 -1      1735 1.08833E+02 1.98679E+01 0.00000E+00
 -1      1736 1.07446E+02 2.10119E+01 0.00000E+00
 -1      1737 1.06270E+02 2.23940E+01 0.00000E+00
 -1      1738 1.05509E+02 2.40132E+01 0.00000E+00
 -1      1739 1.05197E+02 2.57635E+01 0.00000E+00
 -1      1740 1.05193E+02 2.75081E+01 0.00000E+00
 -1      1741 1.05498E+02 2.92801E+01 0.00000E+00
 -1      1742 1.06190E+02 3.09036E+01 0.00000E+00
 -1      1743 1.07282E+02 3.22260E+01 0.00000E+00
 -1      1744 1.08597E+02 3.33602E+01 0.00000E+00
 -1      1745 1.10133E+02 3.42048E+01 0.00000E+00
 -1      1746 1.11820E+02 3.47031E+01 0.00000E+00
 -1      1747 1.13587E+02 3.49060E+01 0.00000E+00
 -1      1748 1.15379E+02 3.46355E+01 0.00000E+00
 -1      1749 1.17026E+02 3.39183E+01 0.00000E+00
 -1      1750 1.18448E+02 3.29356E+01 0.00000E+00
 -1      1751 1.19645E+02 3.17082E+01 0.00000E+00
 -1      1752 1.20659E+02 3.02300E+01 0.00000E+00
 -1      1753 1.21303E+02 2.85129E+01 0.00000E+00
 -1      1754 2.87400E+00 4.77875E+01 0.00000E+00
 -1      1755 3.89700E+00 4.04125E+01 0.00000E+00
 -1      1756 3.89700E+00 4.18875E+01 0.00000E+00
 -1      1757 3.89700E+00 4.33625E+01 0.00000E+00
 -1      1758 3.89700E+00 4.48375E+01 0.00000E+00
 -1      1759 5.19600E+00 4.26250E+01 0.00000E+00
 -1      1760 3.89700E+00 3.45500E+01 0.00000E+00
 -1      1761 3.89700E+00 3.60000E+01 0.00000E+00
 -1      1762 3.89700E+00 3.16000E+01 0.00000E+00
 -1      1763 3.89700E+00 3.30750E+01 0.00000E+00
 -1      1764 5.19600E+00 3.38000E+01 0.00000E+00
 -1      1765 3.89700E+00 2.86500E+01 0.00000E+00
 -1      1766 3.89700E+00 3.01250E+01 0.00000E+00
 -1      1767 5.19600E+00 3.08500E+01 0.00000E+00
 -1      1768 3.89700E+00 2.57000E+01 0.00000E+00
 -1      1769 3.89700E+00 2.71750E+01 0.00000E+00
 -1      1770 5.19600E+00 2.79000E+01 0.00000E+00
 -1      1771 3.89700E+00 2.27500E+01 0.00000E+00
 -1      1772 3.89700E+00 2.42250E+01 0.00000E+00
 -1      1773 5.19600E+00 2.49500E+01 0.00000E+00
 -1      1774 3.89700E+00 1.98000E+01 0.00000E+00
 -1      1775 3.89700E+00 2.12750E+01 0.00000E+00
 -1      1776 5.19600E+00 2.20000E+01 0.00000E+00
 -1      1777 3.89700E+00 1.69000E+01 0.00000E+00
 -1      1778 3.89700E+00 1.83500E+01 0.00000E+00
 -1      1779 5.19600E+00 1.90750E+01 0.00000E+00
 -1      1780 3.89700E+00 1.39500E+01 0.00000E+00
 -1      1781 3.89700E+00 1.54250E+01 0.00000E+00
 -1      1782 5.19600E+00 1.61500E+01 0.00000E+00
 -1      1783 3.89700E+00 1.10000E+01 0.00000E+00
 -1      1784 3.89700E+00 1.24750E+01 0.00000E+00
 -1      1785 5.19600E+00 1.32000E+01 0.00000E+00
 -1      1786 3.89700E+00 8.05000E+00 0.00000E+00
 -1      1787 3.89700E+00 9.52500E+00 0.00000E+00
 -1      1788 5.19600E+00 1.02500E+01 0.00000E+00
 -1      1789 3.89700E+00 5.10000E+00 0.00000E+00
 -1      1790 3.89700E+00 6.57500E+00 0.00000E+00
 -1      1791 5.19600E+00 7.30000E+00 0.00000E+00
 -1      1792 4.20450E+00 3.09687E+00 0.00000E+00
 -1      1793 4.06650E+00 4.19063E+00 0.00000E+00
 -1      1794 5.36550E+00 4.91563E+00 0.00000E+00
 -1      1795 5.70450E+00 3.09687E+00 0.00000E+00
 -1      1796 3.62400E+00 4.64885E+01 0.00000E+00
 -1      1797 8.70450E+00 3.09687E+00 0.00000E+00
 -1      1798 7.20450E+00 3.09687E+00 0.00000E+00
 -1      1799 7.03500E+00 4.00625E+00 0.00000E+00
 -1      1800 4.92300E+00 4.57510E+01 0.00000E+00
 -1      1801 8.40000E+00 4.61030E+01 0.00000E+00
 -1      1802 9.90000E+00 4.61030E+01 0.00000E+00
 -1      1803 1.14000E+01 4.61030E+01 0.00000E+00
 -1      1804 1.29000E+01 4.61030E+01 0.00000E+00
 -1      1805 1.06500E+01 4.48040E+01 0.00000E+00
 -1      1806 1.44000E+01 4.61030E+01 0.00000E+00
 -1      1807 1.59000E+01 4.61030E+01 0.00000E+00
 -1      1808 1.36500E+01 4.48040E+01 0.00000E+00
 -1      1809 1.74000E+01 4.61030E+01 0.00000E+00
 -1      1810 1.89000E+01 4.61030E+01 0.00000E+00
 -1      1811 1.66500E+01 4.48040E+01 0.00000E+00
 -1      1812 2.04000E+01 4.61030E+01 0.00000E+00
 -1      1813 2.19000E+01 4.61030E+01 0.00000E+00
 -1      1814 1.96500E+01 4.48040E+01 0.00000E+00
 -1      1815 2.34000E+01 4.61030E+01 0.00000E+00
 -1      1816 2.49000E+01 4.61030E+01 0.00000E+00
 -1      1817 2.26500E+01 4.48040E+01 0.00000E+00
 -1      1818 2.64000E+01 4.61030E+01 0.00000E+00
 -1      1819 2.79000E+01 4.61030E+01 0.00000E+00
 -1      1820 2.56500E+01 4.48040E+01 0.00000E+00
 -1      1821 2.94000E+01 4.61030E+01 0.00000E+00
 -1      1822 3.09000E+01 4.61030E+01 0.00000E+00
 -1      1823 2.86500E+01 4.48040E+01 0.00000E+00
 -1      1824 3.24000E+01 4.61030E+01 0.00000E+00
 -1      1825 3.39000E+01 4.61030E+01 0.00000E+00
 -1      1826 3.16500E+01 4.48040E+01 0.00000E+00
 -1      1827 3.54000E+01 4.61030E+01 0.00000E+00
 -1      1828 3.69000E+01 4.61030E+01 0.00000E+00
 -1      1829 3.46500E+01 4.48040E+01 0.00000E+00
 -1      1830 3.84000E+01 4.61030E+01 0.00000E+00
 -1      1831 3.99000E+01 4.61030E+01 0.00000E+00
 -1      1832 3.76500E+01 4.48040E+01 0.00000E+00
 -1      1833 4.14000E+01 4.61030E+01 0.00000E+00
 -1      1834 4.29000E+01 4.61030E+01 0.00000E+00
 -1      1835 4.06500E+01 4.48040E+01 0.00000E+00
 -1      1836 4.44000E+01 4.61030E+01 0.00000E+00
 -1      1837 4.59000E+01 4.61030E+01 0.00000E+00
 -1      1838 4.36500E+01 4.48040E+01 0.00000E+00
 -1      1839 4.74000E+01 4.61030E+01 0.00000E+00
 -1      1840 4.89000E+01 4.61030E+01 0.00000E+00
 -1      1841 4.66500E+01 4.48040E+01 0.00000E+00
 -1      1842 5.04000E+01 4.61030E+01 0.00000E+00
 -1      1843 5.19000E+01 4.61030E+01 0.00000E+00
 -1      1844 4.96500E+01 4.48040E+01 0.00000E+00
 -1      1845 5.34000E+01 4.61030E+01 0.00000E+00
 -1      1846 5.49000E+01 4.61030E+01 0.00000E+00
 -1      1847 5.26500E+01 4.48040E+01 0.00000E+00
 -1      1848 5.64000E+01 4.61030E+01 0.00000E+00
 -1      1849 5.79000E+01 4.61030E+01 0.00000E+00
 -1      1850 5.56500E+01 4.48040E+01 0.00000E+00
 -1      1851 5.94000E+01 4.61030E+01 0.00000E+00
 -1      1852 6.09000E+01 4.61030E+01 0.00000E+00
 -1      1853 5.86500E+01 4.48040E+01 0.00000E+00
 -1      1854 6.24000E+01 4.61030E+01 0.00000E+00
 -1      1855 6.39000E+01 4.61030E+01 0.00000E+00
 -1      1856 6.16500E+01 4.48040E+01 0.00000E+00
 -1      1857 6.54000E+01 4.61030E+01 0.00000E+00
 -1      1858 6.69000E+01 4.61030E+01 0.00000E+00
 -1      1859 6.46500E+01 4.48040E+01 0.00000E+00
 -1      1860 6.84000E+01 4.61030E+01 0.00000E+00
 -1      1861 6.99000E+01 4.61030E+01 0.00000E+00
 -1      1862 6.76500E+01 4.48040E+01 0.00000E+00
 -1      1863 7.14000E+01 4.61030E+01 0.00000E+00
 -1      1864 7.29000E+01 4.61030E+01 0.00000E+00
 -1      1865 7.06500E+01 4.48040E+01 0.00000E+00
 -1      1866 7.44000E+01 4.61030E+01 0.00000E+00
 -1      1867 7.59000E+01 4.61030E+01 0.00000E+00
 -1      1868 7.36500E+01 4.48040E+01 0.00000E+00
 -1      1869 7.74000E+01 4.61030E+01 0.00000E+00
 -1      1870 7.89000E+01 4.61030E+01 0.00000E+00
 -1      1871 7.66500E+01 4.48040E+01 0.00000E+00
 -1      1872 8.04000E+01 4.61030E+01 0.00000E+00
 -1      1873 8.19000E+01 4.61030E+01 0.00000E+00
 -1      1874 7.96500E+01 4.48040E+01 0.00000E+00
 -1      1875 8.34000E+01 4.61030E+01 0.00000E+00
 -1      1876 8.49000E+01 4.61030E+01 0.00000E+00
 -1      1877 8.26500E+01 4.48040E+01 0.00000E+00
 -1      1878 8.64000E+01 4.61030E+01 0.00000E+00
 -1      1879 8.79000E+01 4.61030E+01 0.00000E+00
 -1      1880 8.56500E+01 4.48040E+01 0.00000E+00
 -1      1881 8.94000E+01 4.61030E+01 0.00000E+00
 -1      1882 9.09000E+01 4.61030E+01 0.00000E+00
 -1      1883 8.86500E+01 4.48040E+01 0.00000E+00
 -1      1884 9.24000E+01 4.61030E+01 0.00000E+00
 -1      1885 9.39000E+01 4.61030E+01 0.00000E+00
 -1      1886 9.16500E+01 4.48040E+01 0.00000E+00
 -1      1887 9.54000E+01 4.61030E+01 0.00000E+00
 -1      1888 9.69000E+01 4.61030E+01 0.00000E+00
 -1      1889 9.46500E+01 4.48040E+01 0.00000E+00
 -1      1890 9.84000E+01 4.61030E+01 0.00000E+00
 -1      1891 9.99000E+01 4.61030E+01 0.00000E+00
 -1      1892 9.76500E+01 4.48040E+01 0.00000E+00
 -1      1893 1.01400E+02 4.61030E+01 0.00000E+00
 -1      1894 1.02900E+02 4.61030E+01 0.00000E+00
 -1      1895 1.00650E+02 4.48040E+01 0.00000E+00
 -1      1896 1.04400E+02 4.61030E+01 0.00000E+00
 -1      1897 1.05900E+02 4.61030E+01 0.00000E+00
 -1      1898 1.03650E+02 4.48040E+01 0.00000E+00
 -1      1899 1.07400E+02 4.61030E+01 0.00000E+00
 -1      1900 1.08900E+02 4.61030E+01 0.00000E+00
 -1      1901 1.06650E+02 4.48040E+01 0.00000E+00
 -1      1902 1.10400E+02 4.61030E+01 0.00000E+00
 -1      1903 1.11900E+02 4.61030E+01 0.00000E+00
 -1      1904 1.09650E+02 4.48040E+01 0.00000E+00
 -1      1905 1.13400E+02 4.61030E+01 0.00000E+00
 -1      1906 1.14900E+02 4.61030E+01 0.00000E+00
 -1      1907 1.12650E+02 4.48040E+01 0.00000E+00
 -1      1908 1.16400E+02 4.61030E+01 0.00000E+00
 -1      1909 1.17900E+02 4.61030E+01 0.00000E+00
 -1      1910 1.15650E+02 4.48040E+01 0.00000E+00
 -1      1911 1.19400E+02 4.61030E+01 0.00000E+00
 -1      1912 1.20900E+02 4.61030E+01 0.00000E+00
 -1      1913 1.18650E+02 4.48040E+01 0.00000E+00
 -1      1914 1.22400E+02 4.61030E+01 0.00000E+00
 -1      1915 1.23900E+02 4.61030E+01 0.00000E+00
 -1      1916 1.21650E+02 4.48040E+01 0.00000E+00
 -1      1917 1.25400E+02 4.61030E+01 0.00000E+00
 -1      1918 1.26900E+02 4.61030E+01 0.00000E+00
 -1      1919 1.24650E+02 4.48040E+01 0.00000E+00
 -1      1920 1.28400E+02 4.61030E+01 0.00000E+00
 -1      1921 1.29900E+02 4.61030E+01 0.00000E+00
 -1      1922 1.27650E+02 4.48040E+01 0.00000E+00
 -1      1923 1.31400E+02 4.61030E+01 0.00000E+00
 -1      1924 1.32900E+02 4.61030E+01 0.00000E+00
 -1      1925 1.30650E+02 4.48040E+01 0.00000E+00
 -1      1926 1.34400E+02 4.61030E+01 0.00000E+00
 -1      1927 1.35900E+02 4.61030E+01 0.00000E+00
 -1      1928 1.33650E+02 4.48040E+01 0.00000E+00
 -1      1929 1.37400E+02 4.61030E+01 0.00000E+00
 -1      1930 1.38900E+02 4.61030E+01 0.00000E+00
 -1      1931 1.36650E+02 4.48040E+01 0.00000E+00
 -1      1932 1.40400E+02 4.61030E+01 0.00000E+00
 -1      1933 1.41900E+02 4.61030E+01 0.00000E+00
 -1      1934 1.39650E+02 4.48040E+01 0.00000E+00
 -1      1935 1.43244E+02 4.61616E+01 0.00000E+00
 -1      1936 1.44744E+02 4.61616E+01 0.00000E+00
 -1      1937 1.45182E+02 4.49799E+01 0.00000E+00
 -1      1938 1.42494E+02 4.48626E+01 0.00000E+00
 -1      1939 1.17045E+01 3.09687E+00 0.00000E+00
 -1      1940 1.02045E+01 3.09687E+00 0.00000E+00
 -1      1941 1.00350E+01 4.00625E+00 0.00000E+00
 -1      1942 1.47045E+01 3.09687E+00 0.00000E+00
 -1      1943 1.32045E+01 3.09687E+00 0.00000E+00
 -1      1944 1.30350E+01 4.00625E+00 0.00000E+00
 -1      1945 1.77045E+01 3.09687E+00 0.00000E+00
 -1      1946 1.62045E+01 3.09687E+00 0.00000E+00
 -1      1947 1.60350E+01 4.00625E+00 0.00000E+00
 -1      1948 2.07045E+01 3.09687E+00 0.00000E+00
 -1      1949 1.92045E+01 3.09687E+00 0.00000E+00
 -1      1950 1.90350E+01 4.00625E+00 0.00000E+00
 -1      1951 2.37045E+01 3.09687E+00 0.00000E+00
 -1      1952 2.22045E+01 3.09687E+00 0.00000E+00
 -1      1953 2.20350E+01 4.00625E+00 0.00000E+00
 -1      1954 2.67045E+01 3.09687E+00 0.00000E+00
 -1      1955 2.52045E+01 3.09687E+00 0.00000E+00
 -1      1956 2.50350E+01 4.00625E+00 0.00000E+00
 -1      1957 2.97045E+01 3.09687E+00 0.00000E+00
 -1      1958 2.82045E+01 3.09687E+00 0.00000E+00
 -1      1959 2.80350E+01 4.00625E+00 0.00000E+00
 -1      1960 3.27045E+01 3.09687E+00 0.00000E+00
 -1      1961 3.12045E+01 3.09687E+00 0.00000E+00
 -1      1962 3.10350E+01 4.00625E+00 0.00000E+00
 -1      1963 3.57045E+01 3.09687E+00 0.00000E+00
 -1      1964 3.42045E+01 3.09687E+00 0.00000E+00
 -1      1965 3.40350E+01 4.00625E+00 0.00000E+00
 -1      1966 3.87045E+01 3.09687E+00 0.00000E+00
 -1      1967 3.72045E+01 3.09687E+00 0.00000E+00
 -1      1968 3.70350E+01 4.00625E+00 0.00000E+00
 -1      1969 4.17045E+01 3.09687E+00 0.00000E+00
 -1      1970 4.02045E+01 3.09687E+00 0.00000E+00
 -1      1971 4.00350E+01 4.00625E+00 0.00000E+00
 -1      1972 4.47045E+01 3.09687E+00 0.00000E+00
 -1      1973 4.32045E+01 3.09687E+00 0.00000E+00
 -1      1974 4.30350E+01 4.00625E+00 0.00000E+00
 -1      1975 4.77045E+01 3.09687E+00 0.00000E+00
 -1      1976 4.62045E+01 3.09687E+00 0.00000E+00
 -1      1977 4.60350E+01 4.00625E+00 0.00000E+00
 -1      1978 5.07045E+01 3.09687E+00 0.00000E+00
 -1      1979 4.92045E+01 3.09687E+00 0.00000E+00
 -1      1980 4.90350E+01 4.00625E+00 0.00000E+00
 -1      1981 5.37045E+01 3.09687E+00 0.00000E+00
 -1      1982 5.22045E+01 3.09687E+00 0.00000E+00
 -1      1983 5.20350E+01 4.00625E+00 0.00000E+00
 -1      1984 5.67045E+01 3.09687E+00 0.00000E+00
 -1      1985 5.52045E+01 3.09687E+00 0.00000E+00
 -1      1986 5.50350E+01 4.00625E+00 0.00000E+00
 -1      1987 5.97045E+01 3.09687E+00 0.00000E+00
 -1      1988 5.82045E+01 3.09687E+00 0.00000E+00
 -1      1989 5.80350E+01 4.00625E+00 0.00000E+00
 -1      1990 6.27045E+01 3.09687E+00 0.00000E+00
 -1      1991 6.12045E+01 3.09687E+00 0.00000E+00
 -1      1992 6.10350E+01 4.00625E+00 0.00000E+00
 -1      1993 6.57045E+01 3.09687E+00 0.00000E+00
 -1      1994 6.42045E+01 3.09687E+00 0.00000E+00
 -1      1995 6.40350E+01 4.00625E+00 0.00000E+00
 -1      1996 6.87045E+01 3.09687E+00 0.00000E+00
 -1      1997 6.72045E+01 3.09687E+00 0.00000E+00
 -1      1998 6.70350E+01 4.00625E+00 0.00000E+00
 -1      1999 7.17045E+01 3.09687E+00 0.00000E+00
 -1      2000 7.02045E+01 3.09687E+00 0.00000E+00
 -1      2001 7.00350E+01 4.00625E+00 0.00000E+00
 -1      2002 7.47045E+01 3.09687E+00 0.00000E+00
 -1      2003 7.32045E+01 3.09687E+00 0.00000E+00
 -1      2004 7.30350E+01 4.00625E+00 0.00000E+00
 -1      2005 7.77045E+01 3.09687E+00 0.00000E+00
 -1      2006 7.62045E+01 3.09687E+00 0.00000E+00
 -1      2007 7.60350E+01 4.00625E+00 0.00000E+00
 -1      2008 8.07045E+01 3.09687E+00 0.00000E+00
 -1      2009 7.92045E+01 3.09687E+00 0.00000E+00
 -1      2010 7.90350E+01 4.00625E+00 0.00000E+00
 -1      2011 8.37045E+01 3.09687E+00 0.00000E+00
 -1      2012 8.22045E+01 3.09687E+00 0.00000E+00
 -1      2013 8.20350E+01 4.00625E+00 0.00000E+00
 -1      2014 8.67045E+01 3.09687E+00 0.00000E+00
 -1      2015 8.52045E+01 3.09687E+00 0.00000E+00
 -1      2016 8.50350E+01 4.00625E+00 0.00000E+00
 -1      2017 8.97045E+01 3.09687E+00 0.00000E+00
 -1      2018 8.82045E+01 3.09687E+00 0.00000E+00
 -1      2019 8.80350E+01 4.00625E+00 0.00000E+00
 -1      2020 9.27045E+01 3.09687E+00 0.00000E+00
 -1      2021 9.12045E+01 3.09687E+00 0.00000E+00
 -1      2022 9.10350E+01 4.00625E+00 0.00000E+00
 -1      2023 9.57045E+01 3.09687E+00 0.00000E+00
 -1      2024 9.42045E+01 3.09687E+00 0.00000E+00
 -1      2025 9.40350E+01 4.00625E+00 0.00000E+00
 -1      2026 9.87045E+01 3.09687E+00 0.00000E+00
 -1      2027 9.72045E+01 3.09687E+00 0.00000E+00
 -1      2028 9.70350E+01 4.00625E+00 0.00000E+00
 -1      2029 1.01704E+02 3.09687E+00 0.00000E+00
 -1      2030 1.00204E+02 3.09687E+00 0.00000E+00
 -1      2031 1.00035E+02 4.00625E+00 0.00000E+00
 -1      2032 1.04704E+02 3.09687E+00 0.00000E+00
 -1      2033 1.03204E+02 3.09687E+00 0.00000E+00
 -1      2034 1.03035E+02 4.00625E+00 0.00000E+00
 -1      2035 1.07704E+02 3.09687E+00 0.00000E+00
 -1      2036 1.06204E+02 3.09687E+00 0.00000E+00
 -1      2037 1.06035E+02 4.00625E+00 0.00000E+00
 -1      2038 1.10704E+02 3.09687E+00 0.00000E+00
 -1      2039 1.09204E+02 3.09687E+00 0.00000E+00
 -1      2040 1.09035E+02 4.00625E+00 0.00000E+00
 -1      2041 1.13704E+02 3.09687E+00 0.00000E+00
 -1      2042 1.12204E+02 3.09687E+00 0.00000E+00
 -1      2043 1.12035E+02 4.00625E+00 0.00000E+00
 -1      2044 1.16704E+02 3.09687E+00 0.00000E+00
 -1      2045 1.15204E+02 3.09687E+00 0.00000E+00
 -1      2046 1.15035E+02 4.00625E+00 0.00000E+00
 -1      2047 1.19704E+02 3.09687E+00 0.00000E+00
 -1      2048 1.18204E+02 3.09687E+00 0.00000E+00
 -1      2049 1.18035E+02 4.00625E+00 0.00000E+00
 -1      2050 1.22704E+02 3.09687E+00 0.00000E+00
 -1      2051 1.21204E+02 3.09687E+00 0.00000E+00
 -1      2052 1.21035E+02 4.00625E+00 0.00000E+00
 -1      2053 1.25704E+02 3.09687E+00 0.00000E+00
 -1      2054 1.24204E+02 3.09687E+00 0.00000E+00
 -1      2055 1.24035E+02 4.00625E+00 0.00000E+00
 -1      2056 1.28704E+02 3.09687E+00 0.00000E+00
 -1      2057 1.27204E+02 3.09687E+00 0.00000E+00
 -1      2058 1.27035E+02 4.00625E+00 0.00000E+00
 -1      2059 1.31704E+02 3.09687E+00 0.00000E+00
 -1      2060 1.30204E+02 3.09687E+00 0.00000E+00
 -1      2061 1.30035E+02 4.00625E+00 0.00000E+00
 -1      2062 1.34704E+02 3.09687E+00 0.00000E+00
 -1      2063 1.33204E+02 3.09687E+00 0.00000E+00
 -1      2064 1.33035E+02 4.00625E+00 0.00000E+00
 -1      2065 1.37704E+02 3.09687E+00 0.00000E+00
 -1      2066 1.36204E+02 3.09687E+00 0.00000E+00
 -1      2067 1.36035E+02 4.00625E+00 0.00000E+00
 -1      2068 1.40704E+02 3.09687E+00 0.00000E+00
 -1      2069 1.39204E+02 3.09687E+00 0.00000E+00
 -1      2070 1.39035E+02 4.00625E+00 0.00000E+00
 -1      2071 1.43704E+02 3.09687E+00 0.00000E+00
 -1      2072 1.42204E+02 3.09687E+00 0.00000E+00
 -1      2073 1.42035E+02 4.00625E+00 0.00000E+00
 -1      2074 1.46171E+02 3.20156E+00 0.00000E+00
 -1      2075 1.44671E+02 3.20156E+00 0.00000E+00
 -1      2076 1.44502E+02 4.11094E+00 0.00000E+00
 -1      2077 1.46435E+02 4.32031E+00 0.00000E+00
 -1      2078 1.46103E+02 1.25375E+01 0.00000E+00
 -1      2079 1.46103E+02 1.10625E+01 0.00000E+00
 -1      2080 1.46103E+02 9.58750E+00 0.00000E+00
 -1      2081 1.46103E+02 8.11250E+00 0.00000E+00
 -1      2082 1.44804E+02 1.03250E+01 0.00000E+00
 -1      2083 1.46269E+02 6.95391E+00 0.00000E+00
 -1      2084 1.46269E+02 5.47891E+00 0.00000E+00
 -1      2085 1.45302E+02 5.37422E+00 0.00000E+00
 -1      2086 1.44970E+02 7.69141E+00 0.00000E+00
 -1      2087 1.46103E+02 1.54375E+01 0.00000E+00
 -1      2088 1.46103E+02 1.39875E+01 0.00000E+00
 -1      2089 1.44804E+02 1.32500E+01 0.00000E+00
 -1      2090 1.46103E+02 1.83875E+01 0.00000E+00
 -1      2091 1.46103E+02 1.69125E+01 0.00000E+00
 -1      2092 1.44804E+02 1.61750E+01 0.00000E+00
 -1      2093 1.46103E+02 2.13375E+01 0.00000E+00
 -1      2094 1.46103E+02 1.98625E+01 0.00000E+00
 -1      2095 1.44804E+02 1.91250E+01 0.00000E+00
 -1      2096 1.46103E+02 2.42875E+01 0.00000E+00
 -1      2097 1.46103E+02 2.28125E+01 0.00000E+00
 -1      2098 1.44804E+02 2.20750E+01 0.00000E+00
 -1      2099 1.46103E+02 2.72375E+01 0.00000E+00
 -1      2100 1.46103E+02 2.57625E+01 0.00000E+00
 -1      2101 1.44804E+02 2.50250E+01 0.00000E+00
 -1      2102 1.46103E+02 3.01875E+01 0.00000E+00
 -1      2103 1.46103E+02 2.87125E+01 0.00000E+00
 -1      2104 1.44804E+02 2.79750E+01 0.00000E+00
 -1      2105 1.46103E+02 3.30875E+01 0.00000E+00
 -1      2106 1.46103E+02 3.16375E+01 0.00000E+00
 -1      2107 1.44804E+02 3.09000E+01 0.00000E+00
 -1      2108 1.46103E+02 3.60375E+01 0.00000E+00
 -1      2109 1.46103E+02 3.45625E+01 0.00000E+00
 -1      2110 1.44804E+02 3.38250E+01 0.00000E+00
 -1      2111 1.46103E+02 3.89875E+01 0.00000E+00
 -1      2112 1.46103E+02 3.75125E+01 0.00000E+00
 -1      2113 1.44804E+02 3.67750E+01 0.00000E+00
 -1      2114 1.46103E+02 4.19375E+01 0.00000E+00
 -1      2115 1.46103E+02 4.04625E+01 0.00000E+00
 -1      2116 1.44804E+02 3.97250E+01 0.00000E+00
 -1      2117 1.21391E+02 2.26186E+01 0.00000E+00
 -1      2118 1.21673E+02 2.34467E+01 0.00000E+00
 -1      2119 1.22232E+02 2.62123E+01 0.00000E+00
 -1      2120 1.22269E+02 2.71075E+01 0.00000E+00
 -1      2121 1.21851E+02 2.42839E+01 0.00000E+00
 -1      2122 1.22030E+02 2.51212E+01 0.00000E+00
 -1      2123 1.22482E+02 2.36068E+01 0.00000E+00
 -1      2124 1.20083E+02 2.10498E+01 0.00000E+00
 -1      2125 1.20669E+02 2.17077E+01 0.00000E+00
 -1      2126 1.18835E+02 1.97550E+01 0.00000E+00
 -1      2127 1.19473E+02 2.03214E+01 0.00000E+00
 -1      2128 3.89700E+00 3.74688E+01 0.00000E+00
 -1      2129 3.89700E+00 3.89437E+01 0.00000E+00
 -1      2130 5.19600E+00 3.96813E+01 0.00000E+00
 -1      2131 5.19600E+00 3.67438E+01 0.00000E+00
 -1      2132 1.15345E+02 1.79392E+01 0.00000E+00
 -1      2133 1.16245E+02 1.80849E+01 0.00000E+00
 -1      2134 1.13594E+02 1.76417E+01 0.00000E+00
 -1      2135 1.14470E+02 1.77905E+01 0.00000E+00
 -1      2136 1.15043E+02 1.70995E+01 0.00000E+00
 -1      2137 1.11513E+02 1.78931E+01 0.00000E+00
 -1      2138 1.12400E+02 1.76841E+01 0.00000E+00
 -1      2139 1.09761E+02 1.85704E+01 0.00000E+00
 -1      2140 1.10591E+02 1.82598E+01 0.00000E+00
 -1      2141 1.08077E+02 1.95393E+01 0.00000E+00
 -1      2142 1.08832E+02 1.90433E+01 0.00000E+00
 -1      2143 1.06516E+02 2.07371E+01 0.00000E+00
 -1      2144 1.07148E+02 2.00891E+01 0.00000E+00
 -1      2145 1.05427E+02 2.22053E+01 0.00000E+00
 -1      2146 1.05972E+02 2.14712E+01 0.00000E+00
 -1      2147 1.05674E+02 2.05484E+01 0.00000E+00
 -1      2148 1.04406E+02 2.42131E+01 0.00000E+00
 -1      2149 1.04621E+02 2.33280E+01 0.00000E+00
 -1      2150 1.04504E+02 2.61238E+01 0.00000E+00
 -1      2151 1.04601E+02 2.52586E+01 0.00000E+00
 -1      2152 1.04553E+02 2.80206E+01 0.00000E+00
 -1      2153 1.04460E+02 2.71413E+01 0.00000E+00
 -1      2154 1.04850E+02 2.99046E+01 0.00000E+00
 -1      2155 1.04639E+02 2.90120E+01 0.00000E+00
 -1      2156 1.05890E+02 3.16256E+01 0.00000E+00
 -1      2157 1.05408E+02 3.08948E+01 0.00000E+00
 -1      2158 1.07107E+02 3.30171E+01 0.00000E+00
 -1      2159 1.06497E+02 3.24255E+01 0.00000E+00
 -1      2160 1.08504E+02 3.42116E+01 0.00000E+00
 -1      2161 1.07798E+02 3.36690E+01 0.00000E+00
 -1      2162 1.10312E+02 3.50042E+01 0.00000E+00
 -1      2163 1.09482E+02 3.47022E+01 0.00000E+00
 -1      2164 1.12103E+02 3.54330E+01 0.00000E+00
 -1      2165 1.11247E+02 3.52367E+01 0.00000E+00
 -1      2166 1.14037E+02 3.56830E+01 0.00000E+00
 -1      2167 1.13126E+02 3.56764E+01 0.00000E+00
 -1      2168 1.16065E+02 3.52751E+01 0.00000E+00
 -1      2169 1.15183E+02 3.55522E+01 0.00000E+00
 -1      2170 1.17837E+02 3.44417E+01 0.00000E+00
 -1      2171 1.17071E+02 3.48819E+01 0.00000E+00
 -1      2172 1.19269E+02 3.32607E+01 0.00000E+00
 -1      2173 1.18614E+02 3.38031E+01 0.00000E+00
 -1      2174 1.20489E+02 3.18190E+01 0.00000E+00
 -1      2175 1.19949E+02 3.25040E+01 0.00000E+00
 -1      2176 1.21436E+02 3.02328E+01 0.00000E+00
 -1      2177 1.20963E+02 3.10259E+01 0.00000E+00
 -1      2178 1.21267E+02 3.18218E+01 0.00000E+00
 -1      2179 1.22025E+02 2.81684E+01 0.00000E+00
 -1      2180 1.21855E+02 2.90925E+01 0.00000E+00
 -1      2181 1.17377E+02 1.86575E+01 0.00000E+00
 -1      2182 1.18106E+02 1.92062E+01 0.00000E+00
 -1      2183 1.18911E+02 1.89422E+01 0.00000E+00
 -1      2184 6.42300E+00 4.57510E+01 0.00000E+00
 -1      2185 1.16723E+02 1.69842E+01 0.00000E+00
 -1      2186 1.17050E+02 1.78209E+01 0.00000E+00
 -1      2187 1.17855E+02 1.75568E+01 0.00000E+00
 -1      2188 7.17300E+00 4.44520E+01 0.00000E+00
 -1      2189 1.22863E+02 2.55351E+01 0.00000E+00
 -1      2190 1.21582E+02 2.18587E+01 0.00000E+00
 -1      2191 1.45665E+02 4.31193E+01 0.00000E+00
 -1      2192 1.22822E+02 2.76871E+01 0.00000E+00
 -1      2193 1.20250E+02 2.02193E+01 0.00000E+00
 -1      2194 1.22159E+02 2.98883E+01 0.00000E+00
 -1      2195 1.22463E+02 3.06842E+01 0.00000E+00
 -1      2196 1.22882E+02 2.95438E+01 0.00000E+00
 -1      2197 1.20114E+02 3.33715E+01 0.00000E+00
 -1      2198 1.18658E+02 3.47667E+01 0.00000E+00
 -1      2199 1.16875E+02 3.57985E+01 0.00000E+00
 -1      2200 1.14722E+02 3.63226E+01 0.00000E+00
 -1      2201 1.12553E+02 3.62100E+01 0.00000E+00
 -1      2202 1.10596E+02 3.57341E+01 0.00000E+00
 -1      2203 1.08683E+02 3.50110E+01 0.00000E+00
 -1      2204 1.07013E+02 3.38685E+01 0.00000E+00
 -1      2205 1.05715E+02 3.24167E+01 0.00000E+00
 -1      2206 1.04550E+02 3.06267E+01 0.00000E+00
 -1      2207 1.03906E+02 2.86452E+01 0.00000E+00
 -1      2208 1.03865E+02 2.66364E+01 0.00000E+00
 -1      2209 1.04324E+02 2.24052E+01 0.00000E+00
 -1      2210 1.07147E+02 1.92645E+01 0.00000E+00
 -1      2211 1.09005E+02 1.82418E+01 0.00000E+00
 -1      2212 1.12974E+02 1.69931E+01 0.00000E+00
 -1      2213 1.10857E+02 1.74022E+01 0.00000E+00
 -1      2214 1.03713E+02 2.45733E+01 0.00000E+00
 -1      2215 1.07850E+01 5.30525E+00 0.00000E+00
 -1      2216 9.28500E+00 5.30525E+00 0.00000E+00
 -1      2217 6.49500E+00 3.01125E+01 0.00000E+00
 -1      2218 6.49500E+00 3.15875E+01 0.00000E+00
 -1      2219 6.49500E+00 3.30625E+01 0.00000E+00
 -1      2220 6.49500E+00 3.45375E+01 0.00000E+00
 -1      2221 7.79400E+00 3.23250E+01 0.00000E+00
 -1      2222 6.49500E+00 2.42125E+01 0.00000E+00
 -1      2223 6.49500E+00 2.56875E+01 0.00000E+00
 -1      2224 6.49500E+00 2.12625E+01 0.00000E+00
 -1      2225 6.49500E+00 2.27375E+01 0.00000E+00
 -1      2226 7.79400E+00 2.34750E+01 0.00000E+00
 -1      2227 6.49500E+00 1.83625E+01 0.00000E+00
 -1      2228 6.49500E+00 1.98125E+01 0.00000E+00
 -1      2229 7.79400E+00 2.05500E+01 0.00000E+00
 -1      2230 6.49500E+00 1.54125E+01 0.00000E+00
 -1      2231 6.49500E+00 1.68875E+01 0.00000E+00
 -1      2232 7.79400E+00 1.76250E+01 0.00000E+00
 -1      2233 6.49500E+00 1.24625E+01 0.00000E+00
 -1      2234 6.49500E+00 1.39375E+01 0.00000E+00
 -1      2235 7.79400E+00 1.46750E+01 0.00000E+00
 -1      2236 6.49500E+00 9.51250E+00 0.00000E+00
 -1      2237 6.49500E+00 1.09875E+01 0.00000E+00
 -1      2238 7.79400E+00 1.17250E+01 0.00000E+00
 -1      2239 1.23564E+02 2.48407E+01 0.00000E+00
 -1      2240 1.23767E+02 2.59318E+01 0.00000E+00
 -1      2241 1.37850E+01 5.30525E+00 0.00000E+00
 -1      2242 1.22850E+01 5.30525E+00 0.00000E+00
 -1      2243 1.15350E+01 6.60425E+00 0.00000E+00
 -1      2244 9.90000E+00 4.35050E+01 0.00000E+00
 -1      2245 1.14000E+01 4.35050E+01 0.00000E+00
 -1      2246 1.29000E+01 4.35050E+01 0.00000E+00
 -1      2247 1.44000E+01 4.35050E+01 0.00000E+00
 -1      2248 1.21500E+01 4.22060E+01 0.00000E+00
 -1      2249 1.59000E+01 4.35050E+01 0.00000E+00
 -1      2250 1.74000E+01 4.35050E+01 0.00000E+00
 -1      2251 1.51500E+01 4.22060E+01 0.00000E+00
 -1      2252 1.89000E+01 4.35050E+01 0.00000E+00
 -1      2253 2.04000E+01 4.35050E+01 0.00000E+00
 -1      2254 1.81500E+01 4.22060E+01 0.00000E+00
 -1      2255 2.19000E+01 4.35050E+01 0.00000E+00
 -1      2256 2.34000E+01 4.35050E+01 0.00000E+00
 -1      2257 2.11500E+01 4.22060E+01 0.00000E+00
 -1      2258 2.49000E+01 4.35050E+01 0.00000E+00
 -1      2259 2.64000E+01 4.35050E+01 0.00000E+00
 -1      2260 2.41500E+01 4.22060E+01 0.00000E+00
 -1      2261 2.79000E+01 4.35050E+01 0.00000E+00
 -1      2262 2.94000E+01 4.35050E+01 0.00000E+00
 -1      2263 2.71500E+01 4.22060E+01 0.00000E+00
 -1      2264 3.09000E+01 4.35050E+01 0.00000E+00
 -1      2265 3.24000E+01 4.35050E+01 0.00000E+00
 -1      2266 3.01500E+01 4.22060E+01 0.00000E+00
 -1      2267 3.39000E+01 4.35050E+01 0.00000E+00
 -1      2268 3.54000E+01 4.35050E+01 0.00000E+00
 -1      2269 3.31500E+01 4.22060E+01 0.00000E+00
 -1      2270 3.69000E+01 4.35050E+01 0.00000E+00
 -1      2271 3.84000E+01 4.35050E+01 0.00000E+00
 -1      2272 3.61500E+01 4.22060E+01 0.00000E+00
 -1      2273 3.99000E+01 4.35050E+01 0.00000E+00
 -1      2274 4.14000E+01 4.35050E+01 0.00000E+00
 -1      2275 3.91500E+01 4.22060E+01 0.00000E+00
 -1      2276 4.29000E+01 4.35050E+01 0.00000E+00
 -1      2277 4.44000E+01 4.35050E+01 0.00000E+00
 -1      2278 4.21500E+01 4.22060E+01 0.00000E+00
 -1      2279 4.59000E+01 4.35050E+01 0.00000E+00
 -1      2280 4.74000E+01 4.35050E+01 0.00000E+00
 -1      2281 4.51500E+01 4.22060E+01 0.00000E+00
 -1      2282 4.89000E+01 4.35050E+01 0.00000E+00
 -1      2283 5.04000E+01 4.35050E+01 0.00000E+00
 -1      2284 4.81500E+01 4.22060E+01 0.00000E+00
 -1      2285 5.19000E+01 4.35050E+01 0.00000E+00
 -1      2286 5.34000E+01 4.35050E+01 0.00000E+00
 -1      2287 5.11500E+01 4.22060E+01 0.00000E+00
 -1      2288 5.49000E+01 4.35050E+01 0.00000E+00
 -1      2289 5.64000E+01 4.35050E+01 0.00000E+00
 -1      2290 5.41500E+01 4.22060E+01 0.00000E+00
 -1      2291 5.79000E+01 4.35050E+01 0.00000E+00
 -1      2292 5.94000E+01 4.35050E+01 0.00000E+00
 -1      2293 5.71500E+01 4.22060E+01 0.00000E+00
 -1      2294 6.09000E+01 4.35050E+01 0.00000E+00
 -1      2295 6.24000E+01 4.35050E+01 0.00000E+00
 -1      2296 6.01500E+01 4.22060E+01 0.00000E+00
 -1      2297 6.39000E+01 4.35050E+01 0.00000E+00
 -1      2298 6.54000E+01 4.35050E+01 0.00000E+00
 -1      2299 6.31500E+01 4.22060E+01 0.00000E+00
 -1      2300 6.69000E+01 4.35050E+01 0.00000E+00
 -1      2301 6.84000E+01 4.35050E+01 0.00000E+00
 -1      2302 6.61500E+01 4.22060E+01 0.00000E+00
 -1      2303 6.99000E+01 4.35050E+01 0.00000E+00
 -1      2304 7.14000E+01 4.35050E+01 0.00000E+00
 -1      2305 6.91500E+01 4.22060E+01 0.00000E+00
 -1      2306 7.29000E+01 4.35050E+01 0.00000E+00
 -1      2307 7.44000E+01 4.35050E+01 0.00000E+00
 -1      2308 7.21500E+01 4.22060E+01 0.00000E+00
 -1      2309 7.59000E+01 4.35050E+01 0.00000E+00
 -1      2310 7.74000E+01 4.35050E+01 0.00000E+00
 -1      2311 7.51500E+01 4.22060E+01 0.00000E+00
 -1      2312 7.89000E+01 4.35050E+01 0.00000E+00
 -1      2313 8.04000E+01 4.35050E+01 0.00000E+00
 -1      2314 7.81500E+01 4.22060E+01 0.00000E+00
 -1      2315 8.19000E+01 4.35050E+01 0.00000E+00
 -1      2316 8.34000E+01 4.35050E+01 0.00000E+00
 -1      2317 8.11500E+01 4.22060E+01 0.00000E+00
 -1      2318 8.49000E+01 4.35050E+01 0.00000E+00
 -1      2319 8.64000E+01 4.35050E+01 0.00000E+00
 -1      2320 8.41500E+01 4.22060E+01 0.00000E+00
 -1      2321 8.79000E+01 4.35050E+01 0.00000E+00
 -1      2322 8.94000E+01 4.35050E+01 0.00000E+00
 -1      2323 8.71500E+01 4.22060E+01 0.00000E+00
 -1      2324 9.09000E+01 4.35050E+01 0.00000E+00
 -1      2325 9.24000E+01 4.35050E+01 0.00000E+00
 -1      2326 9.01500E+01 4.22060E+01 0.00000E+00
 -1      2327 9.39000E+01 4.35050E+01 0.00000E+00
 -1      2328 9.54000E+01 4.35050E+01 0.00000E+00
 -1      2329 9.31500E+01 4.22060E+01 0.00000E+00
 -1      2330 9.69000E+01 4.35050E+01 0.00000E+00
 -1      2331 9.84000E+01 4.35050E+01 0.00000E+00
 -1      2332 9.61500E+01 4.22060E+01 0.00000E+00
 -1      2333 9.99000E+01 4.35050E+01 0.00000E+00
 -1      2334 1.01400E+02 4.35050E+01 0.00000E+00
 -1      2335 9.91500E+01 4.22060E+01 0.00000E+00
 -1      2336 1.02900E+02 4.35050E+01 0.00000E+00
 -1      2337 1.04400E+02 4.35050E+01 0.00000E+00
 -1      2338 1.02150E+02 4.22060E+01 0.00000E+00
 -1      2339 1.05900E+02 4.35050E+01 0.00000E+00
 -1      2340 1.07400E+02 4.35050E+01 0.00000E+00
 -1      2341 1.05150E+02 4.22060E+01 0.00000E+00
 -1      2342 1.08900E+02 4.35050E+01 0.00000E+00
 -1      2343 1.10400E+02 4.35050E+01 0.00000E+00
 -1      2344 1.08150E+02 4.22060E+01 0.00000E+00
 -1      2345 1.11900E+02 4.35050E+01 0.00000E+00
 -1      2346 1.13400E+02 4.35050E+01 0.00000E+00
 -1      2347 1.11150E+02 4.22060E+01 0.00000E+00
 -1      2348 1.14900E+02 4.35050E+01 0.00000E+00
 -1      2349 1.16400E+02 4.35050E+01 0.00000E+00
 -1      2350 1.14150E+02 4.22060E+01 0.00000E+00
 -1      2351 1.17900E+02 4.35050E+01 0.00000E+00
 -1      2352 1.19400E+02 4.35050E+01 0.00000E+00
 -1      2353 1.17150E+02 4.22060E+01 0.00000E+00
 -1      2354 1.20900E+02 4.35050E+01 0.00000E+00
 -1      2355 1.22400E+02 4.35050E+01 0.00000E+00
 -1      2356 1.20150E+02 4.22060E+01 0.00000E+00
 -1      2357 1.23900E+02 4.35050E+01 0.00000E+00
 -1      2358 1.25400E+02 4.35050E+01 0.00000E+00
 -1      2359 1.23150E+02 4.22060E+01 0.00000E+00
 -1      2360 1.26900E+02 4.35050E+01 0.00000E+00
 -1      2361 1.28400E+02 4.35050E+01 0.00000E+00
 -1      2362 1.26150E+02 4.22060E+01 0.00000E+00
 -1      2363 1.29900E+02 4.35050E+01 0.00000E+00
 -1      2364 1.31400E+02 4.35050E+01 0.00000E+00
 -1      2365 1.29150E+02 4.22060E+01 0.00000E+00
 -1      2366 1.32900E+02 4.35050E+01 0.00000E+00
 -1      2367 1.34400E+02 4.35050E+01 0.00000E+00
 -1      2368 1.32150E+02 4.22060E+01 0.00000E+00
 -1      2369 1.35900E+02 4.35050E+01 0.00000E+00
 -1      2370 1.37400E+02 4.35050E+01 0.00000E+00
 -1      2371 1.35150E+02 4.22060E+01 0.00000E+00
 -1      2372 1.38900E+02 4.35050E+01 0.00000E+00
 -1      2373 1.40400E+02 4.35050E+01 0.00000E+00
 -1      2374 1.38150E+02 4.22060E+01 0.00000E+00
 -1      2375 1.23207E+02 2.31663E+01 0.00000E+00
 -1      2376 1.23386E+02 2.40035E+01 0.00000E+00
 -1      2377 1.24289E+02 2.44002E+01 0.00000E+00
 -1      2378 1.97850E+01 5.30525E+00 0.00000E+00
 -1      2379 1.82850E+01 5.30525E+00 0.00000E+00
 -1      2380 2.27850E+01 5.30525E+00 0.00000E+00
 -1      2381 2.12850E+01 5.30525E+00 0.00000E+00
 -1      2382 2.05350E+01 6.60425E+00 0.00000E+00
 -1      2383 2.57850E+01 5.30525E+00 0.00000E+00
 -1      2384 2.42850E+01 5.30525E+00 0.00000E+00
 -1      2385 2.35350E+01 6.60425E+00 0.00000E+00
 -1      2386 2.87850E+01 5.30525E+00 0.00000E+00
 -1      2387 2.72850E+01 5.30525E+00 0.00000E+00
 -1      2388 2.65350E+01 6.60425E+00 0.00000E+00
 -1      2389 3.17850E+01 5.30525E+00 0.00000E+00
 -1      2390 3.02850E+01 5.30525E+00 0.00000E+00
 -1      2391 2.95350E+01 6.60425E+00 0.00000E+00
 -1      2392 3.47850E+01 5.30525E+00 0.00000E+00
 -1      2393 3.32850E+01 5.30525E+00 0.00000E+00
 -1      2394 3.25350E+01 6.60425E+00 0.00000E+00
 -1      2395 3.77850E+01 5.30525E+00 0.00000E+00
 -1      2396 3.62850E+01 5.30525E+00 0.00000E+00
 -1      2397 3.55350E+01 6.60425E+00 0.00000E+00
 -1      2398 4.07850E+01 5.30525E+00 0.00000E+00
 -1      2399 3.92850E+01 5.30525E+00 0.00000E+00
 -1      2400 3.85350E+01 6.60425E+00 0.00000E+00
 -1      2401 4.37850E+01 5.30525E+00 0.00000E+00
 -1      2402 4.22850E+01 5.30525E+00 0.00000E+00
 -1      2403 4.15350E+01 6.60425E+00 0.00000E+00
 -1      2404 4.67850E+01 5.30525E+00 0.00000E+00
 -1      2405 4.52850E+01 5.30525E+00 0.00000E+00
 -1      2406 4.45350E+01 6.60425E+00 0.00000E+00
 -1      2407 4.97850E+01 5.30525E+00 0.00000E+00
 -1      2408 4.82850E+01 5.30525E+00 0.00000E+00
 -1      2409 4.75350E+01 6.60425E+00 0.00000E+00
 -1      2410 5.27850E+01 5.30525E+00 0.00000E+00
 -1      2411 5.12850E+01 5.30525E+00 0.00000E+00
 -1      2412 5.05350E+01 6.60425E+00 0.00000E+00
 -1      2413 5.57850E+01 5.30525E+00 0.00000E+00
 -1      2414 5.42850E+01 5.30525E+00 0.00000E+00
 -1      2415 5.35350E+01 6.60425E+00 0.00000E+00
 -1      2416 5.87850E+01 5.30525E+00 0.00000E+00
 -1      2417 5.72850E+01 5.30525E+00 0.00000E+00
 -1      2418 5.65350E+01 6.60425E+00 0.00000E+00
 -1      2419 6.17850E+01 5.30525E+00 0.00000E+00
 -1      2420 6.02850E+01 5.30525E+00 0.00000E+00
 -1      2421 5.95350E+01 6.60425E+00 0.00000E+00
 -1      2422 6.47850E+01 5.30525E+00 0.00000E+00
 -1      2423 6.32850E+01 5.30525E+00 0.00000E+00
 -1      2424 6.25350E+01 6.60425E+00 0.00000E+00
 -1      2425 6.77850E+01 5.30525E+00 0.00000E+00
 -1      2426 6.62850E+01 5.30525E+00 0.00000E+00
 -1      2427 6.55350E+01 6.60425E+00 0.00000E+00
 -1      2428 7.07850E+01 5.30525E+00 0.00000E+00
 -1      2429 6.92850E+01 5.30525E+00 0.00000E+00
 -1      2430 6.85350E+01 6.60425E+00 0.00000E+00
 -1      2431 7.37850E+01 5.30525E+00 0.00000E+00
 -1      2432 7.22850E+01 5.30525E+00 0.00000E+00
 -1      2433 7.15350E+01 6.60425E+00 0.00000E+00
 -1      2434 7.67850E+01 5.30525E+00 0.00000E+00
 -1      2435 7.52850E+01 5.30525E+00 0.00000E+00
 -1      2436 7.45350E+01 6.60425E+00 0.00000E+00
 -1      2437 7.97850E+01 5.30525E+00 0.00000E+00
 -1      2438 7.82850E+01 5.30525E+00 0.00000E+00
 -1      2439 7.75350E+01 6.60425E+00 0.00000E+00
 -1      2440 8.27850E+01 5.30525E+00 0.00000E+00
 -1      2441 8.12850E+01 5.30525E+00 0.00000E+00
 -1      2442 8.05350E+01 6.60425E+00 0.00000E+00
 -1      2443 8.57850E+01 5.30525E+00 0.00000E+00
 -1      2444 8.42850E+01 5.30525E+00 0.00000E+00
 -1      2445 8.35350E+01 6.60425E+00 0.00000E+00
 -1      2446 8.87850E+01 5.30525E+00 0.00000E+00
 -1      2447 8.72850E+01 5.30525E+00 0.00000E+00
 -1      2448 8.65350E+01 6.60425E+00 0.00000E+00
 -1      2449 9.17850E+01 5.30525E+00 0.00000E+00
 -1      2450 9.02850E+01 5.30525E+00 0.00000E+00
 -1      2451 8.95350E+01 6.60425E+00 0.00000E+00
 -1      2452 9.47850E+01 5.30525E+00 0.00000E+00
 -1      2453 9.32850E+01 5.30525E+00 0.00000E+00
 -1      2454 9.25350E+01 6.60425E+00 0.00000E+00
 -1      2455 9.77850E+01 5.30525E+00 0.00000E+00
 -1      2456 9.62850E+01 5.30525E+00 0.00000E+00
 -1      2457 9.55350E+01 6.60425E+00 0.00000E+00
 -1      2458 1.00785E+02 5.30525E+00 0.00000E+00
 -1      2459 9.92850E+01 5.30525E+00 0.00000E+00
 -1      2460 9.85350E+01 6.60425E+00 0.00000E+00
 -1      2461 1.03785E+02 5.30525E+00 0.00000E+00
 -1      2462 1.02285E+02 5.30525E+00 0.00000E+00
 -1      2463 1.01535E+02 6.60425E+00 0.00000E+00
 -1      2464 1.06785E+02 5.30525E+00 0.00000E+00
 -1      2465 1.05285E+02 5.30525E+00 0.00000E+00
 -1      2466 1.04535E+02 6.60425E+00 0.00000E+00
 -1      2467 1.09785E+02 5.30525E+00 0.00000E+00
 -1      2468 1.08285E+02 5.30525E+00 0.00000E+00
 -1      2469 1.07535E+02 6.60425E+00 0.00000E+00
 -1      2470 1.12785E+02 5.30525E+00 0.00000E+00
 -1      2471 1.11285E+02 5.30525E+00 0.00000E+00
 -1      2472 1.10535E+02 6.60425E+00 0.00000E+00
 -1      2473 1.15785E+02 5.30525E+00 0.00000E+00
 -1      2474 1.14285E+02 5.30525E+00 0.00000E+00
 -1      2475 1.13535E+02 6.60425E+00 0.00000E+00
 -1      2476 1.18785E+02 5.30525E+00 0.00000E+00
 -1      2477 1.17285E+02 5.30525E+00 0.00000E+00
 -1      2478 1.16535E+02 6.60425E+00 0.00000E+00
 -1      2479 1.21785E+02 5.30525E+00 0.00000E+00
 -1      2480 1.20285E+02 5.30525E+00 0.00000E+00
 -1      2481 1.19535E+02 6.60425E+00 0.00000E+00
 -1      2482 1.24785E+02 5.30525E+00 0.00000E+00
 -1      2483 1.23285E+02 5.30525E+00 0.00000E+00
 -1      2484 1.22535E+02 6.60425E+00 0.00000E+00
 -1      2485 1.27785E+02 5.30525E+00 0.00000E+00
 -1      2486 1.26285E+02 5.30525E+00 0.00000E+00
 -1      2487 1.25535E+02 6.60425E+00 0.00000E+00
 -1      2488 1.30785E+02 5.30525E+00 0.00000E+00
 -1      2489 1.29285E+02 5.30525E+00 0.00000E+00
 -1      2490 1.28535E+02 6.60425E+00 0.00000E+00
 -1      2491 1.33785E+02 5.30525E+00 0.00000E+00
 -1      2492 1.32285E+02 5.30525E+00 0.00000E+00
 -1      2493 1.31535E+02 6.60425E+00 0.00000E+00
 -1      2494 1.36785E+02 5.30525E+00 0.00000E+00
 -1      2495 1.35285E+02 5.30525E+00 0.00000E+00
 -1      2496 1.34535E+02 6.60425E+00 0.00000E+00
 -1      2497 1.39785E+02 5.30525E+00 0.00000E+00
 -1      2498 1.38285E+02 5.30525E+00 0.00000E+00
 -1      2499 1.37535E+02 6.60425E+00 0.00000E+00
 -1      2500 1.42785E+02 5.30525E+00 0.00000E+00
 -1      2501 1.41285E+02 5.30525E+00 0.00000E+00
 -1      2502 1.40535E+02 6.60425E+00 0.00000E+00
 -1      2503 1.44336E+02 5.26953E+00 0.00000E+00
 -1      2504 1.43505E+02 1.69125E+01 0.00000E+00
 -1      2505 1.43505E+02 1.54375E+01 0.00000E+00
 -1      2506 1.43505E+02 1.98625E+01 0.00000E+00
 -1      2507 1.43505E+02 1.83875E+01 0.00000E+00
 -1      2508 1.42206E+02 1.76500E+01 0.00000E+00
 -1      2509 1.43505E+02 1.10625E+01 0.00000E+00
 -1      2510 1.43505E+02 9.58750E+00 0.00000E+00
 -1      2511 1.43505E+02 1.39750E+01 0.00000E+00
 -1      2512 1.43505E+02 1.25250E+01 0.00000E+00
 -1      2513 1.42206E+02 1.17875E+01 0.00000E+00
 -1      2514 1.42206E+02 1.47125E+01 0.00000E+00
 -1      2515 1.43505E+02 2.28125E+01 0.00000E+00
 -1      2516 1.43505E+02 2.13375E+01 0.00000E+00
 -1      2517 1.42206E+02 2.06000E+01 0.00000E+00
 -1      2518 1.43505E+02 2.57625E+01 0.00000E+00
 -1      2519 1.43505E+02 2.42875E+01 0.00000E+00
 -1      2520 1.42206E+02 2.35500E+01 0.00000E+00
 -1      2521 1.43505E+02 2.87125E+01 0.00000E+00
 -1      2522 1.43505E+02 2.72375E+01 0.00000E+00
 -1      2523 1.42206E+02 2.65000E+01 0.00000E+00
 -1      2524 1.43505E+02 3.16125E+01 0.00000E+00
 -1      2525 1.43505E+02 3.01625E+01 0.00000E+00
 -1      2526 1.42206E+02 2.94250E+01 0.00000E+00
 -1      2527 1.43505E+02 3.45625E+01 0.00000E+00
 -1      2528 1.43505E+02 3.30875E+01 0.00000E+00
 -1      2529 1.42206E+02 3.23500E+01 0.00000E+00
 -1      2530 1.43505E+02 3.75125E+01 0.00000E+00
 -1      2531 1.43505E+02 3.60375E+01 0.00000E+00
 -1      2532 1.42206E+02 3.53000E+01 0.00000E+00
 -1      2533 1.43505E+02 4.04625E+01 0.00000E+00
 -1      2534 1.43505E+02 3.89875E+01 0.00000E+00
 -1      2535 1.42206E+02 3.82500E+01 0.00000E+00
 -1      2536 1.44321E+02 4.30606E+01 0.00000E+00
 -1      2537 1.23657E+02 2.73209E+01 0.00000E+00
 -1      2538 1.23413E+02 2.83818E+01 0.00000E+00
 -1      2539 1.67850E+01 5.30525E+00 0.00000E+00
 -1      2540 1.52850E+01 5.30525E+00 0.00000E+00
 -1      2541 1.75350E+01 6.60425E+00 0.00000E+00
 -1      2542 1.21794E+02 2.09486E+01 0.00000E+00
 -1      2543 1.22516E+02 2.18595E+01 0.00000E+00
 -1      2544 6.55950E+00 4.28890E+01 0.00000E+00
 -1      2545 8.53650E+00 4.32410E+01 0.00000E+00
 -1      2546 9.28650E+00 4.19420E+01 0.00000E+00
 -1      2547 6.55950E+00 4.14140E+01 0.00000E+00
 -1      2548 1.21061E+02 3.35382E+01 0.00000E+00
 -1      2549 1.20381E+02 3.42948E+01 0.00000E+00
 -1      2550 1.06203E+02 1.87294E+01 0.00000E+00
 -1      2551 1.07131E+02 1.81795E+01 0.00000E+00
 -1      2552 6.49500E+00 2.71625E+01 0.00000E+00
 -1      2553 6.49500E+00 2.86375E+01 0.00000E+00
 -1      2554 7.79400E+00 2.93750E+01 0.00000E+00
 -1      2555 7.79400E+00 2.64250E+01 0.00000E+00
 -1      2556 1.10079E+02 1.67887E+01 0.00000E+00
 -1      2557 1.11001E+02 1.64219E+01 0.00000E+00
 -1      2558 1.14750E+02 1.61797E+01 0.00000E+00
 -1      2559 1.15625E+02 1.63284E+01 0.00000E+00
 -1      2560 1.02968E+02 2.52537E+01 0.00000E+00
 -1      2561 1.02772E+02 2.42082E+01 0.00000E+00
 -1      2562 1.12348E+02 1.61991E+01 0.00000E+00
 -1      2563 1.13542E+02 1.61568E+01 0.00000E+00
 -1      2564 1.08061E+02 1.77067E+01 0.00000E+00
 -1      2565 1.08990E+02 1.72339E+01 0.00000E+00
 -1      2566 1.07117E+02 1.71717E+01 0.00000E+00
 -1      2567 1.04713E+02 2.04047E+01 0.00000E+00
 -1      2568 1.05257E+02 1.96706E+01 0.00000E+00
 -1      2569 1.03101E+02 2.26500E+01 0.00000E+00
 -1      2570 1.03907E+02 2.15273E+01 0.00000E+00
 -1      2571 1.03490E+02 2.06495E+01 0.00000E+00
 -1      2572 1.02880E+02 2.72887E+01 0.00000E+00
 -1      2573 1.02924E+02 2.62712E+01 0.00000E+00
 -1      2574 1.01983E+02 2.59060E+01 0.00000E+00
 -1      2575 1.03051E+02 2.92714E+01 0.00000E+00
 -1      2576 1.02965E+02 2.82800E+01 0.00000E+00
 -1      2577 1.02025E+02 2.79149E+01 0.00000E+00
 -1      2578 1.04118E+02 3.15223E+01 0.00000E+00
 -1      2579 1.03560E+02 3.05322E+01 0.00000E+00
 -1      2580 1.05335E+02 3.33348E+01 0.00000E+00
 -1      2581 1.04728E+02 3.25349E+01 0.00000E+00
 -1      2582 1.06718E+02 3.46386E+01 0.00000E+00
 -1      2583 1.06026E+02 3.39867E+01 0.00000E+00
 -1      2584 1.05040E+02 3.41049E+01 0.00000E+00
 -1      2585 1.08750E+02 3.60977E+01 0.00000E+00
 -1      2586 1.07772E+02 3.56072E+01 0.00000E+00
 -1      2587 1.10896E+02 3.65199E+01 0.00000E+00
 -1      2588 1.09962E+02 3.62874E+01 0.00000E+00
 -1      2589 1.12876E+02 3.71252E+01 0.00000E+00
 -1      2590 1.11853E+02 3.68818E+01 0.00000E+00
 -1      2591 1.15388E+02 3.70676E+01 0.00000E+00
 -1      2592 1.14242E+02 3.71984E+01 0.00000E+00
 -1      2593 1.17721E+02 3.64787E+01 0.00000E+00
 -1      2594 1.16714E+02 3.68719E+01 0.00000E+00
 -1      2595 1.19564E+02 3.50775E+01 0.00000E+00
 -1      2596 1.18787E+02 3.57161E+01 0.00000E+00
 -1      2597 1.22204E+02 3.18434E+01 0.00000E+00
 -1      2598 1.21731E+02 3.26364E+01 0.00000E+00
 -1      2599 1.20538E+02 1.93584E+01 0.00000E+00
 -1      2600 1.21148E+02 2.00868E+01 0.00000E+00
 -1      2601 1.19062E+02 1.79826E+01 0.00000E+00
 -1      2602 1.19791E+02 1.85313E+01 0.00000E+00
 -1      2603 8.07525E+00 5.11044E+00 0.00000E+00
 -1      2604 6.57525E+00 5.11044E+00 0.00000E+00
 -1      2605 6.40575E+00 6.01981E+00 0.00000E+00
 -1      2606 8.82525E+00 6.40944E+00 0.00000E+00
 -1      2607 1.11569E+02 1.55856E+01 0.00000E+00
 -1      2608 7.79400E+00 3.52687E+01 0.00000E+00
 -1      2609 6.49500E+00 3.60062E+01 0.00000E+00
 -1      2610 6.49500E+00 3.74750E+01 0.00000E+00
 -1      2611 1.25058E+02 2.59321E+01 0.00000E+00
 -1      2612 1.24358E+02 2.66265E+01 0.00000E+00
 -1      2613 1.24949E+02 2.73212E+01 0.00000E+00
 -1      2614 1.23632E+02 2.13461E+01 0.00000E+00
 -1      2615 1.23420E+02 2.22562E+01 0.00000E+00
 -1      2616 1.24323E+02 2.26529E+01 0.00000E+00
 -1      2617 6.40575E+00 7.49481E+00 0.00000E+00
 -1      2618 1.16430E+02 1.60644E+01 0.00000E+00
 -1      2619 1.21998E+02 3.35598E+01 0.00000E+00
 -1      2620 1.18735E+02 1.71459E+01 0.00000E+00
 -1      2621 1.24552E+02 2.88115E+01 0.00000E+00
 -1      2622 1.23717E+02 2.91776E+01 0.00000E+00
 -1      2623 1.24021E+02 2.99735E+01 0.00000E+00
 -1      2624 7.70475E+00 8.23231E+00 0.00000E+00
 -1      2625 1.43586E+02 6.56853E+00 0.00000E+00
 -1      2626 6.55950E+00 3.99453E+01 0.00000E+00
 -1      2627 1.43419E+02 7.72713E+00 0.00000E+00
 -1      2628 1.42758E+02 4.35929E+01 0.00000E+00
 -1      2629 1.43241E+02 4.17323E+01 0.00000E+00
 -1      2630 1.41942E+02 4.09948E+01 0.00000E+00
 -1      2631 1.41414E+02 4.35342E+01 0.00000E+00
 -1      2632 1.20689E+02 1.83988E+01 0.00000E+00
 -1      2633 1.22927E+02 3.14989E+01 0.00000E+00
 -1      2634 1.45350E+01 6.60425E+00 0.00000E+00
 -1      2635 1.22083E+02 2.00876E+01 0.00000E+00
 -1      2636 1.20511E+02 3.52442E+01 0.00000E+00
 -1      2637 1.05242E+02 1.85857E+01 0.00000E+00
 -1      2638 1.18627E+02 3.67895E+01 0.00000E+00
 -1      2639 1.16234E+02 3.77477E+01 0.00000E+00
 -1      2640 1.13541E+02 3.78702E+01 0.00000E+00
 -1      2641 1.11219E+02 3.74351E+01 0.00000E+00
 -1      2642 1.06785E+02 3.57254E+01 0.00000E+00
 -1      2643 1.02356E+02 2.33303E+01 0.00000E+00
 -1      2644 1.01939E+02 2.24525E+01 0.00000E+00
 -1      2645 1.01610E+02 2.40107E+01 0.00000E+00
 -1      2646 1.14123E+02 1.53857E+01 0.00000E+00
 -1      2647 1.42120E+02 8.46463E+00 0.00000E+00
 -1      2648 1.09135E+02 1.62536E+01 0.00000E+00
 -1      2649 1.02620E+02 3.01671E+01 0.00000E+00
 -1      2650 1.03738E+02 3.24404E+01 0.00000E+00
 -1      2651 1.09051E+02 3.68836E+01 0.00000E+00
 -1      2652 1.40664E+02 4.22352E+01 0.00000E+00
 -1      2653 9.09300E+00 1.98250E+01 0.00000E+00
 -1      2654 9.09300E+00 2.12750E+01 0.00000E+00
 -1      2655 9.09300E+00 2.27500E+01 0.00000E+00
 -1      2656 9.09300E+00 2.42250E+01 0.00000E+00
 -1      2657 1.03920E+01 2.20250E+01 0.00000E+00
 -1      2658 9.09300E+00 1.39375E+01 0.00000E+00
 -1      2659 9.09300E+00 1.54125E+01 0.00000E+00
 -1      2660 9.09300E+00 1.09875E+01 0.00000E+00
 -1      2661 9.09300E+00 1.24625E+01 0.00000E+00
 -1      2662 1.03920E+01 1.32000E+01 0.00000E+00
 -1      2663 1.40928E+02 4.09655E+01 0.00000E+00
 -1      2664 1.41192E+02 3.96958E+01 0.00000E+00
 -1      2665 1.39914E+02 4.09362E+01 0.00000E+00
 -1      2666 1.22850E+01 7.90325E+00 0.00000E+00
 -1      2667 1.07850E+01 7.90325E+00 0.00000E+00
 -1      2668 8.91450E+00 8.42712E+00 0.00000E+00
 -1      2669 1.44000E+01 4.09070E+01 0.00000E+00
 -1      2670 1.59000E+01 4.09070E+01 0.00000E+00
 -1      2671 1.74000E+01 4.09070E+01 0.00000E+00
 -1      2672 1.89000E+01 4.09070E+01 0.00000E+00
 -1      2673 1.66500E+01 3.96080E+01 0.00000E+00
 -1      2674 2.04000E+01 4.09070E+01 0.00000E+00
 -1      2675 2.19000E+01 4.09070E+01 0.00000E+00
 -1      2676 1.96500E+01 3.96080E+01 0.00000E+00
 -1      2677 2.34000E+01 4.09070E+01 0.00000E+00
 -1      2678 2.49000E+01 4.09070E+01 0.00000E+00
 -1      2679 2.26500E+01 3.96080E+01 0.00000E+00
 -1      2680 2.64000E+01 4.09070E+01 0.00000E+00
 -1      2681 2.79000E+01 4.09070E+01 0.00000E+00
 -1      2682 2.56500E+01 3.96080E+01 0.00000E+00
 -1      2683 2.94000E+01 4.09070E+01 0.00000E+00
 -1      2684 3.09000E+01 4.09070E+01 0.00000E+00
 -1      2685 2.86500E+01 3.96080E+01 0.00000E+00
 -1      2686 3.24000E+01 4.09070E+01 0.00000E+00
 -1      2687 3.39000E+01 4.09070E+01 0.00000E+00
 -1      2688 3.16500E+01 3.96080E+01 0.00000E+00
 -1      2689 3.54000E+01 4.09070E+01 0.00000E+00
 -1      2690 3.69000E+01 4.09070E+01 0.00000E+00
 -1      2691 3.46500E+01 3.96080E+01 0.00000E+00
 -1      2692 3.84000E+01 4.09070E+01 0.00000E+00
 -1      2693 3.99000E+01 4.09070E+01 0.00000E+00
 -1      2694 3.76500E+01 3.96080E+01 0.00000E+00
 -1      2695 4.14000E+01 4.09070E+01 0.00000E+00
 -1      2696 4.29000E+01 4.09070E+01 0.00000E+00
 -1      2697 4.06500E+01 3.96080E+01 0.00000E+00
 -1      2698 4.44000E+01 4.09070E+01 0.00000E+00
 -1      2699 4.59000E+01 4.09070E+01 0.00000E+00
 -1      2700 4.36500E+01 3.96080E+01 0.00000E+00
 -1      2701 4.74000E+01 4.09070E+01 0.00000E+00
 -1      2702 4.89000E+01 4.09070E+01 0.00000E+00
 -1      2703 4.66500E+01 3.96080E+01 0.00000E+00
 -1      2704 5.04000E+01 4.09070E+01 0.00000E+00
 -1      2705 5.19000E+01 4.09070E+01 0.00000E+00
 -1      2706 4.96500E+01 3.96080E+01 0.00000E+00
 -1      2707 5.34000E+01 4.09070E+01 0.00000E+00
 -1      2708 5.49000E+01 4.09070E+01 0.00000E+00
 -1      2709 5.26500E+01 3.96080E+01 0.00000E+00
 -1      2710 5.64000E+01 4.09070E+01 0.00000E+00
 -1      2711 5.79000E+01 4.09070E+01 0.00000E+00
 -1      2712 5.56500E+01 3.96080E+01 0.00000E+00
 -1      2713 5.94000E+01 4.09070E+01 0.00000E+00
 -1      2714 6.09000E+01 4.09070E+01 0.00000E+00
 -1      2715 5.86500E+01 3.96080E+01 0.00000E+00
 -1      2716 6.24000E+01 4.09070E+01 0.00000E+00
 -1      2717 6.39000E+01 4.09070E+01 0.00000E+00
 -1      2718 6.16500E+01 3.96080E+01 0.00000E+00
 -1      2719 6.54000E+01 4.09070E+01 0.00000E+00
 -1      2720 6.69000E+01 4.09070E+01 0.00000E+00
 -1      2721 6.46500E+01 3.96080E+01 0.00000E+00
 -1      2722 6.84000E+01 4.09070E+01 0.00000E+00
 -1      2723 6.99000E+01 4.09070E+01 0.00000E+00
 -1      2724 6.76500E+01 3.96080E+01 0.00000E+00
 -1      2725 7.14000E+01 4.09070E+01 0.00000E+00
 -1      2726 7.29000E+01 4.09070E+01 0.00000E+00
 -1      2727 7.06500E+01 3.96080E+01 0.00000E+00
 -1      2728 7.44000E+01 4.09070E+01 0.00000E+00
 -1      2729 7.59000E+01 4.09070E+01 0.00000E+00
 -1      2730 7.36500E+01 3.96080E+01 0.00000E+00
 -1      2731 7.74000E+01 4.09070E+01 0.00000E+00
 -1      2732 7.89000E+01 4.09070E+01 0.00000E+00
 -1      2733 7.66500E+01 3.96080E+01 0.00000E+00
 -1      2734 8.04000E+01 4.09070E+01 0.00000E+00
 -1      2735 8.19000E+01 4.09070E+01 0.00000E+00
 -1      2736 7.96500E+01 3.96080E+01 0.00000E+00
 -1      2737 8.34000E+01 4.09070E+01 0.00000E+00
 -1      2738 8.49000E+01 4.09070E+01 0.00000E+00
 -1      2739 8.26500E+01 3.96080E+01 0.00000E+00
 -1      2740 8.64000E+01 4.09070E+01 0.00000E+00
 -1      2741 8.79000E+01 4.09070E+01 0.00000E+00
 -1      2742 8.56500E+01 3.96080E+01 0.00000E+00
 -1      2743 8.94000E+01 4.09070E+01 0.00000E+00
 -1      2744 9.09000E+01 4.09070E+01 0.00000E+00
 -1      2745 8.86500E+01 3.96080E+01 0.00000E+00
 -1      2746 9.24000E+01 4.09070E+01 0.00000E+00
 -1      2747 9.39000E+01 4.09070E+01 0.00000E+00
 -1      2748 9.16500E+01 3.96080E+01 0.00000E+00
 -1      2749 9.54000E+01 4.09070E+01 0.00000E+00
 -1      2750 9.69000E+01 4.09070E+01 0.00000E+00
 -1      2751 9.46500E+01 3.96080E+01 0.00000E+00
 -1      2752 9.84000E+01 4.09070E+01 0.00000E+00
 -1      2753 9.99000E+01 4.09070E+01 0.00000E+00
 -1      2754 9.76500E+01 3.96080E+01 0.00000E+00
 -1      2755 1.01400E+02 4.09070E+01 0.00000E+00
 -1      2756 1.02900E+02 4.09070E+01 0.00000E+00
 -1      2757 1.00650E+02 3.96080E+01 0.00000E+00
 -1      2758 1.04400E+02 4.09070E+01 0.00000E+00
 -1      2759 1.05900E+02 4.09070E+01 0.00000E+00
 -1      2760 1.03650E+02 3.96080E+01 0.00000E+00
 -1      2761 1.07400E+02 4.09070E+01 0.00000E+00
 -1      2762 1.08900E+02 4.09070E+01 0.00000E+00
 -1      2763 1.06650E+02 3.96080E+01 0.00000E+00
 -1      2764 1.13400E+02 4.11809E+01 0.00000E+00
 -1      2765 1.14900E+02 4.11809E+01 0.00000E+00
 -1      2766 1.16400E+02 4.10971E+01 0.00000E+00
 -1      2767 1.17900E+02 4.10971E+01 0.00000E+00
 -1      2768 1.19400E+02 4.10971E+01 0.00000E+00
 -1      2769 1.20900E+02 4.10971E+01 0.00000E+00
 -1      2770 1.18650E+02 3.99882E+01 0.00000E+00
 -1      2771 1.22400E+02 4.10971E+01 0.00000E+00
 -1      2772 1.23900E+02 4.10971E+01 0.00000E+00
 -1      2773 1.21650E+02 3.99882E+01 0.00000E+00
 -1      2774 1.25400E+02 4.10971E+01 0.00000E+00
 -1      2775 1.26900E+02 4.10971E+01 0.00000E+00
 -1      2776 1.24650E+02 3.99882E+01 0.00000E+00
 -1      2777 1.28400E+02 4.10971E+01 0.00000E+00
 -1      2778 1.29900E+02 4.10971E+01 0.00000E+00
 -1      2779 1.27650E+02 3.99882E+01 0.00000E+00
 -1      2780 1.31400E+02 4.10971E+01 0.00000E+00
 -1      2781 1.32900E+02 4.10971E+01 0.00000E+00
 -1      2782 1.30650E+02 3.99882E+01 0.00000E+00
 -1      2783 1.34400E+02 4.10971E+01 0.00000E+00
 -1      2784 1.35900E+02 4.10971E+01 0.00000E+00
 -1      2785 1.33650E+02 3.99882E+01 0.00000E+00
 -1      2786 1.37157E+02 4.10167E+01 0.00000E+00
 -1      2787 1.38657E+02 4.10167E+01 0.00000E+00
 -1      2788 1.38921E+02 3.97469E+01 0.00000E+00
 -1      2789 1.36407E+02 3.99078E+01 0.00000E+00
 -1      2790 1.20921E+02 1.74384E+01 0.00000E+00
 -1      2791 1.21668E+02 1.82655E+01 0.00000E+00
 -1      2792 2.42850E+01 7.90325E+00 0.00000E+00
 -1      2793 2.27850E+01 7.90325E+00 0.00000E+00
 -1      2794 2.12850E+01 7.90325E+00 0.00000E+00
 -1      2795 1.97850E+01 7.90325E+00 0.00000E+00
 -1      2796 2.20350E+01 9.20225E+00 0.00000E+00
 -1      2797 3.02850E+01 7.90325E+00 0.00000E+00
 -1      2798 2.87850E+01 7.90325E+00 0.00000E+00
 -1      2799 3.32850E+01 7.90325E+00 0.00000E+00
 -1      2800 3.17850E+01 7.90325E+00 0.00000E+00
 -1      2801 3.10350E+01 9.20225E+00 0.00000E+00
 -1      2802 3.62850E+01 7.90325E+00 0.00000E+00
 -1      2803 3.47850E+01 7.90325E+00 0.00000E+00
 -1      2804 3.40350E+01 9.20225E+00 0.00000E+00
 -1      2805 3.92850E+01 7.90325E+00 0.00000E+00
 -1      2806 3.77850E+01 7.90325E+00 0.00000E+00
 -1      2807 3.70350E+01 9.20225E+00 0.00000E+00
 -1      2808 4.22850E+01 7.90325E+00 0.00000E+00
 -1      2809 4.07850E+01 7.90325E+00 0.00000E+00
 -1      2810 4.00350E+01 9.20225E+00 0.00000E+00
 -1      2811 4.52850E+01 7.90325E+00 0.00000E+00
 -1      2812 4.37850E+01 7.90325E+00 0.00000E+00
 -1      2813 4.30350E+01 9.20225E+00 0.00000E+00
 -1      2814 4.82850E+01 7.90325E+00 0.00000E+00
 -1      2815 4.67850E+01 7.90325E+00 0.00000E+00
 -1      2816 4.60350E+01 9.20225E+00 0.00000E+00
 -1      2817 5.12850E+01 7.90325E+00 0.00000E+00
 -1      2818 4.97850E+01 7.90325E+00 0.00000E+00
 -1      2819 4.90350E+01 9.20225E+00 0.00000E+00
 -1      2820 5.42850E+01 7.90325E+00 0.00000E+00
 -1      2821 5.27850E+01 7.90325E+00 0.00000E+00
 -1      2822 5.20350E+01 9.20225E+00 0.00000E+00
 -1      2823 5.72850E+01 7.90325E+00 0.00000E+00
 -1      2824 5.57850E+01 7.90325E+00 0.00000E+00
 -1      2825 5.50350E+01 9.20225E+00 0.00000E+00
 -1      2826 6.02850E+01 7.90325E+00 0.00000E+00
 -1      2827 5.87850E+01 7.90325E+00 0.00000E+00
 -1      2828 5.80350E+01 9.20225E+00 0.00000E+00
 -1      2829 6.32850E+01 7.90325E+00 0.00000E+00
 -1      2830 6.17850E+01 7.90325E+00 0.00000E+00
 -1      2831 6.10350E+01 9.20225E+00 0.00000E+00
 -1      2832 6.62850E+01 7.90325E+00 0.00000E+00
 -1      2833 6.47850E+01 7.90325E+00 0.00000E+00
 -1      2834 6.40350E+01 9.20225E+00 0.00000E+00
 -1      2835 6.92850E+01 7.90325E+00 0.00000E+00
 -1      2836 6.77850E+01 7.90325E+00 0.00000E+00
 -1      2837 6.70350E+01 9.20225E+00 0.00000E+00
 -1      2838 7.22850E+01 7.90325E+00 0.00000E+00
 -1      2839 7.07850E+01 7.90325E+00 0.00000E+00
 -1      2840 7.00350E+01 9.20225E+00 0.00000E+00
 -1      2841 7.52850E+01 7.90325E+00 0.00000E+00
 -1      2842 7.37850E+01 7.90325E+00 0.00000E+00
 -1      2843 7.30350E+01 9.20225E+00 0.00000E+00
 -1      2844 7.82850E+01 7.90325E+00 0.00000E+00
 -1      2845 7.67850E+01 7.90325E+00 0.00000E+00
 -1      2846 7.60350E+01 9.20225E+00 0.00000E+00
 -1      2847 8.12850E+01 7.90325E+00 0.00000E+00
 -1      2848 7.97850E+01 7.90325E+00 0.00000E+00
 -1      2849 7.90350E+01 9.20225E+00 0.00000E+00
 -1      2850 8.42850E+01 7.90325E+00 0.00000E+00
 -1      2851 8.27850E+01 7.90325E+00 0.00000E+00
 -1      2852 8.20350E+01 9.20225E+00 0.00000E+00
 -1      2853 8.72850E+01 7.90325E+00 0.00000E+00
 -1      2854 8.57850E+01 7.90325E+00 0.00000E+00
 -1      2855 8.50350E+01 9.20225E+00 0.00000E+00
 -1      2856 9.02850E+01 7.90325E+00 0.00000E+00
 -1      2857 8.87850E+01 7.90325E+00 0.00000E+00
 -1      2858 8.80350E+01 9.20225E+00 0.00000E+00
 -1      2859 9.32850E+01 7.90325E+00 0.00000E+00
 -1      2860 9.17850E+01 7.90325E+00 0.00000E+00
 -1      2861 9.10350E+01 9.20225E+00 0.00000E+00
 -1      2862 9.62850E+01 7.90325E+00 0.00000E+00
 -1      2863 9.47850E+01 7.90325E+00 0.00000E+00
 -1      2864 9.40350E+01 9.20225E+00 0.00000E+00
 -1      2865 9.92850E+01 7.90325E+00 0.00000E+00
 -1      2866 9.77850E+01 7.90325E+00 0.00000E+00
 -1      2867 9.70350E+01 9.20225E+00 0.00000E+00
 -1      2868 1.02285E+02 7.90325E+00 0.00000E+00
 -1      2869 1.00785E+02 7.90325E+00 0.00000E+00
 -1      2870 1.00035E+02 9.20225E+00 0.00000E+00
 -1      2871 1.05285E+02 7.90325E+00 0.00000E+00
 -1      2872 1.03785E+02 7.90325E+00 0.00000E+00
 -1      2873 1.03035E+02 9.20225E+00 0.00000E+00
 -1      2874 1.08285E+02 7.90325E+00 0.00000E+00
 -1      2875 1.06785E+02 7.90325E+00 0.00000E+00
 -1      2876 1.06035E+02 9.20225E+00 0.00000E+00
 -1      2877 1.11285E+02 7.90325E+00 0.00000E+00
 -1      2878 1.09785E+02 7.90325E+00 0.00000E+00
 -1      2879 1.09035E+02 9.20225E+00 0.00000E+00
 -1      2880 1.14285E+02 7.90325E+00 0.00000E+00
 -1      2881 1.12785E+02 7.90325E+00 0.00000E+00
 -1      2882 1.12035E+02 9.20225E+00 0.00000E+00
 -1      2883 1.17285E+02 7.90325E+00 0.00000E+00
 -1      2884 1.15785E+02 7.90325E+00 0.00000E+00
 -1      2885 1.15035E+02 9.20225E+00 0.00000E+00
 -1      2886 1.20285E+02 7.90325E+00 0.00000E+00
 -1      2887 1.18785E+02 7.90325E+00 0.00000E+00
 -1      2888 1.18035E+02 9.20225E+00 0.00000E+00
 -1      2889 1.23285E+02 7.90325E+00 0.00000E+00
 -1      2890 1.21785E+02 7.90325E+00 0.00000E+00
 -1      2891 1.21035E+02 9.20225E+00 0.00000E+00
 -1      2892 1.26285E+02 7.90325E+00 0.00000E+00
 -1      2893 1.24785E+02 7.90325E+00 0.00000E+00
 -1      2894 1.24035E+02 9.20225E+00 0.00000E+00
 -1      2895 1.29285E+02 7.90325E+00 0.00000E+00
 -1      2896 1.27785E+02 7.90325E+00 0.00000E+00
 -1      2897 1.27035E+02 9.20225E+00 0.00000E+00
 -1      2898 1.32285E+02 7.90325E+00 0.00000E+00
 -1      2899 1.30785E+02 7.90325E+00 0.00000E+00
 -1      2900 1.30035E+02 9.20225E+00 0.00000E+00
 -1      2901 1.35285E+02 7.90325E+00 0.00000E+00
 -1      2902 1.33785E+02 7.90325E+00 0.00000E+00
 -1      2903 1.33035E+02 9.20225E+00 0.00000E+00
 -1      2904 1.38285E+02 7.90325E+00 0.00000E+00
 -1      2905 1.36785E+02 7.90325E+00 0.00000E+00
 -1      2906 1.36035E+02 9.20225E+00 0.00000E+00
 -1      2907 1.40953E+02 8.18394E+00 0.00000E+00
 -1      2908 1.39453E+02 8.18394E+00 0.00000E+00
 -1      2909 1.38703E+02 9.48294E+00 0.00000E+00
 -1      2910 1.41038E+02 1.00443E+01 0.00000E+00
 -1      2911 7.85850E+00 3.92077E+01 0.00000E+00
 -1      2912 1.40907E+02 2.42875E+01 0.00000E+00
 -1      2913 1.40907E+02 2.28125E+01 0.00000E+00
 -1      2914 1.08139E+02 1.53723E+01 0.00000E+00
 -1      2915 1.09227E+02 1.49271E+01 0.00000E+00
 -1      2916 1.40907E+02 1.83875E+01 0.00000E+00
 -1      2917 1.40907E+02 1.69125E+01 0.00000E+00
 -1      2918 1.40907E+02 2.72375E+01 0.00000E+00
 -1      2919 1.40907E+02 2.57625E+01 0.00000E+00
 -1      2920 1.39608E+02 2.50250E+01 0.00000E+00
 -1      2921 1.40907E+02 2.13375E+01 0.00000E+00
 -1      2922 1.40907E+02 1.98625E+01 0.00000E+00
 -1      2923 1.39608E+02 1.91250E+01 0.00000E+00
 -1      2924 1.39608E+02 2.20750E+01 0.00000E+00
 -1      2925 1.40907E+02 3.01375E+01 0.00000E+00
 -1      2926 1.40907E+02 2.86875E+01 0.00000E+00
 -1      2927 1.39608E+02 2.79500E+01 0.00000E+00
 -1      2928 1.40907E+02 3.30875E+01 0.00000E+00
 -1      2929 1.40907E+02 3.16125E+01 0.00000E+00
 -1      2930 1.39608E+02 3.08750E+01 0.00000E+00
 -1      2931 1.40907E+02 3.60375E+01 0.00000E+00
 -1      2932 1.40907E+02 3.45625E+01 0.00000E+00
 -1      2933 1.39608E+02 3.38250E+01 0.00000E+00
 -1      2934 1.41192E+02 3.82207E+01 0.00000E+00
 -1      2935 1.82850E+01 7.90325E+00 0.00000E+00
 -1      2936 1.67850E+01 7.90325E+00 0.00000E+00
 -1      2937 1.90350E+01 9.20225E+00 0.00000E+00
 -1      2938 9.32250E+00 4.05749E+01 0.00000E+00
 -1      2939 1.06860E+01 4.08389E+01 0.00000E+00
 -1      2940 1.21860E+01 4.08389E+01 0.00000E+00
 -1      2941 9.25800E+00 3.81046E+01 0.00000E+00
 -1      2942 1.52850E+01 7.90325E+00 0.00000E+00
 -1      2943 1.37850E+01 7.90325E+00 0.00000E+00
 -1      2944 1.30350E+01 9.20225E+00 0.00000E+00
 -1      2945 1.60350E+01 9.20225E+00 0.00000E+00
 -1      2946 1.19757E+02 3.72421E+01 0.00000E+00
 -1      2947 1.18690E+02 3.80047E+01 0.00000E+00
 -1      2948 1.06280E+02 1.63180E+01 0.00000E+00
 -1      2949 1.07210E+02 1.58452E+01 0.00000E+00
 -1      2950 1.07302E+02 1.45186E+01 0.00000E+00
 -1      2951 1.01130E+02 2.84915E+01 0.00000E+00
 -1      2952 1.01044E+02 2.75001E+01 0.00000E+00
 -1      2953 2.72850E+01 7.90325E+00 0.00000E+00
 -1      2954 2.57850E+01 7.90325E+00 0.00000E+00
 -1      2955 2.50350E+01 9.20225E+00 0.00000E+00
 -1      2956 2.80350E+01 9.20225E+00 0.00000E+00
 -1      2957 1.22446E+02 1.91422E+01 0.00000E+00
 -1      2958 1.23092E+02 2.00040E+01 0.00000E+00
 -1      2959 9.09300E+00 1.68813E+01 0.00000E+00
 -1      2960 9.09300E+00 1.83563E+01 0.00000E+00
 -1      2961 1.03920E+01 1.90812E+01 0.00000E+00
 -1      2962 1.03920E+01 1.61437E+01 0.00000E+00
 -1      2963 1.04046E+02 1.83296E+01 0.00000E+00
 -1      2964 1.04992E+02 1.73885E+01 0.00000E+00
 -1      2965 9.09300E+00 3.15875E+01 0.00000E+00
 -1      2966 9.09300E+00 3.30625E+01 0.00000E+00
 -1      2967 1.23088E+02 3.36704E+01 0.00000E+00
 -1      2968 1.22418E+02 3.45721E+01 0.00000E+00
 -1      2969 1.13537E+02 1.44331E+01 0.00000E+00
 -1      2970 1.14745E+02 1.44560E+01 0.00000E+00
 -1      2971 1.02079E+02 3.11187E+01 0.00000E+00
 -1      2972 1.01570E+02 2.98578E+01 0.00000E+00
 -1      2973 1.01188E+02 2.63814E+01 0.00000E+00
 -1      2974 1.01232E+02 2.53639E+01 0.00000E+00
 -1      2975 1.02255E+02 2.06129E+01 0.00000E+00
 -1      2976 1.03061E+02 1.94903E+01 0.00000E+00
 -1      2977 1.25202E+02 2.37678E+01 0.00000E+00
 -1      2978 1.25381E+02 2.46051E+01 0.00000E+00
 -1      2979 1.10729E+02 1.46856E+01 0.00000E+00
 -1      2980 1.12075E+02 1.44628E+01 0.00000E+00
 -1      2981 1.03237E+02 3.34322E+01 0.00000E+00
 -1      2982 1.02627E+02 3.24197E+01 0.00000E+00
 -1      2983 1.09206E+02 3.83406E+01 0.00000E+00
 -1      2984 1.07994E+02 3.81509E+01 0.00000E+00
 -1      2985 1.04625E+02 3.52379E+01 0.00000E+00
 -1      2986 1.03933E+02 3.45860E+01 0.00000E+00
 -1      2987 1.06837E+02 3.71787E+01 0.00000E+00
 -1      2988 1.05783E+02 3.62102E+01 0.00000E+00
 -1      2989 1.04677E+02 3.66912E+01 0.00000E+00
 -1      2990 1.06992E+02 3.86357E+01 0.00000E+00
 -1      2991 1.14529E+02 3.90496E+01 0.00000E+00
 -1      2992 1.13163E+02 3.89764E+01 0.00000E+00
 -1      2993 1.17355E+02 3.87701E+01 0.00000E+00
 -1      2994 1.16029E+02 3.89658E+01 0.00000E+00
 -1      2995 1.18445E+02 1.60453E+01 0.00000E+00
 -1      2996 1.19652E+02 1.64711E+01 0.00000E+00
 -1      2997 1.21513E+02 3.54721E+01 0.00000E+00
 -1      2998 1.20696E+02 3.62548E+01 0.00000E+00
 -1      2999 1.23893E+02 3.11063E+01 0.00000E+00
 -1      3000 1.23634E+02 3.22655E+01 0.00000E+00
 -1      3001 1.16247E+02 1.47338E+01 0.00000E+00
 -1      3002 1.17346E+02 1.53896E+01 0.00000E+00
 -1      3003 1.18263E+02 1.47148E+01 0.00000E+00
 -1      3004 9.09300E+00 3.45313E+01 0.00000E+00
 -1      3005 9.09300E+00 3.60000E+01 0.00000E+00
 -1      3006 1.03920E+01 3.37938E+01 0.00000E+00
 -1      3007 1.25972E+02 2.52998E+01 0.00000E+00
 -1      3008 1.03920E+01 2.49750E+01 0.00000E+00
 -1      3009 9.09300E+00 2.57000E+01 0.00000E+00
 -1      3010 9.09300E+00 2.71750E+01 0.00000E+00
 -1      3011 1.20631E+02 1.63378E+01 0.00000E+00
 -1      3012 1.21609E+02 1.62045E+01 0.00000E+00
 -1      3013 1.20340E+02 1.52372E+01 0.00000E+00
 -1      3014 1.23995E+02 2.04007E+01 0.00000E+00
 -1      3015 1.24898E+02 2.07974E+01 0.00000E+00
 -1      3016 1.24358E+02 1.94553E+01 0.00000E+00
 -1      3017 1.20758E+02 3.74700E+01 0.00000E+00
 -1      3018 9.66450E+00 9.72612E+00 0.00000E+00
 -1      3019 1.25954E+02 2.74227E+01 0.00000E+00
 -1      3020 1.25253E+02 2.81171E+01 0.00000E+00
 -1      3021 1.25557E+02 2.89129E+01 0.00000E+00
 -1      3022 1.05084E+02 1.60620E+01 0.00000E+00
 -1      3023 1.29360E+01 3.95399E+01 0.00000E+00
 -1      3024 1.11781E+02 4.11038E+01 0.00000E+00
 -1      3025 1.12531E+02 4.00786E+01 0.00000E+00
 -1      3026 1.11544E+02 3.88993E+01 0.00000E+00
 -1      3027 1.10281E+02 4.11038E+01 0.00000E+00
 -1      3028 1.22677E+02 1.81819E+01 0.00000E+00
 -1      3029 1.10588E+02 3.85374E+01 0.00000E+00
 -1      3030 1.00293E+02 2.69580E+01 0.00000E+00
 -1      3031 1.41038E+02 1.15068E+01 0.00000E+00
 -1      3032 1.39870E+02 1.12261E+01 0.00000E+00
 -1      3033 1.41038E+02 1.29693E+01 0.00000E+00
 -1      3034 1.15662E+02 1.37812E+01 0.00000E+00
 -1      3035 1.09733E+02 1.38043E+01 0.00000E+00
 -1      3036 1.12697E+02 1.35331E+01 0.00000E+00
 -1      3037 1.24729E+02 3.07401E+01 0.00000E+00
 -1      3038 1.02810E+02 1.82931E+01 0.00000E+00
 -1      3039 1.39407E+02 3.86151E+01 0.00000E+00
 -1      3040 1.40421E+02 3.71693E+01 0.00000E+00
 -1      3041 1.39122E+02 3.64318E+01 0.00000E+00
 -1      3042 1.38150E+02 3.86955E+01 0.00000E+00
 -1      3043 1.24055E+02 3.32778E+01 0.00000E+00
 -1      3044 1.22603E+02 3.55827E+01 0.00000E+00
 -1      3045 1.15650E+02 4.00720E+01 0.00000E+00
 -1      3046 1.25415E+02 2.28578E+01 0.00000E+00
 -1      3047 1.09531E+02 3.98048E+01 0.00000E+00
 -1      3048 1.02822E+02 3.45652E+01 0.00000E+00
 -1      3049 1.01509E+02 2.12933E+01 0.00000E+00
 -1      3050 1.01080E+02 2.01341E+01 0.00000E+00
 -1      3051 1.00764E+02 2.19737E+01 0.00000E+00
 -1      3052 1.01577E+02 3.21105E+01 0.00000E+00
 -1      3053 1.00815E+02 2.44860E+01 0.00000E+00
 -1      3054 1.00399E+02 2.36082E+01 0.00000E+00
 -1      3055 1.00020E+02 2.49614E+01 0.00000E+00
 -1      3056 1.00589E+02 2.94431E+01 0.00000E+00
 -1      3057 1.40973E+02 1.56722E+01 0.00000E+00
 -1      3058 1.40973E+02 1.42097E+01 0.00000E+00
 -1      3059 1.39805E+02 1.39290E+01 0.00000E+00
 -1      3060 1.39674E+02 1.64097E+01 0.00000E+00
 -1      3061 9.09300E+00 2.86437E+01 0.00000E+00
 -1      3062 9.09300E+00 3.01187E+01 0.00000E+00
 -1      3063 1.03920E+01 3.08563E+01 0.00000E+00
 -1      3064 1.03920E+01 2.79188E+01 0.00000E+00
 -1      3065 1.09635E+01 1.04636E+01 0.00000E+00
 -1      3066 1.18485E+02 3.92228E+01 0.00000E+00
 -1      3067 1.16910E+01 1.24625E+01 0.00000E+00
 -1      3068 1.16910E+01 1.39375E+01 0.00000E+00
 -1      3069 1.03678E+02 1.56798E+01 0.00000E+00
 -1      3070 1.04966E+02 1.46093E+01 0.00000E+00
 -1      3071 1.89000E+01 3.83090E+01 0.00000E+00
 -1      3072 2.04000E+01 3.83090E+01 0.00000E+00
 -1      3073 2.19000E+01 3.83090E+01 0.00000E+00
 -1      3074 2.34000E+01 3.83090E+01 0.00000E+00
 -1      3075 2.11500E+01 3.70100E+01 0.00000E+00
 -1      3076 2.49000E+01 3.83090E+01 0.00000E+00
 -1      3077 2.64000E+01 3.83090E+01 0.00000E+00
 -1      3078 2.41500E+01 3.70100E+01 0.00000E+00
 -1      3079 2.79000E+01 3.83090E+01 0.00000E+00
 -1      3080 2.94000E+01 3.83090E+01 0.00000E+00
 -1      3081 2.71500E+01 3.70100E+01 0.00000E+00
 -1      3082 3.09000E+01 3.83090E+01 0.00000E+00
 -1      3083 3.24000E+01 3.83090E+01 0.00000E+00
 -1      3084 3.01500E+01 3.70100E+01 0.00000E+00
 -1      3085 3.39000E+01 3.83090E+01 0.00000E+00
 -1      3086 3.54000E+01 3.83090E+01 0.00000E+00
 -1      3087 3.31500E+01 3.70100E+01 0.00000E+00
 -1      3088 3.69000E+01 3.83090E+01 0.00000E+00
 -1      3089 3.84000E+01 3.83090E+01 0.00000E+00
 -1      3090 3.61500E+01 3.70100E+01 0.00000E+00
 -1      3091 3.99000E+01 3.83090E+01 0.00000E+00
 -1      3092 4.14000E+01 3.83090E+01 0.00000E+00
 -1      3093 3.91500E+01 3.70100E+01 0.00000E+00
 -1      3094 4.29000E+01 3.83090E+01 0.00000E+00
 -1      3095 4.44000E+01 3.83090E+01 0.00000E+00
 -1      3096 4.21500E+01 3.70100E+01 0.00000E+00
 -1      3097 4.59000E+01 3.83090E+01 0.00000E+00
 -1      3098 4.74000E+01 3.83090E+01 0.00000E+00
 -1      3099 4.51500E+01 3.70100E+01 0.00000E+00
 -1      3100 4.89000E+01 3.83090E+01 0.00000E+00
 -1      3101 5.04000E+01 3.83090E+01 0.00000E+00
 -1      3102 4.81500E+01 3.70100E+01 0.00000E+00
 -1      3103 5.19000E+01 3.83090E+01 0.00000E+00
 -1      3104 5.34000E+01 3.83090E+01 0.00000E+00
 -1      3105 5.11500E+01 3.70100E+01 0.00000E+00
 -1      3106 5.49000E+01 3.83090E+01 0.00000E+00
 -1      3107 5.64000E+01 3.83090E+01 0.00000E+00
 -1      3108 5.41500E+01 3.70100E+01 0.00000E+00
 -1      3109 5.79000E+01 3.83090E+01 0.00000E+00
 -1      3110 5.94000E+01 3.83090E+01 0.00000E+00
 -1      3111 5.71500E+01 3.70100E+01 0.00000E+00
 -1      3112 6.09000E+01 3.83090E+01 0.00000E+00
 -1      3113 6.24000E+01 3.83090E+01 0.00000E+00
 -1      3114 6.01500E+01 3.70100E+01 0.00000E+00
 -1      3115 6.39000E+01 3.83090E+01 0.00000E+00
 -1      3116 6.54000E+01 3.83090E+01 0.00000E+00
 -1      3117 6.31500E+01 3.70100E+01 0.00000E+00
 -1      3118 6.69000E+01 3.83090E+01 0.00000E+00
 -1      3119 6.84000E+01 3.83090E+01 0.00000E+00
 -1      3120 6.61500E+01 3.70100E+01 0.00000E+00
 -1      3121 6.99000E+01 3.83090E+01 0.00000E+00
 -1      3122 7.14000E+01 3.83090E+01 0.00000E+00
 -1      3123 6.91500E+01 3.70100E+01 0.00000E+00
 -1      3124 7.29000E+01 3.83090E+01 0.00000E+00
 -1      3125 7.44000E+01 3.83090E+01 0.00000E+00
 -1      3126 7.21500E+01 3.70100E+01 0.00000E+00
 -1      3127 7.59000E+01 3.83090E+01 0.00000E+00
 -1      3128 7.74000E+01 3.83090E+01 0.00000E+00
 -1      3129 7.51500E+01 3.70100E+01 0.00000E+00
 -1      3130 7.89000E+01 3.83090E+01 0.00000E+00
 -1      3131 8.04000E+01 3.83090E+01 0.00000E+00
 -1      3132 7.81500E+01 3.70100E+01 0.00000E+00
 -1      3133 8.19000E+01 3.83090E+01 0.00000E+00
 -1      3134 8.34000E+01 3.83090E+01 0.00000E+00
 -1      3135 8.11500E+01 3.70100E+01 0.00000E+00
 -1      3136 8.49000E+01 3.83090E+01 0.00000E+00
 -1      3137 8.64000E+01 3.83090E+01 0.00000E+00
 -1      3138 8.41500E+01 3.70100E+01 0.00000E+00
 -1      3139 8.79000E+01 3.83090E+01 0.00000E+00
 -1      3140 8.94000E+01 3.83090E+01 0.00000E+00
 -1      3141 8.71500E+01 3.70100E+01 0.00000E+00
 -1      3142 9.09000E+01 3.83090E+01 0.00000E+00
 -1      3143 9.24000E+01 3.83090E+01 0.00000E+00
 -1      3144 9.01500E+01 3.70100E+01 0.00000E+00
 -1      3145 9.39000E+01 3.83090E+01 0.00000E+00
 -1      3146 9.54000E+01 3.83090E+01 0.00000E+00
 -1      3147 9.31500E+01 3.70100E+01 0.00000E+00
 -1      3148 9.69000E+01 3.83090E+01 0.00000E+00
 -1      3149 9.84000E+01 3.83090E+01 0.00000E+00
 -1      3150 9.61500E+01 3.70100E+01 0.00000E+00
 -1      3151 9.99000E+01 3.83090E+01 0.00000E+00
 -1      3152 1.01400E+02 3.83090E+01 0.00000E+00
 -1      3153 9.91500E+01 3.70100E+01 0.00000E+00
 -1      3154 1.05492E+02 3.86357E+01 0.00000E+00
 -1      3155 1.22993E+02 1.71189E+01 0.00000E+00
 -1      3156 1.23770E+02 1.79956E+01 0.00000E+00
 -1      3157 1.25283E+02 3.29466E+01 0.00000E+00
 -1      3158 1.24738E+02 3.43515E+01 0.00000E+00
 -1      3159 1.23900E+02 3.86892E+01 0.00000E+00
 -1      3160 1.25400E+02 3.86892E+01 0.00000E+00
 -1      3161 1.26900E+02 3.86892E+01 0.00000E+00
 -1      3162 1.28400E+02 3.86892E+01 0.00000E+00
 -1      3163 1.26150E+02 3.73902E+01 0.00000E+00
 -1      3164 1.29900E+02 3.86892E+01 0.00000E+00
 -1      3165 1.31400E+02 3.86892E+01 0.00000E+00
 -1      3166 1.29150E+02 3.73902E+01 0.00000E+00
 -1      3167 1.32900E+02 3.86892E+01 0.00000E+00
 -1      3168 1.34400E+02 3.86892E+01 0.00000E+00
 -1      3169 1.32150E+02 3.73902E+01 0.00000E+00
 -1      3170 1.02084E+02 3.63645E+01 0.00000E+00
 -1      3171 1.01388E+02 3.52107E+01 0.00000E+00
 -1      3172 3.47850E+01 1.05013E+01 0.00000E+00
 -1      3173 3.32850E+01 1.05013E+01 0.00000E+00
 -1      3174 3.17850E+01 1.05013E+01 0.00000E+00
 -1      3175 3.02850E+01 1.05013E+01 0.00000E+00
 -1      3176 3.25350E+01 1.18003E+01 0.00000E+00
 -1      3177 4.07850E+01 1.05013E+01 0.00000E+00
 -1      3178 3.92850E+01 1.05013E+01 0.00000E+00
 -1      3179 4.37850E+01 1.05013E+01 0.00000E+00
 -1      3180 4.22850E+01 1.05013E+01 0.00000E+00
 -1      3181 4.15350E+01 1.18003E+01 0.00000E+00
 -1      3182 4.67850E+01 1.05013E+01 0.00000E+00
 -1      3183 4.52850E+01 1.05013E+01 0.00000E+00
 -1      3184 4.45350E+01 1.18003E+01 0.00000E+00
 -1      3185 4.97850E+01 1.05013E+01 0.00000E+00
 -1      3186 4.82850E+01 1.05013E+01 0.00000E+00
 -1      3187 4.75350E+01 1.18003E+01 0.00000E+00
 -1      3188 5.27850E+01 1.05013E+01 0.00000E+00
 -1      3189 5.12850E+01 1.05013E+01 0.00000E+00
 -1      3190 5.05350E+01 1.18003E+01 0.00000E+00
 -1      3191 5.57850E+01 1.05013E+01 0.00000E+00
 -1      3192 5.42850E+01 1.05013E+01 0.00000E+00
 -1      3193 5.35350E+01 1.18003E+01 0.00000E+00
 -1      3194 5.87850E+01 1.05013E+01 0.00000E+00
 -1      3195 5.72850E+01 1.05013E+01 0.00000E+00
 -1      3196 5.65350E+01 1.18003E+01 0.00000E+00
 -1      3197 6.17850E+01 1.05013E+01 0.00000E+00
 -1      3198 6.02850E+01 1.05013E+01 0.00000E+00
 -1      3199 5.95350E+01 1.18003E+01 0.00000E+00
 -1      3200 6.47850E+01 1.05013E+01 0.00000E+00
 -1      3201 6.32850E+01 1.05013E+01 0.00000E+00
 -1      3202 6.25350E+01 1.18003E+01 0.00000E+00
 -1      3203 6.77850E+01 1.05013E+01 0.00000E+00
 -1      3204 6.62850E+01 1.05013E+01 0.00000E+00
 -1      3205 6.55350E+01 1.18003E+01 0.00000E+00
 -1      3206 7.07850E+01 1.05013E+01 0.00000E+00
 -1      3207 6.92850E+01 1.05013E+01 0.00000E+00
 -1      3208 6.85350E+01 1.18003E+01 0.00000E+00
 -1      3209 7.37850E+01 1.05013E+01 0.00000E+00
 -1      3210 7.22850E+01 1.05013E+01 0.00000E+00
 -1      3211 7.15350E+01 1.18003E+01 0.00000E+00
 -1      3212 7.67850E+01 1.05013E+01 0.00000E+00
 -1      3213 7.52850E+01 1.05013E+01 0.00000E+00
 -1      3214 7.45350E+01 1.18003E+01 0.00000E+00
 -1      3215 7.97850E+01 1.05013E+01 0.00000E+00
 -1      3216 7.82850E+01 1.05013E+01 0.00000E+00
 -1      3217 7.75350E+01 1.18003E+01 0.00000E+00
 -1      3218 8.27850E+01 1.05013E+01 0.00000E+00
 -1      3219 8.12850E+01 1.05013E+01 0.00000E+00
 -1      3220 8.05350E+01 1.18003E+01 0.00000E+00
 -1      3221 8.57850E+01 1.05013E+01 0.00000E+00
 -1      3222 8.42850E+01 1.05013E+01 0.00000E+00
 -1      3223 8.35350E+01 1.18003E+01 0.00000E+00
 -1      3224 8.87850E+01 1.05013E+01 0.00000E+00
 -1      3225 8.72850E+01 1.05013E+01 0.00000E+00
 -1      3226 8.65350E+01 1.18003E+01 0.00000E+00
 -1      3227 9.17850E+01 1.05013E+01 0.00000E+00
 -1      3228 9.02850E+01 1.05013E+01 0.00000E+00
 -1      3229 8.95350E+01 1.18003E+01 0.00000E+00
 -1      3230 9.47850E+01 1.05013E+01 0.00000E+00
 -1      3231 9.32850E+01 1.05013E+01 0.00000E+00
 -1      3232 9.25350E+01 1.18003E+01 0.00000E+00
 -1      3233 9.77850E+01 1.05013E+01 0.00000E+00
 -1      3234 9.62850E+01 1.05013E+01 0.00000E+00
 -1      3235 9.55350E+01 1.18003E+01 0.00000E+00
 -1      3236 1.00785E+02 1.05013E+01 0.00000E+00
 -1      3237 9.92850E+01 1.05013E+01 0.00000E+00
 -1      3238 9.85350E+01 1.18003E+01 0.00000E+00
 -1      3239 1.04047E+02 1.17147E+01 0.00000E+00
 -1      3240 1.02547E+02 1.17147E+01 0.00000E+00
 -1      3241 1.09785E+02 1.05013E+01 0.00000E+00
 -1      3242 1.08285E+02 1.05013E+01 0.00000E+00
 -1      3243 1.12385E+02 1.13826E+01 0.00000E+00
 -1      3244 1.10885E+02 1.13826E+01 0.00000E+00
 -1      3245 1.15347E+02 1.13528E+01 0.00000E+00
 -1      3246 1.13847E+02 1.13528E+01 0.00000E+00
 -1      3247 1.21785E+02 1.05013E+01 0.00000E+00
 -1      3248 1.20285E+02 1.05013E+01 0.00000E+00
 -1      3249 1.24785E+02 1.05013E+01 0.00000E+00
 -1      3250 1.23285E+02 1.05013E+01 0.00000E+00
 -1      3251 1.22535E+02 1.18003E+01 0.00000E+00
 -1      3252 1.27785E+02 1.05013E+01 0.00000E+00
 -1      3253 1.26285E+02 1.05013E+01 0.00000E+00
 -1      3254 1.25535E+02 1.18003E+01 0.00000E+00
 -1      3255 1.30785E+02 1.05013E+01 0.00000E+00
 -1      3256 1.29285E+02 1.05013E+01 0.00000E+00
 -1      3257 1.28535E+02 1.18003E+01 0.00000E+00
 -1      3258 1.33785E+02 1.05013E+01 0.00000E+00
 -1      3259 1.32285E+02 1.05013E+01 0.00000E+00
 -1      3260 1.31535E+02 1.18003E+01 0.00000E+00
 -1      3261 1.36785E+02 1.05013E+01 0.00000E+00
 -1      3262 1.35285E+02 1.05013E+01 0.00000E+00
 -1      3263 1.34535E+02 1.18003E+01 0.00000E+00
 -1      3264 1.38912E+02 1.10040E+01 0.00000E+00
 -1      3265 1.37744E+02 1.07233E+01 0.00000E+00
 -1      3266 1.36994E+02 1.20223E+01 0.00000E+00
 -1      3267 1.38912E+02 1.24665E+01 0.00000E+00
 -1      3268 1.38309E+02 3.45625E+01 0.00000E+00
 -1      3269 1.38309E+02 3.30875E+01 0.00000E+00
 -1      3270 1.38309E+02 2.57625E+01 0.00000E+00
 -1      3271 1.38309E+02 2.42875E+01 0.00000E+00
 -1      3272 1.01408E+02 1.81015E+01 0.00000E+00
 -1      3273 1.02394E+02 1.69409E+01 0.00000E+00
 -1      3274 1.97850E+01 1.05013E+01 0.00000E+00
 -1      3275 1.82850E+01 1.05013E+01 0.00000E+00
 -1      3276 1.05570E+01 3.73671E+01 0.00000E+00
 -1      3277 1.27710E+01 3.74352E+01 0.00000E+00
 -1      3278 1.49850E+01 3.75034E+01 0.00000E+00
 -1      3279 1.26060E+01 3.53306E+01 0.00000E+00
 -1      3280 1.06335E+02 1.37667E+01 0.00000E+00
 -1      3281 1.07264E+02 1.32939E+01 0.00000E+00
 -1      3282 1.38309E+02 3.16125E+01 0.00000E+00
 -1      3283 1.38309E+02 3.01375E+01 0.00000E+00
 -1      3284 1.37010E+02 3.23500E+01 0.00000E+00
 -1      3285 1.00829E+02 3.31915E+01 0.00000E+00
 -1      3286 1.00281E+02 3.18905E+01 0.00000E+00
 -1      3287 3.77850E+01 1.05013E+01 0.00000E+00
 -1      3288 3.62850E+01 1.05013E+01 0.00000E+00
 -1      3289 3.55350E+01 1.18003E+01 0.00000E+00
 -1      3290 3.85350E+01 1.18003E+01 0.00000E+00
 -1      3291 1.38309E+02 2.86750E+01 0.00000E+00
 -1      3292 1.38309E+02 2.72250E+01 0.00000E+00
 -1      3293 1.37010E+02 2.64875E+01 0.00000E+00
 -1      3294 1.37010E+02 2.94125E+01 0.00000E+00
 -1      3295 2.27850E+01 1.05013E+01 0.00000E+00
 -1      3296 2.12850E+01 1.05013E+01 0.00000E+00
 -1      3297 2.05350E+01 1.18003E+01 0.00000E+00
 -1      3298 1.27210E+02 2.48979E+01 0.00000E+00
 -1      3299 1.26888E+02 2.62250E+01 0.00000E+00
 -1      3300 9.98413E+01 3.05241E+01 0.00000E+00
 -1      3301 9.94011E+01 2.91577E+01 0.00000E+00
 -1      3302 9.90934E+01 3.16051E+01 0.00000E+00
 -1      3303 1.26488E+01 1.02017E+01 0.00000E+00
 -1      3304 1.20772E+01 1.14631E+01 0.00000E+00
 -1      3305 1.33763E+01 1.22006E+01 0.00000E+00
 -1      3306 1.41488E+01 1.02017E+01 0.00000E+00
 -1      3307 1.25645E+02 3.02700E+01 0.00000E+00
 -1      3308 1.25517E+02 3.14027E+01 0.00000E+00
 -1      3309 1.61925E+01 3.79062E+01 0.00000E+00
 -1      3310 1.76925E+01 3.79062E+01 0.00000E+00
 -1      3311 1.84425E+01 3.66072E+01 0.00000E+00
 -1      3312 1.60275E+01 3.58016E+01 0.00000E+00
 -1      3313 1.16849E+02 1.16306E+01 0.00000E+00
 -1      3314 1.16910E+01 2.12875E+01 0.00000E+00
 -1      3315 1.16910E+01 2.27625E+01 0.00000E+00
 -1      3316 9.93705E+01 2.74078E+01 0.00000E+00
 -1      3317 9.95145E+01 2.62891E+01 0.00000E+00
 -1      3318 1.25778E+02 2.19124E+01 0.00000E+00
 -1      3319 1.26657E+02 2.30273E+01 0.00000E+00
 -1      3320 1.26141E+02 2.09670E+01 0.00000E+00
 -1      3321 1.24080E+02 3.60364E+01 0.00000E+00
 -1      3322 1.23174E+02 3.69364E+01 0.00000E+00
 -1      3323 1.18239E+02 1.35066E+01 0.00000E+00
 -1      3324 1.19337E+02 1.41623E+01 0.00000E+00
 -1      3325 1.16910E+01 2.42375E+01 0.00000E+00
 -1      3326 1.16910E+01 2.57125E+01 0.00000E+00
 -1      3327 1.29900E+01 2.35000E+01 0.00000E+00
 -1      3328 1.20316E+02 1.40291E+01 0.00000E+00
 -1      3329 1.26346E+02 2.95756E+01 0.00000E+00
 -1      3330 1.04928E+02 1.33845E+01 0.00000E+00
 -1      3331 1.24673E+02 1.83923E+01 0.00000E+00
 -1      3332 1.25577E+02 1.87891E+01 0.00000E+00
 -1      3333 1.24989E+02 1.73293E+01 0.00000E+00
 -1      3334 1.27192E+02 2.70209E+01 0.00000E+00
 -1      3335 9.86226E+01 2.84888E+01 0.00000E+00
 -1      3336 9.78441E+01 2.78200E+01 0.00000E+00
 -1      3337 9.78747E+01 2.95699E+01 0.00000E+00
 -1      3338 1.02276E+02 1.54882E+01 0.00000E+00
 -1      3339 1.02834E+02 3.76635E+01 0.00000E+00
 -1      3340 1.26199E+02 3.24764E+01 0.00000E+00
 -1      3341 1.04334E+02 3.76635E+01 0.00000E+00
 -1      3342 1.22702E+02 1.60183E+01 0.00000E+00
 -1      3343 1.23796E+02 1.58320E+01 0.00000E+00
 -1      3344 1.22412E+02 1.49177E+01 0.00000E+00
 -1      3345 1.25308E+02 3.57052E+01 0.00000E+00
 -1      3346 1.00092E+02 3.49908E+01 0.00000E+00
 -1      3347 1.34907E+02 3.73098E+01 0.00000E+00
 -1      3348 1.35657E+02 3.86088E+01 0.00000E+00
 -1      3349 1.36914E+02 3.85283E+01 0.00000E+00
 -1      3350 1.22031E+02 3.77406E+01 0.00000E+00
 -1      3351 1.21092E+02 3.87279E+01 0.00000E+00
 -1      3352 2.95350E+01 1.18003E+01 0.00000E+00
 -1      3353 2.87850E+01 1.05013E+01 0.00000E+00
 -1      3354 2.72850E+01 1.05013E+01 0.00000E+00
 -1      3355 1.06916E+02 1.08721E+01 0.00000E+00
 -1      3356 1.05416E+02 1.08721E+01 0.00000E+00
 -1      3357 1.10135E+02 1.26816E+01 0.00000E+00
 -1      3358 1.17709E+02 1.02848E+01 0.00000E+00
 -1      3359 1.18023E+02 1.27132E+01 0.00000E+00
 -1      3360 1.19959E+02 1.15838E+01 0.00000E+00
 -1      3361 1.19209E+02 1.02848E+01 0.00000E+00
 -1      3362 1.37886E+02 3.62647E+01 0.00000E+00
 -1      3363 1.36587E+02 3.55272E+01 0.00000E+00
 -1      3364 2.42850E+01 1.05013E+01 0.00000E+00
 -1      3365 2.35350E+01 1.18003E+01 0.00000E+00
 -1      3366 2.57850E+01 1.05013E+01 0.00000E+00
 -1      3367 1.37010E+02 2.35500E+01 0.00000E+00
 -1      3368 1.38309E+02 2.28125E+01 0.00000E+00
 -1      3369 1.38309E+02 2.13375E+01 0.00000E+00
 -1      3370 1.38309E+02 1.98625E+01 0.00000E+00
 -1      3371 1.38309E+02 1.83875E+01 0.00000E+00
 -1      3372 1.37010E+02 2.06000E+01 0.00000E+00
 -1      3373 1.16910E+01 3.01219E+01 0.00000E+00
 -1      3374 1.16910E+01 3.15906E+01 0.00000E+00
 -1      3375 1.37076E+02 1.78847E+01 0.00000E+00
 -1      3376 1.38375E+02 1.71472E+01 0.00000E+00
 -1      3377 1.38440E+02 1.59068E+01 0.00000E+00
 -1      3378 1.07666E+02 1.21711E+01 0.00000E+00
 -1      3379 1.08633E+02 1.29230E+01 0.00000E+00
 -1      3380 1.00663E+02 1.87819E+01 0.00000E+00
 -1      3381 1.00247E+02 1.74296E+01 0.00000E+00
 -1      3382 9.99179E+01 1.94622E+01 0.00000E+00
 -1      3383 1.19985E+02 3.92228E+01 0.00000E+00
 -1      3384 9.90979E+01 2.54112E+01 0.00000E+00
 -1      3385 9.86812E+01 2.45334E+01 0.00000E+00
 -1      3386 9.81753E+01 2.58611E+01 0.00000E+00
 -1      3387 1.16910E+01 1.54063E+01 0.00000E+00
 -1      3388 1.16910E+01 1.68750E+01 0.00000E+00
 -1      3389 1.29900E+01 1.46687E+01 0.00000E+00
 -1      3390 1.69669E+01 1.03515E+01 0.00000E+00
 -1      3391 1.54669E+01 1.03515E+01 0.00000E+00
 -1      3392 1.50806E+01 1.13509E+01 0.00000E+00
 -1      3393 1.77169E+01 1.16505E+01 0.00000E+00
 -1      3394 1.16910E+01 1.83469E+01 0.00000E+00
 -1      3395 1.16910E+01 1.98156E+01 0.00000E+00
 -1      3396 1.29900E+01 2.05531E+01 0.00000E+00
 -1      3397 1.29900E+01 1.76094E+01 0.00000E+00
 -1      3398 1.27573E+02 2.39525E+01 0.00000E+00
 -1      3399 1.28490E+02 2.48778E+01 0.00000E+00
 -1      3400 1.27936E+02 2.30071E+01 0.00000E+00
 -1      3401 9.99691E+01 2.24490E+01 0.00000E+00
 -1      3402 9.95394E+01 2.12898E+01 0.00000E+00
 -1      3403 9.91740E+01 2.29244E+01 0.00000E+00
 -1      3404 1.21258E+02 3.94933E+01 0.00000E+00
 -1      3405 1.21485E+01 3.27262E+01 0.00000E+00
 -1      3406 1.21485E+01 3.41950E+01 0.00000E+00
 -1      3407 1.43625E+01 3.42631E+01 0.00000E+00
 -1      3408 1.34475E+01 3.19919E+01 0.00000E+00
 -1      3409 2.34000E+01 3.57110E+01 0.00000E+00
 -1      3410 2.49000E+01 3.57110E+01 0.00000E+00
 -1      3411 2.64000E+01 3.57110E+01 0.00000E+00
 -1      3412 2.79000E+01 3.57110E+01 0.00000E+00
 -1      3413 2.56500E+01 3.44120E+01 0.00000E+00
 -1      3414 2.94000E+01 3.57110E+01 0.00000E+00
 -1      3415 3.09000E+01 3.57110E+01 0.00000E+00
 -1      3416 2.86500E+01 3.44120E+01 0.00000E+00
 -1      3417 3.24000E+01 3.57110E+01 0.00000E+00
 -1      3418 3.39000E+01 3.57110E+01 0.00000E+00
 -1      3419 3.16500E+01 3.44120E+01 0.00000E+00
 -1      3420 3.54000E+01 3.57110E+01 0.00000E+00
 -1      3421 3.69000E+01 3.57110E+01 0.00000E+00
 -1      3422 3.46500E+01 3.44120E+01 0.00000E+00
 -1      3423 3.84000E+01 3.57110E+01 0.00000E+00
 -1      3424 3.99000E+01 3.57110E+01 0.00000E+00
 -1      3425 3.76500E+01 3.44120E+01 0.00000E+00
 -1      3426 4.14000E+01 3.57110E+01 0.00000E+00
 -1      3427 4.29000E+01 3.57110E+01 0.00000E+00
 -1      3428 4.06500E+01 3.44120E+01 0.00000E+00
 -1      3429 4.44000E+01 3.57110E+01 0.00000E+00
 -1      3430 4.59000E+01 3.57110E+01 0.00000E+00
 -1      3431 4.36500E+01 3.44120E+01 0.00000E+00
 -1      3432 4.74000E+01 3.57110E+01 0.00000E+00
 -1      3433 4.89000E+01 3.57110E+01 0.00000E+00
 -1      3434 4.66500E+01 3.44120E+01 0.00000E+00
 -1      3435 5.04000E+01 3.57110E+01 0.00000E+00
 -1      3436 5.19000E+01 3.57110E+01 0.00000E+00
 -1      3437 4.96500E+01 3.44120E+01 0.00000E+00
 -1      3438 5.34000E+01 3.57110E+01 0.00000E+00
 -1      3439 5.49000E+01 3.57110E+01 0.00000E+00
 -1      3440 5.26500E+01 3.44120E+01 0.00000E+00
 -1      3441 5.64000E+01 3.57110E+01 0.00000E+00
 -1      3442 5.79000E+01 3.57110E+01 0.00000E+00
 -1      3443 5.56500E+01 3.44120E+01 0.00000E+00
 -1      3444 5.94000E+01 3.57110E+01 0.00000E+00
 -1      3445 6.09000E+01 3.57110E+01 0.00000E+00
 -1      3446 5.86500E+01 3.44120E+01 0.00000E+00
 -1      3447 6.24000E+01 3.57110E+01 0.00000E+00
 -1      3448 6.39000E+01 3.57110E+01 0.00000E+00
 -1      3449 6.16500E+01 3.44120E+01 0.00000E+00
 -1      3450 6.54000E+01 3.57110E+01 0.00000E+00
 -1      3451 6.69000E+01 3.57110E+01 0.00000E+00
 -1      3452 6.46500E+01 3.44120E+01 0.00000E+00
 -1      3453 6.84000E+01 3.57110E+01 0.00000E+00
 -1      3454 6.99000E+01 3.57110E+01 0.00000E+00
 -1      3455 6.76500E+01 3.44120E+01 0.00000E+00
 -1      3456 7.14000E+01 3.57110E+01 0.00000E+00
 -1      3457 7.29000E+01 3.57110E+01 0.00000E+00
 -1      3458 7.06500E+01 3.44120E+01 0.00000E+00
 -1      3459 7.44000E+01 3.57110E+01 0.00000E+00
 -1      3460 7.59000E+01 3.57110E+01 0.00000E+00
 -1      3461 7.36500E+01 3.44120E+01 0.00000E+00
 -1      3462 7.74000E+01 3.57110E+01 0.00000E+00
 -1      3463 7.89000E+01 3.57110E+01 0.00000E+00
 -1      3464 7.66500E+01 3.44120E+01 0.00000E+00
 -1      3465 8.04000E+01 3.57110E+01 0.00000E+00
 -1      3466 8.19000E+01 3.57110E+01 0.00000E+00
 -1      3467 7.96500E+01 3.44120E+01 0.00000E+00
 -1      3468 8.34000E+01 3.57110E+01 0.00000E+00
 -1      3469 8.49000E+01 3.57110E+01 0.00000E+00
 -1      3470 8.26500E+01 3.44120E+01 0.00000E+00
 -1      3471 8.64000E+01 3.57110E+01 0.00000E+00
 -1      3472 8.79000E+01 3.57110E+01 0.00000E+00
 -1      3473 8.56500E+01 3.44120E+01 0.00000E+00
 -1      3474 8.94000E+01 3.57110E+01 0.00000E+00
 -1      3475 9.09000E+01 3.57110E+01 0.00000E+00
 -1      3476 8.86500E+01 3.44120E+01 0.00000E+00
 -1      3477 9.24000E+01 3.57110E+01 0.00000E+00
 -1      3478 9.39000E+01 3.57110E+01 0.00000E+00
 -1      3479 9.16500E+01 3.44120E+01 0.00000E+00
 -1      3480 9.54000E+01 3.57110E+01 0.00000E+00
 -1      3481 9.69000E+01 3.57110E+01 0.00000E+00
 -1      3482 9.46500E+01 3.44120E+01 0.00000E+00
 -1      3483 9.85918E+01 3.49908E+01 0.00000E+00
 -1      3484 1.34073E+02 3.56880E+01 0.00000E+00
 -1      3485 1.35330E+02 3.56076E+01 0.00000E+00
 -1      3486 1.35753E+02 3.39054E+01 0.00000E+00
 -1      3487 1.22758E+02 3.94933E+01 0.00000E+00
 -1      3488 1.28400E+02 3.60912E+01 0.00000E+00
 -1      3489 1.29900E+02 3.60912E+01 0.00000E+00
 -1      3490 1.31236E+02 3.58896E+01 0.00000E+00
 -1      3491 1.32736E+02 3.58896E+01 0.00000E+00
 -1      3492 1.33160E+02 3.41874E+01 0.00000E+00
 -1      3493 1.30486E+02 3.45906E+01 0.00000E+00
 -1      3494 1.27413E+02 3.18703E+01 0.00000E+00
 -1      3495 1.27179E+02 3.34142E+01 0.00000E+00
 -1      3496 4.52850E+01 1.30992E+01 0.00000E+00
 -1      3497 4.37850E+01 1.30992E+01 0.00000E+00
 -1      3498 4.22850E+01 1.30992E+01 0.00000E+00
 -1      3499 4.07850E+01 1.30992E+01 0.00000E+00
 -1      3500 4.30350E+01 1.43982E+01 0.00000E+00
 -1      3501 5.12850E+01 1.30992E+01 0.00000E+00
 -1      3502 4.97850E+01 1.30992E+01 0.00000E+00
 -1      3503 5.42850E+01 1.30992E+01 0.00000E+00
 -1      3504 5.27850E+01 1.30992E+01 0.00000E+00
 -1      3505 5.20350E+01 1.43982E+01 0.00000E+00
 -1      3506 5.72850E+01 1.30992E+01 0.00000E+00
 -1      3507 5.57850E+01 1.30992E+01 0.00000E+00
 -1      3508 5.50350E+01 1.43982E+01 0.00000E+00
 -1      3509 6.02850E+01 1.30992E+01 0.00000E+00
 -1      3510 5.87850E+01 1.30992E+01 0.00000E+00
 -1      3511 5.80350E+01 1.43982E+01 0.00000E+00
 -1      3512 6.32850E+01 1.30992E+01 0.00000E+00
 -1      3513 6.17850E+01 1.30992E+01 0.00000E+00
 -1      3514 6.10350E+01 1.43982E+01 0.00000E+00
 -1      3515 6.62850E+01 1.30992E+01 0.00000E+00
 -1      3516 6.47850E+01 1.30992E+01 0.00000E+00
 -1      3517 6.40350E+01 1.43982E+01 0.00000E+00
 -1      3518 6.92850E+01 1.30992E+01 0.00000E+00
 -1      3519 6.77850E+01 1.30992E+01 0.00000E+00
 -1      3520 6.70350E+01 1.43982E+01 0.00000E+00
 -1      3521 7.22850E+01 1.30992E+01 0.00000E+00
 -1      3522 7.07850E+01 1.30992E+01 0.00000E+00
 -1      3523 7.00350E+01 1.43982E+01 0.00000E+00
 -1      3524 7.52850E+01 1.30992E+01 0.00000E+00
 -1      3525 7.37850E+01 1.30992E+01 0.00000E+00
 -1      3526 7.30350E+01 1.43982E+01 0.00000E+00
 -1      3527 7.82850E+01 1.30992E+01 0.00000E+00
 -1      3528 7.67850E+01 1.30992E+01 0.00000E+00
 -1      3529 7.60350E+01 1.43982E+01 0.00000E+00
 -1      3530 8.12850E+01 1.30992E+01 0.00000E+00
 -1      3531 7.97850E+01 1.30992E+01 0.00000E+00
 -1      3532 7.90350E+01 1.43982E+01 0.00000E+00
 -1      3533 8.42850E+01 1.30992E+01 0.00000E+00
 -1      3534 8.27850E+01 1.30992E+01 0.00000E+00
 -1      3535 8.20350E+01 1.43982E+01 0.00000E+00
 -1      3536 8.72850E+01 1.30992E+01 0.00000E+00
 -1      3537 8.57850E+01 1.30992E+01 0.00000E+00
 -1      3538 8.50350E+01 1.43982E+01 0.00000E+00
 -1      3539 9.02850E+01 1.30992E+01 0.00000E+00
 -1      3540 8.87850E+01 1.30992E+01 0.00000E+00
 -1      3541 8.80350E+01 1.43982E+01 0.00000E+00
 -1      3542 9.32850E+01 1.30992E+01 0.00000E+00
 -1      3543 9.17850E+01 1.30992E+01 0.00000E+00
 -1      3544 9.10350E+01 1.43982E+01 0.00000E+00
 -1      3545 9.62850E+01 1.30992E+01 0.00000E+00
 -1      3546 9.47850E+01 1.30992E+01 0.00000E+00
 -1      3547 9.40350E+01 1.43982E+01 0.00000E+00
 -1      3548 9.92850E+01 1.30992E+01 0.00000E+00
 -1      3549 9.77850E+01 1.30992E+01 0.00000E+00
 -1      3550 9.70350E+01 1.43982E+01 0.00000E+00
 -1      3551 1.01797E+02 1.30137E+01 0.00000E+00
 -1      3552 9.78418E+01 3.36918E+01 0.00000E+00
 -1      3553 1.00513E+02 1.42747E+01 0.00000E+00
 -1      3554 1.37400E+02 3.73965E+01 0.00000E+00
 -1      3555 1.23770E+02 1.32658E+01 0.00000E+00
 -1      3556 1.22270E+02 1.32658E+01 0.00000E+00
 -1      3557 1.32285E+02 1.30992E+01 0.00000E+00
 -1      3558 1.30785E+02 1.30992E+01 0.00000E+00
 -1      3559 1.35285E+02 1.30992E+01 0.00000E+00
 -1      3560 1.33785E+02 1.30992E+01 0.00000E+00
 -1      3561 1.33035E+02 1.43982E+01 0.00000E+00
 -1      3562 1.16910E+01 2.71844E+01 0.00000E+00
 -1      3563 1.16910E+01 2.86531E+01 0.00000E+00
 -1      3564 1.29900E+01 2.93875E+01 0.00000E+00
 -1      3565 1.28666E+02 2.72072E+01 0.00000E+00
 -1      3566 1.27732E+02 2.84049E+01 0.00000E+00
 -1      3567 1.29285E+02 1.30992E+01 0.00000E+00
 -1      3568 1.27785E+02 1.30992E+01 0.00000E+00
 -1      3569 1.30035E+02 1.43982E+01 0.00000E+00
 -1      3570 1.26528E+02 1.31825E+01 0.00000E+00
 -1      3571 1.25028E+02 1.31825E+01 0.00000E+00
 -1      3572 1.24763E+02 1.46481E+01 0.00000E+00
 -1      3573 1.27278E+02 1.44815E+01 0.00000E+00
 -1      3574 1.35753E+02 3.24304E+01 0.00000E+00
 -1      3575 1.35753E+02 3.09554E+01 0.00000E+00
 -1      3576 1.34496E+02 3.25108E+01 0.00000E+00
 -1      3577 1.19098E+02 1.21608E+01 0.00000E+00
 -1      3578 2.12850E+01 1.30992E+01 0.00000E+00
 -1      3579 1.97850E+01 1.30992E+01 0.00000E+00
 -1      3580 4.82850E+01 1.30992E+01 0.00000E+00
 -1      3581 4.67850E+01 1.30992E+01 0.00000E+00
 -1      3582 4.60350E+01 1.43982E+01 0.00000E+00
 -1      3583 4.90350E+01 1.43982E+01 0.00000E+00
 -1      3584 9.80783E+01 3.23140E+01 0.00000E+00
 -1      3585 9.76382E+01 3.09476E+01 0.00000E+00
 -1      3586 9.68597E+01 3.02787E+01 0.00000E+00
 -1      3587 9.63866E+01 3.30342E+01 0.00000E+00
 -1      3588 1.26808E+02 3.57052E+01 0.00000E+00
 -1      3589 3.32850E+01 1.30992E+01 0.00000E+00
 -1      3590 3.17850E+01 1.30992E+01 0.00000E+00
 -1      3591 1.38643E+02 1.48068E+01 0.00000E+00
 -1      3592 1.38709E+02 1.35665E+01 0.00000E+00
 -1      3593 1.37750E+02 1.33444E+01 0.00000E+00
 -1      3594 1.37344E+02 1.55443E+01 0.00000E+00
 -1      3595 1.26456E+02 1.99040E+01 0.00000E+00
 -1      3596 1.27335E+02 2.10189E+01 0.00000E+00
 -1      3597 1.26771E+02 1.88410E+01 0.00000E+00
 -1      3598 1.20174E+02 1.23772E+01 0.00000E+00
 -1      3599 2.04000E+01 3.57110E+01 0.00000E+00
 -1      3600 2.19000E+01 3.57110E+01 0.00000E+00
 -1      3601 2.26500E+01 3.44120E+01 0.00000E+00
 -1      3602 1.27819E+02 2.97619E+01 0.00000E+00
 -1      3603 1.21177E+02 1.34521E+01 0.00000E+00
 -1      3604 1.28567E+02 2.08812E+01 0.00000E+00
 -1      3605 1.28252E+02 2.19441E+01 0.00000E+00
 -1      3606 1.29168E+02 2.28694E+01 0.00000E+00
 -1      3607 1.28799E+02 3.06997E+01 0.00000E+00
 -1      3608 9.91229E+01 1.99376E+01 0.00000E+00
 -1      3609 9.87064E+01 1.85853E+01 0.00000E+00
 -1      3610 9.83278E+01 2.04129E+01 0.00000E+00
 -1      3611 3.02850E+01 1.30992E+01 0.00000E+00
 -1      3612 2.87850E+01 1.30992E+01 0.00000E+00
 -1      3613 3.10350E+01 1.43982E+01 0.00000E+00
 -1      3614 1.23508E+02 3.81943E+01 0.00000E+00
 -1      3615 1.53386E+01 3.32099E+01 0.00000E+00
 -1      3616 1.57961E+01 3.43455E+01 0.00000E+00
 -1      3617 1.35711E+02 2.72188E+01 0.00000E+00
 -1      3618 1.35711E+02 2.57563E+01 0.00000E+00
 -1      3619 2.65350E+01 1.18003E+01 0.00000E+00
 -1      3620 4.00350E+01 1.43982E+01 0.00000E+00
 -1      3621 3.92850E+01 1.30992E+01 0.00000E+00
 -1      3622 3.77850E+01 1.30992E+01 0.00000E+00
 -1      3623 1.42890E+01 2.86531E+01 0.00000E+00
 -1      3624 1.42890E+01 3.01219E+01 0.00000E+00
 -1      3625 1.27558E+02 3.44062E+01 0.00000E+00
 -1      3626 1.45851E+01 3.10981E+01 0.00000E+00
 -1      3627 1.50426E+01 3.22337E+01 0.00000E+00
 -1      3628 1.64762E+01 3.23161E+01 0.00000E+00
 -1      3629 1.58841E+01 3.03637E+01 0.00000E+00
 -1      3630 1.42890E+01 1.39344E+01 0.00000E+00
 -1      3631 1.42890E+01 1.54031E+01 0.00000E+00
 -1      3632 1.35746E+02 1.84362E+01 0.00000E+00
 -1      3633 1.35811E+02 1.71959E+01 0.00000E+00
 -1      3634 1.29900E+01 2.64469E+01 0.00000E+00
 -1      3635 1.36791E+02 1.31223E+01 0.00000E+00
 -1      3636 2.42850E+01 1.30992E+01 0.00000E+00
 -1      3637 2.27850E+01 1.30992E+01 0.00000E+00
 -1      3638 2.20350E+01 1.43982E+01 0.00000E+00
 -1      3639 1.35711E+02 2.42813E+01 0.00000E+00
 -1      3640 1.35711E+02 2.28062E+01 0.00000E+00
 -1      3641 1.34412E+02 2.50125E+01 0.00000E+00
 -1      3642 1.35728E+02 2.13587E+01 0.00000E+00
 -1      3643 1.35728E+02 1.98837E+01 0.00000E+00
 -1      3644 1.34464E+02 1.91949E+01 0.00000E+00
 -1      3645 1.34429E+02 2.20900E+01 0.00000E+00
 -1      3646 1.25053E+02 1.57487E+01 0.00000E+00
 -1      3647 1.28771E+02 3.38001E+01 0.00000E+00
 -1      3648 1.42890E+01 1.98172E+01 0.00000E+00
 -1      3649 1.42890E+01 2.12891E+01 0.00000E+00
 -1      3650 9.90182E+01 1.62541E+01 0.00000E+00
 -1      3651 9.97634E+01 1.55737E+01 0.00000E+00
 -1      3652 1.42890E+01 2.27641E+01 0.00000E+00
 -1      3653 1.42890E+01 2.42391E+01 0.00000E+00
 -1      3654 1.55880E+01 2.20281E+01 0.00000E+00
 -1      3655 1.35753E+02 2.94929E+01 0.00000E+00
 -1      3656 9.66796E+01 2.80231E+01 0.00000E+00
 -1      3657 9.74274E+01 2.69421E+01 0.00000E+00
 -1      3658 9.70108E+01 2.60643E+01 0.00000E+00
 -1      3659 1.25956E+02 1.61454E+01 0.00000E+00
 -1      3660 1.48779E+01 1.21429E+01 0.00000E+00
 -1      3661 1.44917E+01 1.31424E+01 0.00000E+00
 -1      3662 1.57907E+01 1.38767E+01 0.00000E+00
 -1      3663 1.61961E+01 1.22927E+01 0.00000E+00
 -1      3664 1.29586E+02 2.60518E+01 0.00000E+00
 -1      3665 1.30125E+02 2.74358E+01 0.00000E+00
 -1      3666 3.62850E+01 1.30992E+01 0.00000E+00
 -1      3667 3.47850E+01 1.30992E+01 0.00000E+00
 -1      3668 3.40350E+01 1.43982E+01 0.00000E+00
 -1      3669 3.70350E+01 1.43982E+01 0.00000E+00
 -1      3670 1.90350E+01 1.43983E+01 0.00000E+00
 -1      3671 1.82850E+01 1.30993E+01 0.00000E+00
 -1      3672 1.69669E+01 1.29495E+01 0.00000E+00
 -1      3673 9.82515E+01 2.33742E+01 0.00000E+00
 -1      3674 9.78218E+01 2.22150E+01 0.00000E+00
 -1      3675 9.73289E+01 2.38241E+01 0.00000E+00
 -1      3676 1.29949E+02 2.51064E+01 0.00000E+00
 -1      3677 1.70036E+01 3.47483E+01 0.00000E+00
 -1      3678 1.80981E+01 3.50283E+01 0.00000E+00
 -1      3679 1.93056E+01 3.54311E+01 0.00000E+00
 -1      3680 2.00556E+01 3.41321E+01 0.00000E+00
 -1      3681 1.78667E+01 3.35722E+01 0.00000E+00
 -1      3682 1.36041E+02 1.44213E+01 0.00000E+00
 -1      3683 1.35838E+02 1.55213E+01 0.00000E+00
 -1      3684 1.34508E+02 1.60728E+01 0.00000E+00
 -1      3685 2.79000E+01 3.31130E+01 0.00000E+00
 -1      3686 2.94000E+01 3.31130E+01 0.00000E+00
 -1      3687 3.09000E+01 3.31130E+01 0.00000E+00
 -1      3688 3.24000E+01 3.31130E+01 0.00000E+00
 -1      3689 3.01500E+01 3.18140E+01 0.00000E+00
 -1      3690 3.39000E+01 3.31130E+01 0.00000E+00
 -1      3691 3.54000E+01 3.31130E+01 0.00000E+00
 -1      3692 3.31500E+01 3.18140E+01 0.00000E+00
 -1      3693 3.69000E+01 3.31130E+01 0.00000E+00
 -1      3694 3.84000E+01 3.31130E+01 0.00000E+00
 -1      3695 3.61500E+01 3.18140E+01 0.00000E+00
 -1      3696 3.99000E+01 3.31130E+01 0.00000E+00
 -1      3697 4.14000E+01 3.31130E+01 0.00000E+00
 -1      3698 3.91500E+01 3.18140E+01 0.00000E+00
 -1      3699 4.29000E+01 3.31130E+01 0.00000E+00
 -1      3700 4.44000E+01 3.31130E+01 0.00000E+00
 -1      3701 4.21500E+01 3.18140E+01 0.00000E+00
 -1      3702 4.59000E+01 3.31130E+01 0.00000E+00
 -1      3703 4.74000E+01 3.31130E+01 0.00000E+00
 -1      3704 4.51500E+01 3.18140E+01 0.00000E+00
 -1      3705 4.89000E+01 3.31130E+01 0.00000E+00
 -1      3706 5.04000E+01 3.31130E+01 0.00000E+00
 -1      3707 4.81500E+01 3.18140E+01 0.00000E+00
 -1      3708 5.19000E+01 3.31130E+01 0.00000E+00
 -1      3709 5.34000E+01 3.31130E+01 0.00000E+00
 -1      3710 5.11500E+01 3.18140E+01 0.00000E+00
 -1      3711 5.49000E+01 3.31130E+01 0.00000E+00
 -1      3712 5.64000E+01 3.31130E+01 0.00000E+00
 -1      3713 5.41500E+01 3.18140E+01 0.00000E+00
 -1      3714 5.79000E+01 3.31130E+01 0.00000E+00
 -1      3715 5.94000E+01 3.31130E+01 0.00000E+00
 -1      3716 5.71500E+01 3.18140E+01 0.00000E+00
 -1      3717 6.09000E+01 3.31130E+01 0.00000E+00
 -1      3718 6.24000E+01 3.31130E+01 0.00000E+00
 -1      3719 6.01500E+01 3.18140E+01 0.00000E+00
 -1      3720 6.39000E+01 3.31130E+01 0.00000E+00
 -1      3721 6.54000E+01 3.31130E+01 0.00000E+00
 -1      3722 6.31500E+01 3.18140E+01 0.00000E+00
 -1      3723 6.69000E+01 3.31130E+01 0.00000E+00
 -1      3724 6.84000E+01 3.31130E+01 0.00000E+00
 -1      3725 6.61500E+01 3.18140E+01 0.00000E+00
 -1      3726 6.99000E+01 3.31130E+01 0.00000E+00
 -1      3727 7.14000E+01 3.31130E+01 0.00000E+00
 -1      3728 6.91500E+01 3.18140E+01 0.00000E+00
 -1      3729 7.29000E+01 3.31130E+01 0.00000E+00
 -1      3730 7.44000E+01 3.31130E+01 0.00000E+00
 -1      3731 7.21500E+01 3.18140E+01 0.00000E+00
 -1      3732 7.59000E+01 3.31130E+01 0.00000E+00
 -1      3733 7.74000E+01 3.31130E+01 0.00000E+00
 -1      3734 7.51500E+01 3.18140E+01 0.00000E+00
 -1      3735 7.89000E+01 3.31130E+01 0.00000E+00
 -1      3736 8.04000E+01 3.31130E+01 0.00000E+00
 -1      3737 7.81500E+01 3.18140E+01 0.00000E+00
 -1      3738 8.19000E+01 3.31130E+01 0.00000E+00
 -1      3739 8.34000E+01 3.31130E+01 0.00000E+00
 -1      3740 8.11500E+01 3.18140E+01 0.00000E+00
 -1      3741 8.49000E+01 3.31130E+01 0.00000E+00
 -1      3742 8.64000E+01 3.31130E+01 0.00000E+00
 -1      3743 8.41500E+01 3.18140E+01 0.00000E+00
 -1      3744 8.79000E+01 3.31130E+01 0.00000E+00
 -1      3745 8.94000E+01 3.31130E+01 0.00000E+00
 -1      3746 8.71500E+01 3.18140E+01 0.00000E+00
 -1      3747 9.09000E+01 3.31130E+01 0.00000E+00
 -1      3748 9.24000E+01 3.31130E+01 0.00000E+00
 -1      3749 9.01500E+01 3.18140E+01 0.00000E+00
 -1      3750 9.36433E+01 3.30736E+01 0.00000E+00
 -1      3751 9.51433E+01 3.30736E+01 0.00000E+00
 -1      3752 9.53798E+01 3.16959E+01 0.00000E+00
 -1      3753 9.28933E+01 3.17746E+01 0.00000E+00
 -1      3754 4.37850E+01 1.56973E+01 0.00000E+00
 -1      3755 4.22850E+01 1.56973E+01 0.00000E+00
 -1      3756 2.19000E+01 3.31130E+01 0.00000E+00
 -1      3757 2.34000E+01 3.31130E+01 0.00000E+00
 -1      3758 1.34454E+02 2.87617E+01 0.00000E+00
 -1      3759 1.33008E+02 1.60728E+01 0.00000E+00
 -1      3760 2.72850E+01 1.30992E+01 0.00000E+00
 -1      3761 2.57850E+01 1.30992E+01 0.00000E+00
 -1      3762 2.80350E+01 1.43982E+01 0.00000E+00
 -1      3763 5.57850E+01 1.56973E+01 0.00000E+00
 -1      3764 5.42850E+01 1.56973E+01 0.00000E+00
 -1      3765 5.27850E+01 1.56973E+01 0.00000E+00
 -1      3766 5.12850E+01 1.56973E+01 0.00000E+00
 -1      3767 5.35350E+01 1.69963E+01 0.00000E+00
 -1      3768 6.17850E+01 1.56973E+01 0.00000E+00
 -1      3769 6.02850E+01 1.56973E+01 0.00000E+00
 -1      3770 6.47850E+01 1.56973E+01 0.00000E+00
 -1      3771 6.32850E+01 1.56973E+01 0.00000E+00
 -1      3772 6.25350E+01 1.69963E+01 0.00000E+00
 -1      3773 6.77850E+01 1.56973E+01 0.00000E+00
 -1      3774 6.62850E+01 1.56973E+01 0.00000E+00
 -1      3775 6.55350E+01 1.69963E+01 0.00000E+00
 -1      3776 7.07850E+01 1.56973E+01 0.00000E+00
 -1      3777 6.92850E+01 1.56973E+01 0.00000E+00
 -1      3778 6.85350E+01 1.69963E+01 0.00000E+00
 -1      3779 7.37850E+01 1.56973E+01 0.00000E+00
 -1      3780 7.22850E+01 1.56973E+01 0.00000E+00
 -1      3781 7.15350E+01 1.69963E+01 0.00000E+00
 -1      3782 7.67850E+01 1.56973E+01 0.00000E+00
 -1      3783 7.52850E+01 1.56973E+01 0.00000E+00
 -1      3784 7.45350E+01 1.69963E+01 0.00000E+00
 -1      3785 7.97850E+01 1.56973E+01 0.00000E+00
 -1      3786 7.82850E+01 1.56973E+01 0.00000E+00
 -1      3787 7.75350E+01 1.69963E+01 0.00000E+00
 -1      3788 8.27850E+01 1.56973E+01 0.00000E+00
 -1      3789 8.12850E+01 1.56973E+01 0.00000E+00
 -1      3790 8.05350E+01 1.69963E+01 0.00000E+00
 -1      3791 8.57850E+01 1.56973E+01 0.00000E+00
 -1      3792 8.42850E+01 1.56973E+01 0.00000E+00
 -1      3793 8.35350E+01 1.69963E+01 0.00000E+00
 -1      3794 8.87850E+01 1.56973E+01 0.00000E+00
 -1      3795 8.72850E+01 1.56973E+01 0.00000E+00
 -1      3796 8.65350E+01 1.69963E+01 0.00000E+00
 -1      3797 9.17850E+01 1.56973E+01 0.00000E+00
 -1      3798 9.02850E+01 1.56973E+01 0.00000E+00
 -1      3799 8.95350E+01 1.69963E+01 0.00000E+00
 -1      3800 9.47850E+01 1.56973E+01 0.00000E+00
 -1      3801 9.32850E+01 1.56973E+01 0.00000E+00
 -1      3802 9.25350E+01 1.69963E+01 0.00000E+00
 -1      3803 1.32769E+02 1.77681E+01 0.00000E+00
 -1      3804 1.31296E+02 1.60935E+01 0.00000E+00
 -1      3805 5.87850E+01 1.56973E+01 0.00000E+00
 -1      3806 5.72850E+01 1.56973E+01 0.00000E+00
 -1      3807 5.95350E+01 1.69963E+01 0.00000E+00
 -1      3808 1.33160E+02 3.27124E+01 0.00000E+00
 -1      3809 1.33160E+02 3.12374E+01 0.00000E+00
 -1      3810 1.31823E+02 3.29140E+01 0.00000E+00
 -1      3811 1.42890E+01 2.57102E+01 0.00000E+00
 -1      3812 1.42890E+01 2.71820E+01 0.00000E+00
 -1      3813 1.55880E+01 2.79164E+01 0.00000E+00
 -1      3814 1.55880E+01 2.49742E+01 0.00000E+00
 -1      3815 9.81123E+01 1.74197E+01 0.00000E+00
 -1      3816 9.76291E+01 1.55639E+01 0.00000E+00
 -1      3817 9.61291E+01 1.55639E+01 0.00000E+00
 -1      3818 9.73172E+01 1.78951E+01 0.00000E+00
 -1      3819 1.29796E+02 1.60935E+01 0.00000E+00
 -1      3820 1.28505E+02 1.60778E+01 0.00000E+00
 -1      3821 1.27247E+02 1.61611E+01 0.00000E+00
 -1      3822 1.27183E+02 1.77417E+01 0.00000E+00
 -1      3823 1.29766E+02 1.77731E+01 0.00000E+00
 -1      3824 1.97850E+01 1.56973E+01 0.00000E+00
 -1      3825 1.82851E+01 1.56973E+01 0.00000E+00
 -1      3826 1.42890E+01 1.68742E+01 0.00000E+00
 -1      3827 1.42890E+01 1.83461E+01 0.00000E+00
 -1      3828 1.55880E+01 1.90820E+01 0.00000E+00
 -1      3829 1.55880E+01 1.61398E+01 0.00000E+00
 -1      3830 1.30514E+02 3.00151E+01 0.00000E+00
 -1      3831 1.30108E+02 3.21235E+01 0.00000E+00
 -1      3832 1.28063E+02 1.88567E+01 0.00000E+00
 -1      3833 2.49000E+01 3.31130E+01 0.00000E+00
 -1      3834 2.64000E+01 3.31130E+01 0.00000E+00
 -1      3835 2.41500E+01 3.18140E+01 0.00000E+00
 -1      3836 2.71500E+01 3.18140E+01 0.00000E+00
 -1      3837 4.15350E+01 1.69963E+01 0.00000E+00
 -1      3838 4.07850E+01 1.56973E+01 0.00000E+00
 -1      3839 3.92850E+01 1.56973E+01 0.00000E+00
 -1      3840 2.08056E+01 3.28331E+01 0.00000E+00
 -1      3841 2.15556E+01 3.15341E+01 0.00000E+00
 -1      3842 1.97111E+01 3.25532E+01 0.00000E+00
 -1      3843 9.74053E+01 2.08628E+01 0.00000E+00
 -1      3844 9.69888E+01 1.95105E+01 0.00000E+00
 -1      3845 9.64827E+01 2.13126E+01 0.00000E+00
 -1      3846 3.17850E+01 1.56973E+01 0.00000E+00
 -1      3847 3.02850E+01 1.56973E+01 0.00000E+00
 -1      3848 1.33199E+02 2.99223E+01 0.00000E+00
 -1      3849 1.33157E+02 2.76482E+01 0.00000E+00
 -1      3850 1.30486E+02 3.31156E+01 0.00000E+00
 -1      3851 1.68870E+01 2.71809E+01 0.00000E+00
 -1      3852 1.68870E+01 2.86520E+01 0.00000E+00
 -1      3853 4.52850E+01 1.56973E+01 0.00000E+00
 -1      3854 4.45350E+01 1.69963E+01 0.00000E+00
 -1      3855 4.67850E+01 1.56973E+01 0.00000E+00
 -1      3856 9.56164E+01 3.03181E+01 0.00000E+00
 -1      3857 9.58529E+01 2.89404E+01 0.00000E+00
 -1      3858 9.43731E+01 3.03575E+01 0.00000E+00
 -1      3859 1.32752E+02 1.92156E+01 0.00000E+00
 -1      3860 5.65350E+01 1.69963E+01 0.00000E+00
 -1      3861 9.53791E+01 1.68629E+01 0.00000E+00
 -1      3862 1.71831E+01 2.96282E+01 0.00000E+00
 -1      3863 1.74791E+01 3.06044E+01 0.00000E+00
 -1      3864 1.84821E+01 2.88926E+01 0.00000E+00
 -1      3865 2.50350E+01 1.43982E+01 0.00000E+00
 -1      3866 1.32728E+02 2.63840E+01 0.00000E+00
 -1      3867 1.32728E+02 2.49090E+01 0.00000E+00
 -1      3868 9.54363E+01 2.80625E+01 0.00000E+00
 -1      3869 4.97850E+01 1.56973E+01 0.00000E+00
 -1      3870 4.82850E+01 1.56973E+01 0.00000E+00
 -1      3871 4.75350E+01 1.69963E+01 0.00000E+00
 -1      3872 2.12850E+01 1.56973E+01 0.00000E+00
 -1      3873 2.05351E+01 1.69963E+01 0.00000E+00
 -1      3874 2.27850E+01 1.56973E+01 0.00000E+00
 -1      3875 3.47850E+01 1.56973E+01 0.00000E+00
 -1      3876 3.32850E+01 1.56973E+01 0.00000E+00
 -1      3877 3.25350E+01 1.69963E+01 0.00000E+00
 -1      3878 1.68870E+01 1.83465E+01 0.00000E+00
 -1      3879 1.68870E+01 1.98176E+01 0.00000E+00
 -1      3880 9.65811E+01 2.49051E+01 0.00000E+00
 -1      3881 9.61513E+01 2.37459E+01 0.00000E+00
 -1      3882 9.58332E+01 2.59861E+01 0.00000E+00
 -1      3883 1.68870E+01 2.12926E+01 0.00000E+00
 -1      3884 1.68870E+01 2.27676E+01 0.00000E+00
 -1      3885 1.81860E+01 2.05570E+01 0.00000E+00
 -1      3886 1.30334E+02 2.36483E+01 0.00000E+00
 -1      3887 1.31430E+02 2.48223E+01 0.00000E+00
 -1      3888 1.29373E+02 1.87775E+01 0.00000E+00
 -1      3889 1.28961E+02 1.98768E+01 0.00000E+00
 -1      3890 1.29877E+02 2.08020E+01 0.00000E+00
 -1      3891 1.30664E+02 1.87932E+01 0.00000E+00
 -1      3892 1.31473E+02 2.75446E+01 0.00000E+00
 -1      3893 1.30553E+02 2.87000E+01 0.00000E+00
 -1      3894 1.31862E+02 3.01239E+01 0.00000E+00
 -1      3895 5.05350E+01 1.69963E+01 0.00000E+00
 -1      3896 1.30649E+02 2.25853E+01 0.00000E+00
 -1      3897 1.67642E+01 1.37415E+01 0.00000E+00
 -1      3898 1.65615E+01 1.45335E+01 0.00000E+00
 -1      3899 2.94000E+01 3.05150E+01 0.00000E+00
 -1      3900 3.09000E+01 3.05150E+01 0.00000E+00
 -1      3901 3.24000E+01 3.05150E+01 0.00000E+00
 -1      3902 3.39000E+01 3.05150E+01 0.00000E+00
 -1      3903 3.16500E+01 2.92160E+01 0.00000E+00
 -1      3904 3.54000E+01 3.05150E+01 0.00000E+00
 -1      3905 3.69000E+01 3.05150E+01 0.00000E+00
 -1      3906 3.46500E+01 2.92160E+01 0.00000E+00
 -1      3907 3.84000E+01 3.05150E+01 0.00000E+00
 -1      3908 3.99000E+01 3.05150E+01 0.00000E+00
 -1      3909 3.76500E+01 2.92160E+01 0.00000E+00
 -1      3910 4.14000E+01 3.05150E+01 0.00000E+00
 -1      3911 4.29000E+01 3.05150E+01 0.00000E+00
 -1      3912 4.06500E+01 2.92160E+01 0.00000E+00
 -1      3913 4.44000E+01 3.05150E+01 0.00000E+00
 -1      3914 4.59000E+01 3.05150E+01 0.00000E+00
 -1      3915 4.36500E+01 2.92160E+01 0.00000E+00
 -1      3916 4.74000E+01 3.05150E+01 0.00000E+00
 -1      3917 4.89000E+01 3.05150E+01 0.00000E+00
 -1      3918 4.66500E+01 2.92160E+01 0.00000E+00
 -1      3919 5.04000E+01 3.05150E+01 0.00000E+00
 -1      3920 5.19000E+01 3.05150E+01 0.00000E+00
 -1      3921 4.96500E+01 2.92160E+01 0.00000E+00
 -1      3922 5.34000E+01 3.05150E+01 0.00000E+00
 -1      3923 5.49000E+01 3.05150E+01 0.00000E+00
 -1      3924 5.26500E+01 2.92160E+01 0.00000E+00
 -1      3925 5.64000E+01 3.05150E+01 0.00000E+00
 -1      3926 5.79000E+01 3.05150E+01 0.00000E+00
 -1      3927 5.56500E+01 2.92160E+01 0.00000E+00
 -1      3928 5.94000E+01 3.05150E+01 0.00000E+00
 -1      3929 6.09000E+01 3.05150E+01 0.00000E+00
 -1      3930 5.86500E+01 2.92160E+01 0.00000E+00
 -1      3931 6.24000E+01 3.05150E+01 0.00000E+00
 -1      3932 6.39000E+01 3.05150E+01 0.00000E+00
 -1      3933 6.16500E+01 2.92160E+01 0.00000E+00
 -1      3934 6.54000E+01 3.05150E+01 0.00000E+00
 -1      3935 6.69000E+01 3.05150E+01 0.00000E+00
 -1      3936 6.46500E+01 2.92160E+01 0.00000E+00
 -1      3937 6.84000E+01 3.05150E+01 0.00000E+00
 -1      3938 6.99000E+01 3.05150E+01 0.00000E+00
 -1      3939 6.76500E+01 2.92160E+01 0.00000E+00
 -1      3940 7.14000E+01 3.05150E+01 0.00000E+00
 -1      3941 7.29000E+01 3.05150E+01 0.00000E+00
 -1      3942 7.06500E+01 2.92160E+01 0.00000E+00
 -1      3943 7.44000E+01 3.05150E+01 0.00000E+00
 -1      3944 7.59000E+01 3.05150E+01 0.00000E+00
 -1      3945 7.36500E+01 2.92160E+01 0.00000E+00
 -1      3946 7.74000E+01 3.05150E+01 0.00000E+00
 -1      3947 7.89000E+01 3.05150E+01 0.00000E+00
 -1      3948 7.66500E+01 2.92160E+01 0.00000E+00
 -1      3949 8.04000E+01 3.05150E+01 0.00000E+00
 -1      3950 8.19000E+01 3.05150E+01 0.00000E+00
 -1      3951 7.96500E+01 2.92160E+01 0.00000E+00
 -1      3952 8.34000E+01 3.05150E+01 0.00000E+00
 -1      3953 8.49000E+01 3.05150E+01 0.00000E+00
 -1      3954 8.26500E+01 2.92160E+01 0.00000E+00
 -1      3955 8.64000E+01 3.05150E+01 0.00000E+00
 -1      3956 8.79000E+01 3.05150E+01 0.00000E+00
 -1      3957 8.56500E+01 2.92160E+01 0.00000E+00
 -1      3958 8.94000E+01 3.05150E+01 0.00000E+00
 -1      3959 9.09000E+01 3.05150E+01 0.00000E+00
 -1      3960 8.86500E+01 2.92160E+01 0.00000E+00
 -1      3961 2.64000E+01 3.05150E+01 0.00000E+00
 -1      3962 2.79000E+01 3.05150E+01 0.00000E+00
 -1      3963 2.86500E+01 2.92160E+01 0.00000E+00
 -1      3964 1.33113E+02 2.34508E+01 0.00000E+00
 -1      3965 1.65615E+01 1.60046E+01 0.00000E+00
 -1      3966 2.57850E+01 1.56973E+01 0.00000E+00
 -1      3967 2.42850E+01 1.56973E+01 0.00000E+00
 -1      3968 2.35351E+01 1.69963E+01 0.00000E+00
 -1      3969 5.42850E+01 1.82952E+01 0.00000E+00
 -1      3970 5.27850E+01 1.82952E+01 0.00000E+00
 -1      3971 1.68870E+01 2.57098E+01 0.00000E+00
 -1      3972 1.81860E+01 2.64453E+01 0.00000E+00
 -1      3973 1.68870E+01 2.42387E+01 0.00000E+00
 -1      3974 1.75713E+01 3.14510E+01 0.00000E+00
 -1      3975 1.78673E+01 3.24272E+01 0.00000E+00
 -1      3976 2.87850E+01 1.56973E+01 0.00000E+00
 -1      3977 2.72850E+01 1.56973E+01 0.00000E+00
 -1      3978 2.65350E+01 1.69963E+01 0.00000E+00
 -1      3979 2.95350E+01 1.69963E+01 0.00000E+00
 -1      3980 9.63947E+01 1.83449E+01 0.00000E+00
 -1      3981 1.30912E+02 2.17370E+01 0.00000E+00
 -1      3982 1.32078E+02 2.25159E+01 0.00000E+00
 -1      3983 1.33377E+02 2.26025E+01 0.00000E+00
 -1      3984 1.31306E+02 2.07326E+01 0.00000E+00
 -1      3985 6.62850E+01 1.82952E+01 0.00000E+00
 -1      3986 6.47850E+01 1.82952E+01 0.00000E+00
 -1      3987 6.32850E+01 1.82952E+01 0.00000E+00
 -1      3988 6.17850E+01 1.82952E+01 0.00000E+00
 -1      3989 6.40350E+01 1.95942E+01 0.00000E+00
 -1      3990 7.22850E+01 1.82952E+01 0.00000E+00
 -1      3991 7.07850E+01 1.82952E+01 0.00000E+00
 -1      3992 7.52850E+01 1.82952E+01 0.00000E+00
 -1      3993 7.37850E+01 1.82952E+01 0.00000E+00
 -1      3994 7.30350E+01 1.95942E+01 0.00000E+00
 -1      3995 7.82850E+01 1.82952E+01 0.00000E+00
 -1      3996 7.67850E+01 1.82952E+01 0.00000E+00
 -1      3997 7.60350E+01 1.95942E+01 0.00000E+00
 -1      3998 8.12850E+01 1.82952E+01 0.00000E+00
 -1      3999 7.97850E+01 1.82952E+01 0.00000E+00
 -1      4000 7.90350E+01 1.95942E+01 0.00000E+00
 -1      4001 8.42850E+01 1.82952E+01 0.00000E+00
 -1      4002 8.27850E+01 1.82952E+01 0.00000E+00
 -1      4003 8.20350E+01 1.95942E+01 0.00000E+00
 -1      4004 8.72850E+01 1.82952E+01 0.00000E+00
 -1      4005 8.57850E+01 1.82952E+01 0.00000E+00
 -1      4006 8.50350E+01 1.95942E+01 0.00000E+00
 -1      4007 9.02850E+01 1.82952E+01 0.00000E+00
 -1      4008 8.87850E+01 1.82952E+01 0.00000E+00
 -1      4009 8.80350E+01 1.95942E+01 0.00000E+00
 -1      4010 9.32850E+01 1.82952E+01 0.00000E+00
 -1      4011 9.17850E+01 1.82952E+01 0.00000E+00
 -1      4012 9.10350E+01 1.95942E+01 0.00000E+00
 -1      4013 5.72850E+01 1.82952E+01 0.00000E+00
 -1      4014 5.57850E+01 1.82952E+01 0.00000E+00
 -1      4015 5.50350E+01 1.95942E+01 0.00000E+00
 -1      4016 9.50506E+01 1.84783E+01 0.00000E+00
 -1      4017 1.88703E+01 3.07154E+01 0.00000E+00
 -1      4018 1.89618E+01 3.27071E+01 0.00000E+00
 -1      4019 1.73115E+01 1.73036E+01 0.00000E+00
 -1      4020 9.41799E+01 2.78206E+01 0.00000E+00
 -1      4021 9.50066E+01 2.69033E+01 0.00000E+00
 -1      4022 9.45768E+01 2.57442E+01 0.00000E+00
 -1      4023 1.33394E+02 2.11550E+01 0.00000E+00
 -1      4024 5.12850E+01 1.82952E+01 0.00000E+00
 -1      4025 4.97850E+01 1.82952E+01 0.00000E+00
 -1      4026 5.20350E+01 1.95942E+01 0.00000E+00
 -1      4027 3.77850E+01 1.56973E+01 0.00000E+00
 -1      4028 3.62850E+01 1.56973E+01 0.00000E+00
 -1      4029 3.55350E+01 1.69963E+01 0.00000E+00
 -1      4030 3.85350E+01 1.69963E+01 0.00000E+00
 -1      4031 1.86105E+01 1.80391E+01 0.00000E+00
 -1      4032 2.34000E+01 3.05150E+01 0.00000E+00
 -1      4033 2.49000E+01 3.05150E+01 0.00000E+00
 -1      4034 2.56500E+01 2.92160E+01 0.00000E+00
 -1      4035 6.02850E+01 1.82952E+01 0.00000E+00
 -1      4036 5.87850E+01 1.82952E+01 0.00000E+00
 -1      4037 5.80350E+01 1.95942E+01 0.00000E+00
 -1      4038 6.92850E+01 1.82952E+01 0.00000E+00
 -1      4039 6.77850E+01 1.82952E+01 0.00000E+00
 -1      4040 6.70350E+01 1.95942E+01 0.00000E+00
 -1      4041 2.01105E+01 1.80391E+01 0.00000E+00
 -1      4042 1.96860E+01 1.90820E+01 0.00000E+00
 -1      4043 2.16105E+01 1.80391E+01 0.00000E+00
 -1      4044 4.22850E+01 1.82952E+01 0.00000E+00
 -1      4045 4.07850E+01 1.82952E+01 0.00000E+00
 -1      4046 9.20149E+01 3.04559E+01 0.00000E+00
 -1      4047 9.32582E+01 3.04166E+01 0.00000E+00
 -1      4048 9.34947E+01 2.90388E+01 0.00000E+00
 -1      4049 9.12649E+01 2.91569E+01 0.00000E+00
 -1      4050 9.54495E+01 2.23711E+01 0.00000E+00
 -1      4051 9.50330E+01 2.10189E+01 0.00000E+00
 -1      4052 3.02850E+01 1.82953E+01 0.00000E+00
 -1      4053 2.87850E+01 1.82953E+01 0.00000E+00
 -1      4054 1.81860E+01 2.35031E+01 0.00000E+00
 -1      4055 9.43006E+01 1.97773E+01 0.00000E+00
 -1      4056 1.94850E+01 2.57098E+01 0.00000E+00
 -1      4057 1.94850E+01 2.71809E+01 0.00000E+00
 -1      4058 4.52850E+01 1.82952E+01 0.00000E+00
 -1      4059 4.37850E+01 1.82952E+01 0.00000E+00
 -1      4060 4.30350E+01 1.95942E+01 0.00000E+00
 -1      4061 9.47016E+01 2.34521E+01 0.00000E+00
 -1      4062 6.10350E+01 1.95942E+01 0.00000E+00
 -1      4063 2.10801E+01 2.74215E+01 0.00000E+00
 -1      4064 1.97811E+01 2.81571E+01 0.00000E+00
 -1      4065 2.00771E+01 2.91333E+01 0.00000E+00
 -1      4066 9.30650E+01 2.78796E+01 0.00000E+00
 -1      4067 1.97118E+01 3.14081E+01 0.00000E+00
 -1      4068 1.96860E+01 2.05570E+01 0.00000E+00
 -1      4069 1.96196E+01 3.05615E+01 0.00000E+00
 -1      4070 4.82850E+01 1.82952E+01 0.00000E+00
 -1      4071 4.67850E+01 1.82952E+01 0.00000E+00
 -1      4072 4.60350E+01 1.95942E+01 0.00000E+00
 -1      4073 2.20131E+01 3.01059E+01 0.00000E+00
 -1      4074 2.27631E+01 2.88069E+01 0.00000E+00
 -1      4075 3.32850E+01 1.82953E+01 0.00000E+00
 -1      4076 3.17850E+01 1.82953E+01 0.00000E+00
 -1      4077 3.10350E+01 1.95943E+01 0.00000E+00
 -1      4078 7.00350E+01 1.95942E+01 0.00000E+00
 -1      4079 1.31699E+02 1.97282E+01 0.00000E+00
 -1      4080 4.90350E+01 1.95942E+01 0.00000E+00
 -1      4081 9.32674E+01 2.08358E+01 0.00000E+00
 -1      4082 2.79000E+01 2.79170E+01 0.00000E+00
 -1      4083 2.94000E+01 2.79170E+01 0.00000E+00
 -1      4084 2.13468E+01 2.07457E+01 0.00000E+00
 -1      4085 1.98468E+01 2.22207E+01 0.00000E+00
 -1      4086 3.39000E+01 2.79170E+01 0.00000E+00
 -1      4087 3.54000E+01 2.79170E+01 0.00000E+00
 -1      4088 3.69000E+01 2.79170E+01 0.00000E+00
 -1      4089 3.84000E+01 2.79170E+01 0.00000E+00
 -1      4090 3.61500E+01 2.66180E+01 0.00000E+00
 -1      4091 3.99000E+01 2.79170E+01 0.00000E+00
 -1      4092 4.14000E+01 2.79170E+01 0.00000E+00
 -1      4093 3.91500E+01 2.66180E+01 0.00000E+00
 -1      4094 4.29000E+01 2.79170E+01 0.00000E+00
 -1      4095 4.44000E+01 2.79170E+01 0.00000E+00
 -1      4096 4.21500E+01 2.66180E+01 0.00000E+00
 -1      4097 4.59000E+01 2.79170E+01 0.00000E+00
 -1      4098 4.74000E+01 2.79170E+01 0.00000E+00
 -1      4099 4.51500E+01 2.66180E+01 0.00000E+00
 -1      4100 4.89000E+01 2.79170E+01 0.00000E+00
 -1      4101 5.04000E+01 2.79170E+01 0.00000E+00
 -1      4102 4.81500E+01 2.66180E+01 0.00000E+00
 -1      4103 5.19000E+01 2.79170E+01 0.00000E+00
 -1      4104 5.34000E+01 2.79170E+01 0.00000E+00
 -1      4105 5.11500E+01 2.66180E+01 0.00000E+00
 -1      4106 5.49000E+01 2.79170E+01 0.00000E+00
 -1      4107 5.64000E+01 2.79170E+01 0.00000E+00
 -1      4108 5.41500E+01 2.66180E+01 0.00000E+00
 -1      4109 5.79000E+01 2.79170E+01 0.00000E+00
 -1      4110 5.94000E+01 2.79170E+01 0.00000E+00
 -1      4111 5.71500E+01 2.66180E+01 0.00000E+00
 -1      4112 6.09000E+01 2.79170E+01 0.00000E+00
 -1      4113 6.24000E+01 2.79170E+01 0.00000E+00
 -1      4114 6.01500E+01 2.66180E+01 0.00000E+00
 -1      4115 6.39000E+01 2.79170E+01 0.00000E+00
 -1      4116 6.54000E+01 2.79170E+01 0.00000E+00
 -1      4117 6.31500E+01 2.66180E+01 0.00000E+00
 -1      4118 6.69000E+01 2.79170E+01 0.00000E+00
 -1      4119 6.84000E+01 2.79170E+01 0.00000E+00
 -1      4120 6.61500E+01 2.66180E+01 0.00000E+00
 -1      4121 6.99000E+01 2.79170E+01 0.00000E+00
 -1      4122 7.14000E+01 2.79170E+01 0.00000E+00
 -1      4123 6.91500E+01 2.66180E+01 0.00000E+00
 -1      4124 7.29000E+01 2.79170E+01 0.00000E+00
 -1      4125 7.44000E+01 2.79170E+01 0.00000E+00
 -1      4126 7.21500E+01 2.66180E+01 0.00000E+00
 -1      4127 7.59000E+01 2.79170E+01 0.00000E+00
 -1      4128 7.74000E+01 2.79170E+01 0.00000E+00
 -1      4129 7.51500E+01 2.66180E+01 0.00000E+00
 -1      4130 7.89000E+01 2.79170E+01 0.00000E+00
 -1      4131 8.04000E+01 2.79170E+01 0.00000E+00
 -1      4132 7.81500E+01 2.66180E+01 0.00000E+00
 -1      4133 8.19000E+01 2.79170E+01 0.00000E+00
 -1      4134 8.34000E+01 2.79170E+01 0.00000E+00
 -1      4135 8.11500E+01 2.66180E+01 0.00000E+00
 -1      4136 8.49000E+01 2.79170E+01 0.00000E+00
 -1      4137 8.64000E+01 2.79170E+01 0.00000E+00
 -1      4138 8.41500E+01 2.66180E+01 0.00000E+00
 -1      4139 8.79000E+01 2.79170E+01 0.00000E+00
 -1      4140 8.94000E+01 2.79170E+01 0.00000E+00
 -1      4141 8.71500E+01 2.66180E+01 0.00000E+00
 -1      4142 5.87850E+01 2.08932E+01 0.00000E+00
 -1      4143 5.72850E+01 2.08932E+01 0.00000E+00
 -1      4144 7.07850E+01 2.08932E+01 0.00000E+00
 -1      4145 6.92850E+01 2.08932E+01 0.00000E+00
 -1      4146 2.80350E+01 1.95943E+01 0.00000E+00
 -1      4147 2.72850E+01 1.82953E+01 0.00000E+00
 -1      4148 2.57851E+01 1.82953E+01 0.00000E+00
 -1      4149 1.98468E+01 2.36918E+01 0.00000E+00
 -1      4150 2.24670E+01 2.78307E+01 0.00000E+00
 -1      4151 2.38539E+01 2.82398E+01 0.00000E+00
 -1      4152 2.21709E+01 2.68545E+01 0.00000E+00
 -1      4153 7.97850E+01 2.08932E+01 0.00000E+00
 -1      4154 7.82850E+01 2.08932E+01 0.00000E+00
 -1      4155 2.11458E+01 2.44274E+01 0.00000E+00
 -1      4156 2.09186E+01 2.98259E+01 0.00000E+00
 -1      4157 6.47850E+01 2.08932E+01 0.00000E+00
 -1      4158 6.32850E+01 2.08932E+01 0.00000E+00
 -1      4159 7.67850E+01 2.08932E+01 0.00000E+00
 -1      4160 7.52850E+01 2.08932E+01 0.00000E+00
 -1      4161 7.75350E+01 2.21922E+01 0.00000E+00
 -1      4162 7.37850E+01 2.08932E+01 0.00000E+00
 -1      4163 7.22850E+01 2.08932E+01 0.00000E+00
 -1      4164 7.15350E+01 2.21922E+01 0.00000E+00
 -1      4165 7.45350E+01 2.21922E+01 0.00000E+00
 -1      4166 8.27850E+01 2.08932E+01 0.00000E+00
 -1      4167 8.12850E+01 2.08932E+01 0.00000E+00
 -1      4168 8.05350E+01 2.21922E+01 0.00000E+00
 -1      4169 8.57850E+01 2.08932E+01 0.00000E+00
 -1      4170 8.42850E+01 2.08932E+01 0.00000E+00
 -1      4171 8.35350E+01 2.21922E+01 0.00000E+00
 -1      4172 8.87850E+01 2.08932E+01 0.00000E+00
 -1      4173 8.72850E+01 2.08932E+01 0.00000E+00
 -1      4174 8.65350E+01 2.21922E+01 0.00000E+00
 -1      4175 9.17850E+01 2.08932E+01 0.00000E+00
 -1      4176 9.02850E+01 2.08932E+01 0.00000E+00
 -1      4177 8.95350E+01 2.21922E+01 0.00000E+00
 -1      4178 5.57850E+01 2.08932E+01 0.00000E+00
 -1      4179 5.42850E+01 2.08932E+01 0.00000E+00
 -1      4180 5.65350E+01 2.21922E+01 0.00000E+00
 -1      4181 6.77850E+01 2.08932E+01 0.00000E+00
 -1      4182 6.62850E+01 2.08932E+01 0.00000E+00
 -1      4183 6.85350E+01 2.21922E+01 0.00000E+00
 -1      4184 9.19501E+01 2.79387E+01 0.00000E+00
 -1      4185 9.26353E+01 2.67204E+01 0.00000E+00
 -1      4186 9.08352E+01 2.79977E+01 0.00000E+00
 -1      4187 5.27850E+01 2.08932E+01 0.00000E+00
 -1      4188 5.12850E+01 2.08932E+01 0.00000E+00
 -1      4189 5.35350E+01 2.21922E+01 0.00000E+00
 -1      4190 4.97850E+01 2.08932E+01 0.00000E+00
 -1      4191 4.82850E+01 2.08932E+01 0.00000E+00
 -1      4192 5.05350E+01 2.21922E+01 0.00000E+00
 -1      4193 2.44478E+01 1.81672E+01 0.00000E+00
 -1      4194 2.29478E+01 1.81672E+01 0.00000E+00
 -1      4195 2.25233E+01 1.92101E+01 0.00000E+00
 -1      4196 2.51978E+01 1.94662E+01 0.00000E+00
 -1      4197 9.32551E+01 2.55449E+01 0.00000E+00
 -1      4198 9.40818E+01 2.46277E+01 0.00000E+00
 -1      4199 9.33800E+01 2.32529E+01 0.00000E+00
 -1      4200 9.21402E+01 2.56040E+01 0.00000E+00
 -1      4201 9.25174E+01 2.21348E+01 0.00000E+00
 -1      4202 6.17850E+01 2.08932E+01 0.00000E+00
 -1      4203 6.02850E+01 2.08932E+01 0.00000E+00
 -1      4204 6.25350E+01 2.21922E+01 0.00000E+00
 -1      4205 4.00350E+01 1.95942E+01 0.00000E+00
 -1      4206 3.92850E+01 1.82952E+01 0.00000E+00
 -1      4207 3.77850E+01 1.82952E+01 0.00000E+00
 -1      4208 2.51270E+01 2.80784E+01 0.00000E+00
 -1      4209 2.66270E+01 2.80784E+01 0.00000E+00
 -1      4210 2.73770E+01 2.67794E+01 0.00000E+00
 -1      4211 2.48309E+01 2.71022E+01 0.00000E+00
 -1      4212 3.09000E+01 2.79170E+01 0.00000E+00
 -1      4213 3.24000E+01 2.79170E+01 0.00000E+00
 -1      4214 3.01500E+01 2.66180E+01 0.00000E+00
 -1      4215 3.31500E+01 2.66180E+01 0.00000E+00
 -1      4216 4.67850E+01 2.08932E+01 0.00000E+00
 -1      4217 4.52850E+01 2.08932E+01 0.00000E+00
 -1      4218 4.75350E+01 2.21922E+01 0.00000E+00
 -1      4219 9.00852E+01 2.66987E+01 0.00000E+00
 -1      4220 6.55350E+01 2.21922E+01 0.00000E+00
 -1      4221 5.95350E+01 2.21922E+01 0.00000E+00
 -1      4222 9.18976E+01 2.33103E+01 0.00000E+00
 -1      4223 2.22949E+01 2.55602E+01 0.00000E+00
 -1      4224 2.36818E+01 2.59694E+01 0.00000E+00
 -1      4225 2.49548E+01 2.58080E+01 0.00000E+00
 -1      4226 2.26567E+01 2.35423E+01 0.00000E+00
 -1      4227 4.37850E+01 2.08932E+01 0.00000E+00
 -1      4228 4.22850E+01 2.08932E+01 0.00000E+00
 -1      4229 4.45350E+01 2.21922E+01 0.00000E+00
 -1      4230 2.87850E+01 2.08933E+01 0.00000E+00
 -1      4231 2.72851E+01 2.08933E+01 0.00000E+00
 -1      4232 3.62850E+01 1.82953E+01 0.00000E+00
 -1      4233 3.47850E+01 1.82953E+01 0.00000E+00
 -1      4234 3.40350E+01 1.95943E+01 0.00000E+00
 -1      4235 3.70350E+01 1.95943E+01 0.00000E+00
 -1      4236 2.26840E+01 2.08738E+01 0.00000E+00
 -1      4237 3.17850E+01 2.08933E+01 0.00000E+00
 -1      4238 3.02850E+01 2.08933E+01 0.00000E+00
 -1      4239 2.95350E+01 2.21923E+01 0.00000E+00
 -1      4240 4.07850E+01 2.08932E+01 0.00000E+00
 -1      4241 3.92850E+01 2.08932E+01 0.00000E+00
 -1      4242 4.15350E+01 2.21922E+01 0.00000E+00
 -1      4243 2.98425E+01 2.44051E+01 0.00000E+00
 -1      4244 3.13425E+01 2.44051E+01 0.00000E+00
 -1      4245 3.84000E+01 2.53190E+01 0.00000E+00
 -1      4246 3.99000E+01 2.53190E+01 0.00000E+00
 -1      4247 4.18425E+01 2.44051E+01 0.00000E+00
 -1      4248 4.33425E+01 2.44051E+01 0.00000E+00
 -1      4249 4.48425E+01 2.44051E+01 0.00000E+00
 -1      4250 4.63425E+01 2.44051E+01 0.00000E+00
 -1      4251 4.78425E+01 2.44051E+01 0.00000E+00
 -1      4252 4.93425E+01 2.44051E+01 0.00000E+00
 -1      4253 5.08425E+01 2.44051E+01 0.00000E+00
 -1      4254 5.23425E+01 2.44051E+01 0.00000E+00
 -1      4255 5.38425E+01 2.44051E+01 0.00000E+00
 -1      4256 5.53425E+01 2.44051E+01 0.00000E+00
 -1      4257 5.68425E+01 2.44051E+01 0.00000E+00
 -1      4258 5.83425E+01 2.44051E+01 0.00000E+00
 -1      4259 5.98425E+01 2.44051E+01 0.00000E+00
 -1      4260 6.13425E+01 2.44051E+01 0.00000E+00
 -1      4261 6.28425E+01 2.44051E+01 0.00000E+00
 -1      4262 6.43425E+01 2.44051E+01 0.00000E+00
 -1      4263 6.58425E+01 2.44051E+01 0.00000E+00
 -1      4264 6.73425E+01 2.44051E+01 0.00000E+00
 -1      4265 6.88425E+01 2.44051E+01 0.00000E+00
 -1      4266 7.03425E+01 2.44051E+01 0.00000E+00
 -1      4267 7.18425E+01 2.44051E+01 0.00000E+00
 -1      4268 7.33425E+01 2.44051E+01 0.00000E+00
 -1      4269 7.48425E+01 2.44051E+01 0.00000E+00
 -1      4270 7.63425E+01 2.44051E+01 0.00000E+00
 -1      4271 7.78425E+01 2.44051E+01 0.00000E+00
 -1      4272 7.93425E+01 2.44051E+01 0.00000E+00
 -1      4273 8.08425E+01 2.44051E+01 0.00000E+00
 -1      4274 8.23425E+01 2.44051E+01 0.00000E+00
 -1      4275 8.38425E+01 2.44051E+01 0.00000E+00
 -1      4276 8.53425E+01 2.44051E+01 0.00000E+00
 -1      4277 8.68425E+01 2.44051E+01 0.00000E+00
 -1      4278 8.83425E+01 2.44051E+01 0.00000E+00
 -1      4279 2.45155E+01 2.07364E+01 0.00000E+00
 -1      4280 2.33390E+01 2.22721E+01 0.00000E+00
 -1      4281 2.44881E+01 2.34049E+01 0.00000E+00
 -1      4282 2.58527E+01 2.08645E+01 0.00000E+00
 -1      4283 2.66027E+01 2.21635E+01 0.00000E+00
 -1      4284 8.98425E+01 2.44051E+01 0.00000E+00
 -1      4285 3.54000E+01 2.53190E+01 0.00000E+00
 -1      4286 3.69000E+01 2.53190E+01 0.00000E+00
 -1      4287 3.76500E+01 2.40200E+01 0.00000E+00
 -1      4288 9.12777E+01 2.44859E+01 0.00000E+00
 -1      4289 3.23138E+01 2.26492E+01 0.00000E+00
 -1      4290 3.26213E+01 2.48621E+01 0.00000E+00
 -1      4291 3.41213E+01 2.48621E+01 0.00000E+00
 -1      4292 3.30638E+01 2.13502E+01 0.00000E+00
 -1      4293 3.48713E+01 2.35631E+01 0.00000E+00
 -1      4294 3.73425E+01 2.18071E+01 0.00000E+00
 -1      4295 3.58425E+01 2.18071E+01 0.00000E+00
 -1      4296 3.45638E+01 2.13502E+01 0.00000E+00
 -1      4297 4.10925E+01 2.31061E+01 0.00000E+00
 -1      4298 2.83425E+01 2.44051E+01 0.00000E+00
 -1      4299 2.72096E+01 2.56903E+01 0.00000E+00
 -1      4300 2.69021E+01 2.34775E+01 0.00000E+00
 -1      4301 2.54698E+01 2.34487E+01 0.00000E+00
 -1      4302 3.80925E+01 2.31061E+01 0.00000E+00
 -1      4303 2.59366E+01 2.58517E+01 0.00000E+00
 -1      4304 2.47875E+01 2.47189E+01 0.00000E+00
 -1      4305 3.95925E+01 2.31061E+01 0.00000E+00
 -3
    3C                          2071                                     1
 -1       164    8    0    1
 -2         6         7        23      1118      1281      1135
 -1       165    8    0    1
 -2         7         8       164      1119      1282      1283
 -1       166    8    0    1
 -2         8         9       165      1120      1284      1285
 -1       167    8    0    1
 -2         8       165       164      1285      1286      1282
 -1       168    8    0    1
 -2         9        10       166      1121      1287      1288
 -1       169    8    0    1
 -2         9       166       165      1288      1289      1284
 -1       170    8    0    1
 -2        10        11       167      1122      1290      1291
 -1       171    8    0    1
 -2        10       167       166      1291      1292      1287
 -1       172    8    0    1
 -2        11        12       168      1123      1293      1294
 -1       173    8    0    1
 -2        11       168       167      1294      1295      1290
 -1       174    8    0    1
 -2        12        13       169      1124      1296      1297
 -1       175    8    0    1
 -2        12       169       168      1297      1298      1293
 -1       176    8    0    1
 -2        13        14       170      1125      1299      1300
 -1       177    8    0    1
 -2        13       170       169      1300      1301      1296
 -1       178    8    0    1
 -2        14        15       171      1126      1302      1303
 -1       179    8    0    1
 -2        14       171       170      1303      1304      1299
 -1       180    8    0    1
 -2        15        16       172      1127      1305      1306
 -1       181    8    0    1
 -2        15       172       171      1306      1307      1302
 -1       182    8    0    1
 -2        16        17       173      1128      1308      1309
 -1       183    8    0    1
 -2        16       173       172      1309      1310      1305
 -1       184    8    0    1
 -2        17        18       174      1129      1311      1312
 -1       185    8    0    1
 -2        17       174       173      1312      1313      1308
 -1       186    8    0    1
 -2        18        19       175      1130      1314      1315
 -1       187    8    0    1
 -2        18       175       174      1315      1316      1311
 -1       188    8    0    1
 -2        19        20       176      1131      1317      1318
 -1       189    8    0    1
 -2        19       176       175      1318      1319      1314
 -1       190    8    0    1
 -2        20        21       177      1132      1320      1321
 -1       191    8    0    1
 -2        20       177       176      1321      1322      1317
 -1       192    8    0    1
 -2        21        22       178      1133      1323      1324
 -1       193    8    0    1
 -2        21       178       177      1324      1325      1320
 -1       194    8    0    1
 -2        22         5       179      1134      1326      1327
 -1       195    8    0    1
 -2       178        22       179      1323      1327      1328
 -1       196    8    0    1
 -2         5        72       179      1185      1329      1326
 -1       197    8    0    1
 -2        24        23       180      1136      1330      1331
 -1       198    8    0    1
 -2        25        24       181      1137      1332      1333
 -1       199    8    0    1
 -2        24       180       181      1331      1334      1332
 -1       200    8    0    1
 -2        26        25       182      1138      1335      1336
 -1       201    8    0    1
 -2        25       181       182      1333      1337      1335
 -1       202    8    0    1
 -2        27        26       183      1139      1338      1339
 -1       203    8    0    1
 -2        26       182       183      1336      1340      1338
 -1       204    8    0    1
 -2        28        27       184      1140      1341      1342
 -1       205    8    0    1
 -2        27       183       184      1339      1343      1341
 -1       206    8    0    1
 -2        29        28       185      1141      1344      1345
 -1       207    8    0    1
 -2        28       184       185      1342      1346      1344
 -1       208    8    0    1
 -2        30        29       186      1142      1347      1348
 -1       209    8    0    1
 -2        29       185       186      1345      1349      1347
 -1       210    8    0    1
 -2        31        30       187      1143      1350      1351
 -1       211    8    0    1
 -2        30       186       187      1348      1352      1350
 -1       212    8    0    1
 -2        32        31       188      1144      1353      1354
 -1       213    8    0    1
 -2        31       187       188      1351      1355      1353
 -1       214    8    0    1
 -2        33        32       189      1145      1356      1357
 -1       215    8    0    1
 -2        32       188       189      1354      1358      1356
 -1       216    8    0    1
 -2        34        33       190      1146      1359      1360
 -1       217    8    0    1
 -2        33       189       190      1357      1361      1359
 -1       218    8    0    1
 -2        35        34       191      1147      1362      1363
 -1       219    8    0    1
 -2        34       190       191      1360      1364      1362
 -1       220    8    0    1
 -2        36        35       192      1148      1365      1366
 -1       221    8    0    1
 -2        35       191       192      1363      1367      1365
 -1       222    8    0    1
 -2        37        36       193      1149      1368      1369
 -1       223    8    0    1
 -2        36       192       193      1366      1370      1368
 -1       224    8    0    1
 -2        38        37       194      1150      1371      1372
 -1       225    8    0    1
 -2        37       193       194      1369      1373      1371
 -1       226    8    0    1
 -2        39        38       195      1151      1374      1375
 -1       227    8    0    1
 -2        38       194       195      1372      1376      1374
 -1       228    8    0    1
 -2        40        39       196      1152      1377      1378
 -1       229    8    0    1
 -2        39       195       196      1375      1379      1377
 -1       230    8    0    1
 -2        41        40       197      1153      1380      1381
 -1       231    8    0    1
 -2        40       196       197      1378      1382      1380
 -1       232    8    0    1
 -2        42        41       198      1154      1383      1384
 -1       233    8    0    1
 -2        41       197       198      1381      1385      1383
 -1       234    8    0    1
 -2        43        42       199      1155      1386      1387
 -1       235    8    0    1
 -2        42       198       199      1384      1388      1386
 -1       236    8    0    1
 -2        44        43       200      1156      1389      1390
 -1       237    8    0    1
 -2        43       199       200      1387      1391      1389
 -1       238    8    0    1
 -2        45        44       201      1157      1392      1393
 -1       239    8    0    1
 -2        44       200       201      1390      1394      1392
 -1       240    8    0    1
 -2        46        45       202      1158      1395      1396
 -1       241    8    0    1
 -2        45       201       202      1393      1397      1395
 -1       242    8    0    1
 -2        47        46       203      1159      1398      1399
 -1       243    8    0    1
 -2        46       202       203      1396      1400      1398
 -1       244    8    0    1
 -2        48        47       204      1160      1401      1402
 -1       245    8    0    1
 -2        47       203       204      1399      1403      1401
 -1       246    8    0    1
 -2        49        48       205      1161      1404      1405
 -1       247    8    0    1
 -2        48       204       205      1402      1406      1404
 -1       248    8    0    1
 -2        50        49       206      1162      1407      1408
 -1       249    8    0    1
 -2        49       205       206      1405      1409      1407
 -1       250    8    0    1
 -2        51        50       207      1163      1410      1411
 -1       251    8    0    1
 -2        50       206       207      1408      1412      1410
 -1       252    8    0    1
 -2        52        51       208      1164      1413      1414
 -1       253    8    0    1
 -2        51       207       208      1411      1415      1413
 -1       254    8    0    1
 -2        53        52       209      1165      1416      1417
 -1       255    8    0    1
 -2        52       208       209      1414      1418      1416
 -1       256    8    0    1
 -2        54        53       210      1166      1419      1420
 -1       257    8    0    1
 -2        53       209       210      1417      1421      1419
 -1       258    8    0    1
 -2        55        54       211      1167      1422      1423
 -1       259    8    0    1
 -2        54       210       211      1420      1424      1422
 -1       260    8    0    1
 -2        56        55       212      1168      1425      1426
 -1       261    8    0    1
 -2        55       211       212      1423      1427      1425
 -1       262    8    0    1
 -2        57        56       213      1169      1428      1429
 -1       263    8    0    1
 -2        56       212       213      1426      1430      1428
 -1       264    8    0    1
 -2        58        57       214      1170      1431      1432
 -1       265    8    0    1
 -2        57       213       214      1429      1433      1431
 -1       266    8    0    1
 -2        59        58       215      1171      1434      1435
 -1       267    8    0    1
 -2        58       214       215      1432      1436      1434
 -1       268    8    0    1
 -2        60        59       216      1172      1437      1438
 -1       269    8    0    1
 -2        59       215       216      1435      1439      1437
 -1       270    8    0    1
 -2        61        60       217      1173      1440      1441
 -1       271    8    0    1
 -2        60       216       217      1438      1442      1440
 -1       272    8    0    1
 -2        62        61       218      1174      1443      1444
 -1       273    8    0    1
 -2        61       217       218      1441      1445      1443
 -1       274    8    0    1
 -2        63        62       219      1175      1446      1447
 -1       275    8    0    1
 -2        62       218       219      1444      1448      1446
 -1       276    8    0    1
 -2        64        63       220      1176      1449      1450
 -1       277    8    0    1
 -2        63       219       220      1447      1451      1449
 -1       278    8    0    1
 -2        65        64       221      1177      1452      1453
 -1       279    8    0    1
 -2        64       220       221      1450      1454      1452
 -1       280    8    0    1
 -2        66        65       222      1178      1455      1456
 -1       281    8    0    1
 -2        65       221       222      1453      1457      1455
 -1       282    8    0    1
 -2        67        66       223      1179      1458      1459
 -1       283    8    0    1
 -2        66       222       223      1456      1460      1458
 -1       284    8    0    1
 -2        68        67       224      1180      1461      1462
 -1       285    8    0    1
 -2        67       223       224      1459      1463      1461
 -1       286    8    0    1
 -2        69        68       225      1181      1464      1465
 -1       287    8    0    1
 -2        68       224       225      1462      1466      1464
 -1       288    8    0    1
 -2        70        69       226      1182      1467      1468
 -1       289    8    0    1
 -2        69       225       226      1465      1469      1467
 -1       290    8    0    1
 -2        71        70       227      1183      1470      1471
 -1       291    8    0    1
 -2        70       226       227      1468      1472      1470
 -1       292    8    0    1
 -2         4        71       136      1184      1473      1251
 -1       293    8    0    1
 -2       136        71       227      1473      1471      1474
 -1       294    8    0    1
 -2        72        73       228      1186      1475      1476
 -1       295    8    0    1
 -2        72       228       179      1476      1477      1329
 -1       296    8    0    1
 -2        73        74       229      1187      1478      1479
 -1       297    8    0    1
 -2        73       229       228      1479      1480      1475
 -1       298    8    0    1
 -2        74        75       230      1188      1481      1482
 -1       299    8    0    1
 -2        74       230       229      1482      1483      1478
 -1       300    8    0    1
 -2        75        76       231      1189      1484      1485
 -1       301    8    0    1
 -2        75       231       230      1485      1486      1481
 -1       302    8    0    1
 -2        76        77       232      1190      1487      1488
 -1       303    8    0    1
 -2        76       232       231      1488      1489      1484
 -1       304    8    0    1
 -2        77        78       233      1191      1490      1491
 -1       305    8    0    1
 -2        77       233       232      1491      1492      1487
 -1       306    8    0    1
 -2        78        79       234      1192      1493      1494
 -1       307    8    0    1
 -2        78       234       233      1494      1495      1490
 -1       308    8    0    1
 -2        79        80       235      1193      1496      1497
 -1       309    8    0    1
 -2        79       235       234      1497      1498      1493
 -1       310    8    0    1
 -2        80        81       236      1194      1499      1500
 -1       311    8    0    1
 -2        80       236       235      1500      1501      1496
 -1       312    8    0    1
 -2        81        82       237      1195      1502      1503
 -1       313    8    0    1
 -2        81       237       236      1503      1504      1499
 -1       314    8    0    1
 -2        82        83       238      1196      1505      1506
 -1       315    8    0    1
 -2        82       238       237      1506      1507      1502
 -1       316    8    0    1
 -2        83        84       239      1197      1508      1509
 -1       317    8    0    1
 -2        83       239       238      1509      1510      1505
 -1       318    8    0    1
 -2        84        85       240      1198      1511      1512
 -1       319    8    0    1
 -2        84       240       239      1512      1513      1508
 -1       320    8    0    1
 -2        85        86       241      1199      1514      1515
 -1       321    8    0    1
 -2        85       241       240      1515      1516      1511
 -1       322    8    0    1
 -2        86        87       242      1200      1517      1518
 -1       323    8    0    1
 -2        86       242       241      1518      1519      1514
 -1       324    8    0    1
 -2        87        88       243      1201      1520      1521
 -1       325    8    0    1
 -2        87       243       242      1521      1522      1517
 -1       326    8    0    1
 -2        88        89       244      1202      1523      1524
 -1       327    8    0    1
 -2        88       244       243      1524      1525      1520
 -1       328    8    0    1
 -2        89        90       245      1203      1526      1527
 -1       329    8    0    1
 -2        89       245       244      1527      1528      1523
 -1       330    8    0    1
 -2        90        91       246      1204      1529      1530
 -1       331    8    0    1
 -2        90       246       245      1530      1531      1526
 -1       332    8    0    1
 -2        91        92       247      1205      1532      1533
 -1       333    8    0    1
 -2        91       247       246      1533      1534      1529
 -1       334    8    0    1
 -2        92        93       248      1206      1535      1536
 -1       335    8    0    1
 -2        92       248       247      1536      1537      1532
 -1       336    8    0    1
 -2        93        94       249      1207      1538      1539
 -1       337    8    0    1
 -2        93       249       248      1539      1540      1535
 -1       338    8    0    1
 -2        94        95       250      1208      1541      1542
 -1       339    8    0    1
 -2        94       250       249      1542      1543      1538
 -1       340    8    0    1
 -2        95        96       251      1209      1544      1545
 -1       341    8    0    1
 -2        95       251       250      1545      1546      1541
 -1       342    8    0    1
 -2        96        97       252      1210      1547      1548
 -1       343    8    0    1
 -2        96       252       251      1548      1549      1544
 -1       344    8    0    1
 -2        97        98       253      1211      1550      1551
 -1       345    8    0    1
 -2        97       253       252      1551      1552      1547
 -1       346    8    0    1
 -2        98        99       254      1212      1553      1554
 -1       347    8    0    1
 -2        98       254       253      1554      1555      1550
 -1       348    8    0    1
 -2        99       100       255      1213      1556      1557
 -1       349    8    0    1
 -2        99       255       254      1557      1558      1553
 -1       350    8    0    1
 -2       100       101       256      1214      1559      1560
 -1       351    8    0    1
 -2       100       256       255      1560      1561      1556
 -1       352    8    0    1
 -2       101       102       257      1215      1562      1563
 -1       353    8    0    1
 -2       101       257       256      1563      1564      1559
 -1       354    8    0    1
 -2       102       103       258      1216      1565      1566
 -1       355    8    0    1
 -2       102       258       257      1566      1567      1562
 -1       356    8    0    1
 -2       103       104       259      1217      1568      1569
 -1       357    8    0    1
 -2       103       259       258      1569      1570      1565
 -1       358    8    0    1
 -2       104       105       260      1218      1571      1572
 -1       359    8    0    1
 -2       104       260       259      1572      1573      1568
 -1       360    8    0    1
 -2       105       106       261      1219      1574      1575
 -1       361    8    0    1
 -2       105       261       260      1575      1576      1571
 -1       362    8    0    1
 -2       106       107       262      1220      1577      1578
 -1       363    8    0    1
 -2       106       262       261      1578      1579      1574
 -1       364    8    0    1
 -2       107       108       263      1221      1580      1581
 -1       365    8    0    1
 -2       107       263       262      1581      1582      1577
 -1       366    8    0    1
 -2       108       109       264      1222      1583      1584
 -1       367    8    0    1
 -2       108       264       263      1584      1585      1580
 -1       368    8    0    1
 -2       109       110       265      1223      1586      1587
 -1       369    8    0    1
 -2       109       265       264      1587      1588      1583
 -1       370    8    0    1
 -2       110       111       266      1224      1589      1590
 -1       371    8    0    1
 -2       110       266       265      1590      1591      1586
 -1       372    8    0    1
 -2       111       112       267      1225      1592      1593
 -1       373    8    0    1
 -2       111       267       266      1593      1594      1589
 -1       374    8    0    1
 -2       112       113       268      1226      1595      1596
 -1       375    8    0    1
 -2       112       268       267      1596      1597      1592
 -1       376    8    0    1
 -2       113       114       269      1227      1598      1599
 -1       377    8    0    1
 -2       113       269       268      1599      1600      1595
 -1       378    8    0    1
 -2       114       115       270      1228      1601      1602
 -1       379    8    0    1
 -2       114       270       269      1602      1603      1598
 -1       380    8    0    1
 -2       115       116       271      1229      1604      1605
 -1       381    8    0    1
 -2       115       271       270      1605      1606      1601
 -1       382    8    0    1
 -2       116       117       272      1230      1607      1608
 -1       383    8    0    1
 -2       116       272       271      1608      1609      1604
 -1       384    8    0    1
 -2       117       118       273      1231      1610      1611
 -1       385    8    0    1
 -2       117       273       272      1611      1612      1607
 -1       386    8    0    1
 -2       118       119       274      1232      1613      1614
 -1       387    8    0    1
 -2       118       274       273      1614      1615      1610
 -1       388    8    0    1
 -2       119       120       275      1233      1616      1617
 -1       389    8    0    1
 -2       119       275       274      1617      1618      1613
 -1       390    8    0    1
 -2       120         3       121      1234      1235      1619
 -1       391    8    0    1
 -2       121       122       276      1236      1620      1621
 -1       392    8    0    1
 -2       122       123       277      1237      1622      1623
 -1       393    8    0    1
 -2       122       277       276      1623      1624      1620
 -1       394    8    0    1
 -2       123       124       278      1238      1625      1626
 -1       395    8    0    1
 -2       123       278       277      1626      1627      1622
 -1       396    8    0    1
 -2       124       125       279      1239      1628      1629
 -1       397    8    0    1
 -2       124       279       278      1629      1630      1625
 -1       398    8    0    1
 -2       125       126       280      1240      1631      1632
 -1       399    8    0    1
 -2       125       280       279      1632      1633      1628
 -1       400    8    0    1
 -2       126       127       281      1241      1634      1635
 -1       401    8    0    1
 -2       126       281       280      1635      1636      1631
 -1       402    8    0    1
 -2       127       128       282      1242      1637      1638
 -1       403    8    0    1
 -2       127       282       281      1638      1639      1634
 -1       404    8    0    1
 -2       128       129       283      1243      1640      1641
 -1       405    8    0    1
 -2       128       283       282      1641      1642      1637
 -1       406    8    0    1
 -2       129       130       284      1244      1643      1644
 -1       407    8    0    1
 -2       129       284       283      1644      1645      1640
 -1       408    8    0    1
 -2       130       131       285      1245      1646      1647
 -1       409    8    0    1
 -2       130       285       284      1647      1648      1643
 -1       410    8    0    1
 -2       131       132       286      1246      1649      1650
 -1       411    8    0    1
 -2       131       286       285      1650      1651      1646
 -1       412    8    0    1
 -2       132       133       287      1247      1652      1653
 -1       413    8    0    1
 -2       132       287       286      1653      1654      1649
 -1       414    8    0    1
 -2       133       134       288      1248      1655      1656
 -1       415    8    0    1
 -2       133       288       287      1656      1657      1652
 -1       416    8    0    1
 -2       134       135       289      1249      1658      1659
 -1       417    8    0    1
 -2       134       289       288      1659      1660      1655
 -1       418    8    0    1
 -2       135       136       290      1250      1661      1662
 -1       419    8    0    1
 -2       289       135       290      1658      1662      1663
 -1       420    8    0    1
 -2       136       227       290      1474      1664      1661
 -1       421    8    0    1
 -2         2       137       291      1252      1665      1666
 -1       422    8    0    1
 -2       137       138       292      1253      1667      1668
 -1       423    8    0    1
 -2       138       139       293      1254      1669      1670
 -1       424    8    0    1
 -2       139       140       294      1255      1671      1672
 -1       425    8    0    1
 -2       140       141       295      1256      1673      1674
 -1       426    8    0    1
 -2       141       142       296      1257      1675      1676
 -1       427    8    0    1
 -2       142       143       297      1258      1677      1678
 -1       428    8    0    1
 -2       143       144       298      1259      1679      1680
 -1       429    8    0    1
 -2       144       145       299      1260      1681      1682
 -1       430    8    0    1
 -2       145       146       300      1261      1683      1684
 -1       431    8    0    1
 -2       146       147       301      1262      1685      1686
 -1       432    8    0    1
 -2       147       148       302      1263      1687      1688
 -1       433    8    0    1
 -2       148       149       303      1264      1689      1690
 -1       434    8    0    1
 -2       149       150       304      1265      1691      1692
 -1       435    8    0    1
 -2       150       151       305      1266      1693      1694
 -1       436    8    0    1
 -2       151       152       306      1267      1695      1696
 -1       437    8    0    1
 -2       152       153       307      1268      1697      1698
 -1       438    8    0    1
 -2       153         1       308      1269      1699      1700
 -1       439    8    0    1
 -2         1       154       309      1270      1701      1702
 -1       440    8    0    1
 -2       154       155       310      1271      1703      1704
 -1       441    8    0    1
 -2       155       156       311      1272      1705      1706
 -1       442    8    0    1
 -2       156       157       312      1273      1707      1708
 -1       443    8    0    1
 -2       157       158       313      1274      1709      1710
 -1       444    8    0    1
 -2       158       159       314      1275      1711      1712
 -1       445    8    0    1
 -2       159       160       315      1276      1713      1714
 -1       446    8    0    1
 -2       160       161       316      1277      1715      1716
 -1       447    8    0    1
 -2       161       162       317      1278      1717      1718
 -1       448    8    0    1
 -2       162       163       318      1279      1719      1720
 -1       449    8    0    1
 -2       163         2       319      1280      1721      1722
 -1       450    8    0    1
 -2       294       140       295      1671      1674      1723
 -1       451    8    0    1
 -2       293       139       294      1669      1672      1724
 -1       452    8    0    1
 -2       120       121       275      1619      1725      1616
 -1       453    8    0    1
 -2       121       276       275      1621      1726      1725
 -1       454    8    0    1
 -2       291       137       292      1665      1668      1727
 -1       455    8    0    1
 -2       292       138       293      1667      1670      1728
 -1       456    8    0    1
 -2         2       291       319      1666      1729      1721
 -1       457    8    0    1
 -2       141       296       295      1676      1730      1673
 -1       458    8    0    1
 -2       142       297       296      1678      1731      1675
 -1       459    8    0    1
 -2       143       298       297      1680      1732      1677
 -1       460    8    0    1
 -2       144       299       298      1682      1733      1679
 -1       461    8    0    1
 -2       145       300       299      1684      1734      1681
 -1       462    8    0    1
 -2       146       301       300      1686      1735      1683
 -1       463    8    0    1
 -2       147       302       301      1688      1736      1685
 -1       464    8    0    1
 -2       148       303       302      1690      1737      1687
 -1       465    8    0    1
 -2       149       304       303      1692      1738      1689
 -1       466    8    0    1
 -2       150       305       304      1694      1739      1691
 -1       467    8    0    1
 -2       151       306       305      1696      1740      1693
 -1       468    8    0    1
 -2       152       307       306      1698      1741      1695
 -1       469    8    0    1
 -2       153       308       307      1700      1742      1697
 -1       470    8    0    1
 -2         1       309       308      1702      1743      1699
 -1       471    8    0    1
 -2       154       310       309      1704      1744      1701
 -1       472    8    0    1
 -2       155       311       310      1706      1745      1703
 -1       473    8    0    1
 -2       156       312       311      1708      1746      1705
 -1       474    8    0    1
 -2       157       313       312      1710      1747      1707
 -1       475    8    0    1
 -2       158       314       313      1712      1748      1709
 -1       476    8    0    1
 -2       159       315       314      1714      1749      1711
 -1       477    8    0    1
 -2       160       316       315      1716      1750      1713
 -1       478    8    0    1
 -2       161       317       316      1718      1751      1715
 -1       479    8    0    1
 -2       162       318       317      1720      1752      1717
 -1       480    8    0    1
 -2       163       319       318      1722      1753      1719
 -1       481    8    0    1
 -2        23         7       164      1281      1283      1754
 -1       482    8    0    1
 -2       165       166       320      1289      1755      1756
 -1       483    8    0    1
 -2       164       165       321      1286      1757      1758
 -1       484    8    0    1
 -2       165       320       321      1756      1759      1757
 -1       485    8    0    1
 -2       167       168       322      1295      1760      1761
 -1       486    8    0    1
 -2       168       169       323      1298      1762      1763
 -1       487    8    0    1
 -2       168       323       322      1763      1764      1760
 -1       488    8    0    1
 -2       169       170       324      1301      1765      1766
 -1       489    8    0    1
 -2       169       324       323      1766      1767      1762
 -1       490    8    0    1
 -2       170       171       325      1304      1768      1769
 -1       491    8    0    1
 -2       170       325       324      1769      1770      1765
 -1       492    8    0    1
 -2       171       172       326      1307      1771      1772
 -1       493    8    0    1
 -2       171       326       325      1772      1773      1768
 -1       494    8    0    1
 -2       172       173       327      1310      1774      1775
 -1       495    8    0    1
 -2       172       327       326      1775      1776      1771
 -1       496    8    0    1
 -2       173       174       328      1313      1777      1778
 -1       497    8    0    1
 -2       173       328       327      1778      1779      1774
 -1       498    8    0    1
 -2       174       175       329      1316      1780      1781
 -1       499    8    0    1
 -2       174       329       328      1781      1782      1777
 -1       500    8    0    1
 -2       175       176       330      1319      1783      1784
 -1       501    8    0    1
 -2       175       330       329      1784      1785      1780
 -1       502    8    0    1
 -2       176       177       331      1322      1786      1787
 -1       503    8    0    1
 -2       176       331       330      1787      1788      1783
 -1       504    8    0    1
 -2       177       178       332      1325      1789      1790
 -1       505    8    0    1
 -2       177       332       331      1790      1791      1786
 -1       506    8    0    1
 -2       178       179       333      1328      1792      1793
 -1       507    8    0    1
 -2       332       178       333      1789      1793      1794
 -1       508    8    0    1
 -2       179       228       333      1477      1795      1792
 -1       509    8    0    1
 -2       180        23       164      1330      1754      1796
 -1       510    8    0    1
 -2       228       229       334      1480      1797      1798
 -1       511    8    0    1
 -2       228       334       333      1798      1799      1795
 -1       512    8    0    1
 -2       180       164       321      1796      1758      1800
 -1       513    8    0    1
 -2       182       181       335      1337      1801      1802
 -1       514    8    0    1
 -2       183       182       336      1340      1803      1804
 -1       515    8    0    1
 -2       182       335       336      1802      1805      1803
 -1       516    8    0    1
 -2       184       183       337      1343      1806      1807
 -1       517    8    0    1
 -2       183       336       337      1804      1808      1806
 -1       518    8    0    1
 -2       185       184       338      1346      1809      1810
 -1       519    8    0    1
 -2       184       337       338      1807      1811      1809
 -1       520    8    0    1
 -2       186       185       339      1349      1812      1813
 -1       521    8    0    1
 -2       185       338       339      1810      1814      1812
 -1       522    8    0    1
 -2       187       186       340      1352      1815      1816
 -1       523    8    0    1
 -2       186       339       340      1813      1817      1815
 -1       524    8    0    1
 -2       188       187       341      1355      1818      1819
 -1       525    8    0    1
 -2       187       340       341      1816      1820      1818
 -1       526    8    0    1
 -2       189       188       342      1358      1821      1822
 -1       527    8    0    1
 -2       188       341       342      1819      1823      1821
 -1       528    8    0    1
 -2       190       189       343      1361      1824      1825
 -1       529    8    0    1
 -2       189       342       343      1822      1826      1824
 -1       530    8    0    1
 -2       191       190       344      1364      1827      1828
 -1       531    8    0    1
 -2       190       343       344      1825      1829      1827
 -1       532    8    0    1
 -2       192       191       345      1367      1830      1831
 -1       533    8    0    1
 -2       191       344       345      1828      1832      1830
 -1       534    8    0    1
 -2       193       192       346      1370      1833      1834
 -1       535    8    0    1
 -2       192       345       346      1831      1835      1833
 -1       536    8    0    1
 -2       194       193       347      1373      1836      1837
 -1       537    8    0    1
 -2       193       346       347      1834      1838      1836
 -1       538    8    0    1
 -2       195       194       348      1376      1839      1840
 -1       539    8    0    1
 -2       194       347       348      1837      1841      1839
 -1       540    8    0    1
 -2       196       195       349      1379      1842      1843
 -1       541    8    0    1
 -2       195       348       349      1840      1844      1842
 -1       542    8    0    1
 -2       197       196       350      1382      1845      1846
 -1       543    8    0    1
 -2       196       349       350      1843      1847      1845
 -1       544    8    0    1
 -2       198       197       351      1385      1848      1849
 -1       545    8    0    1
 -2       197       350       351      1846      1850      1848
 -1       546    8    0    1
 -2       199       198       352      1388      1851      1852
 -1       547    8    0    1
 -2       198       351       352      1849      1853      1851
 -1       548    8    0    1
 -2       200       199       353      1391      1854      1855
 -1       549    8    0    1
 -2       199       352       353      1852      1856      1854
 -1       550    8    0    1
 -2       201       200       354      1394      1857      1858
 -1       551    8    0    1
 -2       200       353       354      1855      1859      1857
 -1       552    8    0    1
 -2       202       201       355      1397      1860      1861
 -1       553    8    0    1
 -2       201       354       355      1858      1862      1860
 -1       554    8    0    1
 -2       203       202       356      1400      1863      1864
 -1       555    8    0    1
 -2       202       355       356      1861      1865      1863
 -1       556    8    0    1
 -2       204       203       357      1403      1866      1867
 -1       557    8    0    1
 -2       203       356       357      1864      1868      1866
 -1       558    8    0    1
 -2       205       204       358      1406      1869      1870
 -1       559    8    0    1
 -2       204       357       358      1867      1871      1869
 -1       560    8    0    1
 -2       206       205       359      1409      1872      1873
 -1       561    8    0    1
 -2       205       358       359      1870      1874      1872
 -1       562    8    0    1
 -2       207       206       360      1412      1875      1876
 -1       563    8    0    1
 -2       206       359       360      1873      1877      1875
 -1       564    8    0    1
 -2       208       207       361      1415      1878      1879
 -1       565    8    0    1
 -2       207       360       361      1876      1880      1878
 -1       566    8    0    1
 -2       209       208       362      1418      1881      1882
 -1       567    8    0    1
 -2       208       361       362      1879      1883      1881
 -1       568    8    0    1
 -2       210       209       363      1421      1884      1885
 -1       569    8    0    1
 -2       209       362       363      1882      1886      1884
 -1       570    8    0    1
 -2       211       210       364      1424      1887      1888
 -1       571    8    0    1
 -2       210       363       364      1885      1889      1887
 -1       572    8    0    1
 -2       212       211       365      1427      1890      1891
 -1       573    8    0    1
 -2       211       364       365      1888      1892      1890
 -1       574    8    0    1
 -2       213       212       366      1430      1893      1894
 -1       575    8    0    1
 -2       212       365       366      1891      1895      1893
 -1       576    8    0    1
 -2       214       213       367      1433      1896      1897
 -1       577    8    0    1
 -2       213       366       367      1894      1898      1896
 -1       578    8    0    1
 -2       215       214       368      1436      1899      1900
 -1       579    8    0    1
 -2       214       367       368      1897      1901      1899
 -1       580    8    0    1
 -2       216       215       369      1439      1902      1903
 -1       581    8    0    1
 -2       215       368       369      1900      1904      1902
 -1       582    8    0    1
 -2       217       216       370      1442      1905      1906
 -1       583    8    0    1
 -2       216       369       370      1903      1907      1905
 -1       584    8    0    1
 -2       218       217       371      1445      1908      1909
 -1       585    8    0    1
 -2       217       370       371      1906      1910      1908
 -1       586    8    0    1
 -2       219       218       372      1448      1911      1912
 -1       587    8    0    1
 -2       218       371       372      1909      1913      1911
 -1       588    8    0    1
 -2       220       219       373      1451      1914      1915
 -1       589    8    0    1
 -2       219       372       373      1912      1916      1914
 -1       590    8    0    1
 -2       221       220       374      1454      1917      1918
 -1       591    8    0    1
 -2       220       373       374      1915      1919      1917
 -1       592    8    0    1
 -2       222       221       375      1457      1920      1921
 -1       593    8    0    1
 -2       221       374       375      1918      1922      1920
 -1       594    8    0    1
 -2       223       222       376      1460      1923      1924
 -1       595    8    0    1
 -2       222       375       376      1921      1925      1923
 -1       596    8    0    1
 -2       224       223       377      1463      1926      1927
 -1       597    8    0    1
 -2       223       376       377      1924      1928      1926
 -1       598    8    0    1
 -2       225       224       378      1466      1929      1930
 -1       599    8    0    1
 -2       224       377       378      1927      1931      1929
 -1       600    8    0    1
 -2       226       225       379      1469      1932      1933
 -1       601    8    0    1
 -2       225       378       379      1930      1934      1932
 -1       602    8    0    1
 -2       227       226       380      1472      1935      1936
 -1       603    8    0    1
 -2       290       227       380      1664      1936      1937
 -1       604    8    0    1
 -2       226       379       380      1933      1938      1935
 -1       605    8    0    1
 -2       229       230       381      1483      1939      1940
 -1       606    8    0    1
 -2       229       381       334      1940      1941      1797
 -1       607    8    0    1
 -2       230       231       382      1486      1942      1943
 -1       608    8    0    1
 -2       230       382       381      1943      1944      1939
 -1       609    8    0    1
 -2       231       232       383      1489      1945      1946
 -1       610    8    0    1
 -2       231       383       382      1946      1947      1942
 -1       611    8    0    1
 -2       232       233       384      1492      1948      1949
 -1       612    8    0    1
 -2       232       384       383      1949      1950      1945
 -1       613    8    0    1
 -2       233       234       385      1495      1951      1952
 -1       614    8    0    1
 -2       233       385       384      1952      1953      1948
 -1       615    8    0    1
 -2       234       235       386      1498      1954      1955
 -1       616    8    0    1
 -2       234       386       385      1955      1956      1951
 -1       617    8    0    1
 -2       235       236       387      1501      1957      1958
 -1       618    8    0    1
 -2       235       387       386      1958      1959      1954
 -1       619    8    0    1
 -2       236       237       388      1504      1960      1961
 -1       620    8    0    1
 -2       236       388       387      1961      1962      1957
 -1       621    8    0    1
 -2       237       238       389      1507      1963      1964
 -1       622    8    0    1
 -2       237       389       388      1964      1965      1960
 -1       623    8    0    1
 -2       238       239       390      1510      1966      1967
 -1       624    8    0    1
 -2       238       390       389      1967      1968      1963
 -1       625    8    0    1
 -2       239       240       391      1513      1969      1970
 -1       626    8    0    1
 -2       239       391       390      1970      1971      1966
 -1       627    8    0    1
 -2       240       241       392      1516      1972      1973
 -1       628    8    0    1
 -2       240       392       391      1973      1974      1969
 -1       629    8    0    1
 -2       241       242       393      1519      1975      1976
 -1       630    8    0    1
 -2       241       393       392      1976      1977      1972
 -1       631    8    0    1
 -2       242       243       394      1522      1978      1979
 -1       632    8    0    1
 -2       242       394       393      1979      1980      1975
 -1       633    8    0    1
 -2       243       244       395      1525      1981      1982
 -1       634    8    0    1
 -2       243       395       394      1982      1983      1978
 -1       635    8    0    1
 -2       244       245       396      1528      1984      1985
 -1       636    8    0    1
 -2       244       396       395      1985      1986      1981
 -1       637    8    0    1
 -2       245       246       397      1531      1987      1988
 -1       638    8    0    1
 -2       245       397       396      1988      1989      1984
 -1       639    8    0    1
 -2       246       247       398      1534      1990      1991
 -1       640    8    0    1
 -2       246       398       397      1991      1992      1987
 -1       641    8    0    1
 -2       247       248       399      1537      1993      1994
 -1       642    8    0    1
 -2       247       399       398      1994      1995      1990
 -1       643    8    0    1
 -2       248       249       400      1540      1996      1997
 -1       644    8    0    1
 -2       248       400       399      1997      1998      1993
 -1       645    8    0    1
 -2       249       250       401      1543      1999      2000
 -1       646    8    0    1
 -2       249       401       400      2000      2001      1996
 -1       647    8    0    1
 -2       250       251       402      1546      2002      2003
 -1       648    8    0    1
 -2       250       402       401      2003      2004      1999
 -1       649    8    0    1
 -2       251       252       403      1549      2005      2006
 -1       650    8    0    1
 -2       251       403       402      2006      2007      2002
 -1       651    8    0    1
 -2       252       253       404      1552      2008      2009
 -1       652    8    0    1
 -2       252       404       403      2009      2010      2005
 -1       653    8    0    1
 -2       253       254       405      1555      2011      2012
 -1       654    8    0    1
 -2       253       405       404      2012      2013      2008
 -1       655    8    0    1
 -2       254       255       406      1558      2014      2015
 -1       656    8    0    1
 -2       254       406       405      2015      2016      2011
 -1       657    8    0    1
 -2       255       256       407      1561      2017      2018
 -1       658    8    0    1
 -2       255       407       406      2018      2019      2014
 -1       659    8    0    1
 -2       256       257       408      1564      2020      2021
 -1       660    8    0    1
 -2       256       408       407      2021      2022      2017
 -1       661    8    0    1
 -2       257       258       409      1567      2023      2024
 -1       662    8    0    1
 -2       257       409       408      2024      2025      2020
 -1       663    8    0    1
 -2       258       259       410      1570      2026      2027
 -1       664    8    0    1
 -2       258       410       409      2027      2028      2023
 -1       665    8    0    1
 -2       259       260       411      1573      2029      2030
 -1       666    8    0    1
 -2       259       411       410      2030      2031      2026
 -1       667    8    0    1
 -2       260       261       412      1576      2032      2033
 -1       668    8    0    1
 -2       260       412       411      2033      2034      2029
 -1       669    8    0    1
 -2       261       262       413      1579      2035      2036
 -1       670    8    0    1
 -2       261       413       412      2036      2037      2032
 -1       671    8    0    1
 -2       262       263       414      1582      2038      2039
 -1       672    8    0    1
 -2       262       414       413      2039      2040      2035
 -1       673    8    0    1
 -2       263       264       415      1585      2041      2042
 -1       674    8    0    1
 -2       263       415       414      2042      2043      2038
 -1       675    8    0    1
 -2       264       265       416      1588      2044      2045
 -1       676    8    0    1
 -2       264       416       415      2045      2046      2041
 -1       677    8    0    1
 -2       265       266       417      1591      2047      2048
 -1       678    8    0    1
 -2       265       417       416      2048      2049      2044
 -1       679    8    0    1
 -2       266       267       418      1594      2050      2051
 -1       680    8    0    1
 -2       266       418       417      2051      2052      2047
 -1       681    8    0    1
 -2       267       268       419      1597      2053      2054
 -1       682    8    0    1
 -2       267       419       418      2054      2055      2050
 -1       683    8    0    1
 -2       268       269       420      1600      2056      2057
 -1       684    8    0    1
 -2       268       420       419      2057      2058      2053
 -1       685    8    0    1
 -2       269       270       421      1603      2059      2060
 -1       686    8    0    1
 -2       269       421       420      2060      2061      2056
 -1       687    8    0    1
 -2       270       271       422      1606      2062      2063
 -1       688    8    0    1
 -2       270       422       421      2063      2064      2059
 -1       689    8    0    1
 -2       271       272       423      1609      2065      2066
 -1       690    8    0    1
 -2       271       423       422      2066      2067      2062
 -1       691    8    0    1
 -2       272       273       424      1612      2068      2069
 -1       692    8    0    1
 -2       272       424       423      2069      2070      2065
 -1       693    8    0    1
 -2       273       274       425      1615      2071      2072
 -1       694    8    0    1
 -2       273       425       424      2072      2073      2068
 -1       695    8    0    1
 -2       274       275       426      1618      2074      2075
 -1       696    8    0    1
 -2       425       274       426      2071      2075      2076
 -1       697    8    0    1
 -2       275       276       426      1726      2077      2074
 -1       698    8    0    1
 -2       278       279       427      1630      2078      2079
 -1       699    8    0    1
 -2       277       278       428      1627      2080      2081
 -1       700    8    0    1
 -2       278       427       428      2079      2082      2080
 -1       701    8    0    1
 -2       276       277       429      1624      2083      2084
 -1       702    8    0    1
 -2       426       276       429      2077      2084      2085
 -1       703    8    0    1
 -2       277       428       429      2081      2086      2083
 -1       704    8    0    1
 -2       279       280       430      1633      2087      2088
 -1       705    8    0    1
 -2       279       430       427      2088      2089      2078
 -1       706    8    0    1
 -2       280       281       431      1636      2090      2091
 -1       707    8    0    1
 -2       280       431       430      2091      2092      2087
 -1       708    8    0    1
 -2       281       282       432      1639      2093      2094
 -1       709    8    0    1
 -2       281       432       431      2094      2095      2090
 -1       710    8    0    1
 -2       282       283       433      1642      2096      2097
 -1       711    8    0    1
 -2       282       433       432      2097      2098      2093
 -1       712    8    0    1
 -2       283       284       434      1645      2099      2100
 -1       713    8    0    1
 -2       283       434       433      2100      2101      2096
 -1       714    8    0    1
 -2       284       285       435      1648      2102      2103
 -1       715    8    0    1
 -2       284       435       434      2103      2104      2099
 -1       716    8    0    1
 -2       285       286       436      1651      2105      2106
 -1       717    8    0    1
 -2       285       436       435      2106      2107      2102
 -1       718    8    0    1
 -2       286       287       437      1654      2108      2109
 -1       719    8    0    1
 -2       286       437       436      2109      2110      2105
 -1       720    8    0    1
 -2       287       288       438      1657      2111      2112
 -1       721    8    0    1
 -2       287       438       437      2112      2113      2108
 -1       722    8    0    1
 -2       288       289       439      1660      2114      2115
 -1       723    8    0    1
 -2       288       439       438      2115      2116      2111
 -1       724    8    0    1
 -2       292       293       440      1728      2117      2118
 -1       725    8    0    1
 -2       319       291       441      1729      2119      2120
 -1       726    8    0    1
 -2       291       292       442      1727      2121      2122
 -1       727    8    0    1
 -2       292       440       442      2118      2123      2121
 -1       728    8    0    1
 -2       293       294       443      1724      2124      2125
 -1       729    8    0    1
 -2       294       295       444      1723      2126      2127
 -1       730    8    0    1
 -2       166       167       445      1292      2128      2129
 -1       731    8    0    1
 -2       320       166       445      1755      2129      2130
 -1       732    8    0    1
 -2       167       322       445      1761      2131      2128
 -1       733    8    0    1
 -2       296       297       446      1731      2132      2133
 -1       734    8    0    1
 -2       297       298       447      1732      2134      2135
 -1       735    8    0    1
 -2       297       447       446      2135      2136      2132
 -1       736    8    0    1
 -2       298       299       448      1733      2137      2138
 -1       737    8    0    1
 -2       299       300       449      1734      2139      2140
 -1       738    8    0    1
 -2       300       301       450      1735      2141      2142
 -1       739    8    0    1
 -2       301       302       451      1736      2143      2144
 -1       740    8    0    1
 -2       302       303       452      1737      2145      2146
 -1       741    8    0    1
 -2       302       452       451      2146      2147      2143
 -1       742    8    0    1
 -2       303       304       453      1738      2148      2149
 -1       743    8    0    1
 -2       304       305       454      1739      2150      2151
 -1       744    8    0    1
 -2       305       306       455      1740      2152      2153
 -1       745    8    0    1
 -2       306       307       456      1741      2154      2155
 -1       746    8    0    1
 -2       307       308       457      1742      2156      2157
 -1       747    8    0    1
 -2       308       309       458      1743      2158      2159
 -1       748    8    0    1
 -2       309       310       459      1744      2160      2161
 -1       749    8    0    1
 -2       310       311       460      1745      2162      2163
 -1       750    8    0    1
 -2       311       312       461      1746      2164      2165
 -1       751    8    0    1
 -2       312       313       462      1747      2166      2167
 -1       752    8    0    1
 -2       313       314       463      1748      2168      2169
 -1       753    8    0    1
 -2       314       315       464      1749      2170      2171
 -1       754    8    0    1
 -2       315       316       465      1750      2172      2173
 -1       755    8    0    1
 -2       316       317       466      1751      2174      2175
 -1       756    8    0    1
 -2       317       318       467      1752      2176      2177
 -1       757    8    0    1
 -2       317       467       466      2177      2178      2174
 -1       758    8    0    1
 -2       318       319       468      1753      2179      2180
 -1       759    8    0    1
 -2       295       296       469      1730      2181      2182
 -1       760    8    0    1
 -2       295       469       444      2182      2183      2126
 -1       761    8    0    1
 -2       180       321       181      1800      2184      1334
 -1       762    8    0    1
 -2       296       446       470      2133      2185      2186
 -1       763    8    0    1
 -2       296       470       469      2186      2187      2181
 -1       764    8    0    1
 -2       335       181       321      1801      2184      2188
 -1       765    8    0    1
 -2       441       291       442      2119      2122      2189
 -1       766    8    0    1
 -2       293       443       440      2125      2190      2117
 -1       767    8    0    1
 -2       439       289       290      2114      1663      2191
 -1       768    8    0    1
 -2       319       441       468      2120      2192      2179
 -1       769    8    0    1
 -2       443       294       444      2124      2127      2193
 -1       770    8    0    1
 -2       467       318       471      2176      2194      2195
 -1       771    8    0    1
 -2       318       468       471      2180      2196      2194
 -1       772    8    0    1
 -2       465       316       466      2172      2175      2197
 -1       773    8    0    1
 -2       464       315       465      2170      2173      2198
 -1       774    8    0    1
 -2       463       314       464      2168      2171      2199
 -1       775    8    0    1
 -2       462       313       463      2166      2169      2200
 -1       776    8    0    1
 -2       461       312       462      2164      2167      2201
 -1       777    8    0    1
 -2       460       311       461      2162      2165      2202
 -1       778    8    0    1
 -2       459       310       460      2160      2163      2203
 -1       779    8    0    1
 -2       458       309       459      2158      2161      2204
 -1       780    8    0    1
 -2       457       308       458      2156      2159      2205
 -1       781    8    0    1
 -2       456       307       457      2154      2157      2206
 -1       782    8    0    1
 -2       455       306       456      2152      2155      2207
 -1       783    8    0    1
 -2       454       305       455      2150      2153      2208
 -1       784    8    0    1
 -2       452       303       453      2145      2149      2209
 -1       785    8    0    1
 -2       450       301       451      2141      2144      2210
 -1       786    8    0    1
 -2       449       300       450      2139      2142      2211
 -1       787    8    0    1
 -2       298       448       447      2138      2212      2134
 -1       788    8    0    1
 -2       448       299       449      2137      2140      2213
 -1       789    8    0    1
 -2       453       304       454      2148      2151      2214
 -1       790    8    0    1
 -2       334       381       472      1941      2215      2216
 -1       791    8    0    1
 -2       323       324       473      1767      2217      2218
 -1       792    8    0    1
 -2       322       323       474      1764      2219      2220
 -1       793    8    0    1
 -2       323       473       474      2218      2221      2219
 -1       794    8    0    1
 -2       325       326       475      1773      2222      2223
 -1       795    8    0    1
 -2       326       327       476      1776      2224      2225
 -1       796    8    0    1
 -2       326       476       475      2225      2226      2222
 -1       797    8    0    1
 -2       327       328       477      1779      2227      2228
 -1       798    8    0    1
 -2       327       477       476      2228      2229      2224
 -1       799    8    0    1
 -2       328       329       478      1782      2230      2231
 -1       800    8    0    1
 -2       328       478       477      2231      2232      2227
 -1       801    8    0    1
 -2       329       330       479      1785      2233      2234
 -1       802    8    0    1
 -2       329       479       478      2234      2235      2230
 -1       803    8    0    1
 -2       330       331       480      1788      2236      2237
 -1       804    8    0    1
 -2       330       480       479      2237      2238      2233
 -1       805    8    0    1
 -2       441       442       481      2189      2239      2240
 -1       806    8    0    1
 -2       381       382       482      1944      2241      2242
 -1       807    8    0    1
 -2       381       482       472      2242      2243      2215
 -1       808    8    0    1
 -2       336       335       483      1805      2244      2245
 -1       809    8    0    1
 -2       337       336       484      1808      2246      2247
 -1       810    8    0    1
 -2       336       483       484      2245      2248      2246
 -1       811    8    0    1
 -2       338       337       485      1811      2249      2250
 -1       812    8    0    1
 -2       337       484       485      2247      2251      2249
 -1       813    8    0    1
 -2       339       338       486      1814      2252      2253
 -1       814    8    0    1
 -2       338       485       486      2250      2254      2252
 -1       815    8    0    1
 -2       340       339       487      1817      2255      2256
 -1       816    8    0    1
 -2       339       486       487      2253      2257      2255
 -1       817    8    0    1
 -2       341       340       488      1820      2258      2259
 -1       818    8    0    1
 -2       340       487       488      2256      2260      2258
 -1       819    8    0    1
 -2       342       341       489      1823      2261      2262
 -1       820    8    0    1
 -2       341       488       489      2259      2263      2261
 -1       821    8    0    1
 -2       343       342       490      1826      2264      2265
 -1       822    8    0    1
 -2       342       489       490      2262      2266      2264
 -1       823    8    0    1
 -2       344       343       491      1829      2267      2268
 -1       824    8    0    1
 -2       343       490       491      2265      2269      2267
 -1       825    8    0    1
 -2       345       344       492      1832      2270      2271
 -1       826    8    0    1
 -2       344       491       492      2268      2272      2270
 -1       827    8    0    1
 -2       346       345       493      1835      2273      2274
 -1       828    8    0    1
 -2       345       492       493      2271      2275      2273
 -1       829    8    0    1
 -2       347       346       494      1838      2276      2277
 -1       830    8    0    1
 -2       346       493       494      2274      2278      2276
 -1       831    8    0    1
 -2       348       347       495      1841      2279      2280
 -1       832    8    0    1
 -2       347       494       495      2277      2281      2279
 -1       833    8    0    1
 -2       349       348       496      1844      2282      2283
 -1       834    8    0    1
 -2       348       495       496      2280      2284      2282
 -1       835    8    0    1
 -2       350       349       497      1847      2285      2286
 -1       836    8    0    1
 -2       349       496       497      2283      2287      2285
 -1       837    8    0    1
 -2       351       350       498      1850      2288      2289
 -1       838    8    0    1
 -2       350       497       498      2286      2290      2288
 -1       839    8    0    1
 -2       352       351       499      1853      2291      2292
 -1       840    8    0    1
 -2       351       498       499      2289      2293      2291
 -1       841    8    0    1
 -2       353       352       500      1856      2294      2295
 -1       842    8    0    1
 -2       352       499       500      2292      2296      2294
 -1       843    8    0    1
 -2       354       353       501      1859      2297      2298
 -1       844    8    0    1
 -2       353       500       501      2295      2299      2297
 -1       845    8    0    1
 -2       355       354       502      1862      2300      2301
 -1       846    8    0    1
 -2       354       501       502      2298      2302      2300
 -1       847    8    0    1
 -2       356       355       503      1865      2303      2304
 -1       848    8    0    1
 -2       355       502       503      2301      2305      2303
 -1       849    8    0    1
 -2       357       356       504      1868      2306      2307
 -1       850    8    0    1
 -2       356       503       504      2304      2308      2306
 -1       851    8    0    1
 -2       358       357       505      1871      2309      2310
 -1       852    8    0    1
 -2       357       504       505      2307      2311      2309
 -1       853    8    0    1
 -2       359       358       506      1874      2312      2313
 -1       854    8    0    1
 -2       358       505       506      2310      2314      2312
 -1       855    8    0    1
 -2       360       359       507      1877      2315      2316
 -1       856    8    0    1
 -2       359       506       507      2313      2317      2315
 -1       857    8    0    1
 -2       361       360       508      1880      2318      2319
 -1       858    8    0    1
 -2       360       507       508      2316      2320      2318
 -1       859    8    0    1
 -2       362       361       509      1883      2321      2322
 -1       860    8    0    1
 -2       361       508       509      2319      2323      2321
 -1       861    8    0    1
 -2       363       362       510      1886      2324      2325
 -1       862    8    0    1
 -2       362       509       510      2322      2326      2324
 -1       863    8    0    1
 -2       364       363       511      1889      2327      2328
 -1       864    8    0    1
 -2       363       510       511      2325      2329      2327
 -1       865    8    0    1
 -2       365       364       512      1892      2330      2331
 -1       866    8    0    1
 -2       364       511       512      2328      2332      2330
 -1       867    8    0    1
 -2       366       365       513      1895      2333      2334
 -1       868    8    0    1
 -2       365       512       513      2331      2335      2333
 -1       869    8    0    1
 -2       367       366       514      1898      2336      2337
 -1       870    8    0    1
 -2       366       513       514      2334      2338      2336
 -1       871    8    0    1
 -2       368       367       515      1901      2339      2340
 -1       872    8    0    1
 -2       367       514       515      2337      2341      2339
 -1       873    8    0    1
 -2       369       368       516      1904      2342      2343
 -1       874    8    0    1
 -2       368       515       516      2340      2344      2342
 -1       875    8    0    1
 -2       370       369       517      1907      2345      2346
 -1       876    8    0    1
 -2       369       516       517      2343      2347      2345
 -1       877    8    0    1
 -2       371       370       518      1910      2348      2349
 -1       878    8    0    1
 -2       370       517       518      2346      2350      2348
 -1       879    8    0    1
 -2       372       371       519      1913      2351      2352
 -1       880    8    0    1
 -2       371       518       519      2349      2353      2351
 -1       881    8    0    1
 -2       373       372       520      1916      2354      2355
 -1       882    8    0    1
 -2       372       519       520      2352      2356      2354
 -1       883    8    0    1
 -2       374       373       521      1919      2357      2358
 -1       884    8    0    1
 -2       373       520       521      2355      2359      2357
 -1       885    8    0    1
 -2       375       374       522      1922      2360      2361
 -1       886    8    0    1
 -2       374       521       522      2358      2362      2360
 -1       887    8    0    1
 -2       376       375       523      1925      2363      2364
 -1       888    8    0    1
 -2       375       522       523      2361      2365      2363
 -1       889    8    0    1
 -2       377       376       524      1928      2366      2367
 -1       890    8    0    1
 -2       376       523       524      2364      2368      2366
 -1       891    8    0    1
 -2       378       377       525      1931      2369      2370
 -1       892    8    0    1
 -2       377       524       525      2367      2371      2369
 -1       893    8    0    1
 -2       379       378       526      1934      2372      2373
 -1       894    8    0    1
 -2       378       525       526      2370      2374      2372
 -1       895    8    0    1
 -2       442       440       527      2123      2375      2376
 -1       896    8    0    1
 -2       442       527       481      2376      2377      2239
 -1       897    8    0    1
 -2       383       384       528      1950      2378      2379
 -1       898    8    0    1
 -2       384       385       529      1953      2380      2381
 -1       899    8    0    1
 -2       384       529       528      2381      2382      2378
 -1       900    8    0    1
 -2       385       386       530      1956      2383      2384
 -1       901    8    0    1
 -2       385       530       529      2384      2385      2380
 -1       902    8    0    1
 -2       386       387       531      1959      2386      2387
 -1       903    8    0    1
 -2       386       531       530      2387      2388      2383
 -1       904    8    0    1
 -2       387       388       532      1962      2389      2390
 -1       905    8    0    1
 -2       387       532       531      2390      2391      2386
 -1       906    8    0    1
 -2       388       389       533      1965      2392      2393
 -1       907    8    0    1
 -2       388       533       532      2393      2394      2389
 -1       908    8    0    1
 -2       389       390       534      1968      2395      2396
 -1       909    8    0    1
 -2       389       534       533      2396      2397      2392
 -1       910    8    0    1
 -2       390       391       535      1971      2398      2399
 -1       911    8    0    1
 -2       390       535       534      2399      2400      2395
 -1       912    8    0    1
 -2       391       392       536      1974      2401      2402
 -1       913    8    0    1
 -2       391       536       535      2402      2403      2398
 -1       914    8    0    1
 -2       392       393       537      1977      2404      2405
 -1       915    8    0    1
 -2       392       537       536      2405      2406      2401
 -1       916    8    0    1
 -2       393       394       538      1980      2407      2408
 -1       917    8    0    1
 -2       393       538       537      2408      2409      2404
 -1       918    8    0    1
 -2       394       395       539      1983      2410      2411
 -1       919    8    0    1
 -2       394       539       538      2411      2412      2407
 -1       920    8    0    1
 -2       395       396       540      1986      2413      2414
 -1       921    8    0    1
 -2       395       540       539      2414      2415      2410
 -1       922    8    0    1
 -2       396       397       541      1989      2416      2417
 -1       923    8    0    1
 -2       396       541       540      2417      2418      2413
 -1       924    8    0    1
 -2       397       398       542      1992      2419      2420
 -1       925    8    0    1
 -2       397       542       541      2420      2421      2416
 -1       926    8    0    1
 -2       398       399       543      1995      2422      2423
 -1       927    8    0    1
 -2       398       543       542      2423      2424      2419
 -1       928    8    0    1
 -2       399       400       544      1998      2425      2426
 -1       929    8    0    1
 -2       399       544       543      2426      2427      2422
 -1       930    8    0    1
 -2       400       401       545      2001      2428      2429
 -1       931    8    0    1
 -2       400       545       544      2429      2430      2425
 -1       932    8    0    1
 -2       401       402       546      2004      2431      2432
 -1       933    8    0    1
 -2       401       546       545      2432      2433      2428
 -1       934    8    0    1
 -2       402       403       547      2007      2434      2435
 -1       935    8    0    1
 -2       402       547       546      2435      2436      2431
 -1       936    8    0    1
 -2       403       404       548      2010      2437      2438
 -1       937    8    0    1
 -2       403       548       547      2438      2439      2434
 -1       938    8    0    1
 -2       404       405       549      2013      2440      2441
 -1       939    8    0    1
 -2       404       549       548      2441      2442      2437
 -1       940    8    0    1
 -2       405       406       550      2016      2443      2444
 -1       941    8    0    1
 -2       405       550       549      2444      2445      2440
 -1       942    8    0    1
 -2       406       407       551      2019      2446      2447
 -1       943    8    0    1
 -2       406       551       550      2447      2448      2443
 -1       944    8    0    1
 -2       407       408       552      2022      2449      2450
 -1       945    8    0    1
 -2       407       552       551      2450      2451      2446
 -1       946    8    0    1
 -2       408       409       553      2025      2452      2453
 -1       947    8    0    1
 -2       408       553       552      2453      2454      2449
 -1       948    8    0    1
 -2       409       410       554      2028      2455      2456
 -1       949    8    0    1
 -2       409       554       553      2456      2457      2452
 -1       950    8    0    1
 -2       410       411       555      2031      2458      2459
 -1       951    8    0    1
 -2       410       555       554      2459      2460      2455
 -1       952    8    0    1
 -2       411       412       556      2034      2461      2462
 -1       953    8    0    1
 -2       411       556       555      2462      2463      2458
 -1       954    8    0    1
 -2       412       413       557      2037      2464      2465
 -1       955    8    0    1
 -2       412       557       556      2465      2466      2461
 -1       956    8    0    1
 -2       413       414       558      2040      2467      2468
 -1       957    8    0    1
 -2       413       558       557      2468      2469      2464
 -1       958    8    0    1
 -2       414       415       559      2043      2470      2471
 -1       959    8    0    1
 -2       414       559       558      2471      2472      2467
 -1       960    8    0    1
 -2       415       416       560      2046      2473      2474
 -1       961    8    0    1
 -2       415       560       559      2474      2475      2470
 -1       962    8    0    1
 -2       416       417       561      2049      2476      2477
 -1       963    8    0    1
 -2       416       561       560      2477      2478      2473
 -1       964    8    0    1
 -2       417       418       562      2052      2479      2480
 -1       965    8    0    1
 -2       417       562       561      2480      2481      2476
 -1       966    8    0    1
 -2       418       419       563      2055      2482      2483
 -1       967    8    0    1
 -2       418       563       562      2483      2484      2479
 -1       968    8    0    1
 -2       419       420       564      2058      2485      2486
 -1       969    8    0    1
 -2       419       564       563      2486      2487      2482
 -1       970    8    0    1
 -2       420       421       565      2061      2488      2489
 -1       971    8    0    1
 -2       420       565       564      2489      2490      2485
 -1       972    8    0    1
 -2       421       422       566      2064      2491      2492
 -1       973    8    0    1
 -2       421       566       565      2492      2493      2488
 -1       974    8    0    1
 -2       422       423       567      2067      2494      2495
 -1       975    8    0    1
 -2       422       567       566      2495      2496      2491
 -1       976    8    0    1
 -2       423       424       568      2070      2497      2498
 -1       977    8    0    1
 -2       423       568       567      2498      2499      2494
 -1       978    8    0    1
 -2       424       425       569      2073      2500      2501
 -1       979    8    0    1
 -2       424       569       568      2501      2502      2497
 -1       980    8    0    1
 -2       425       426       429      2076      2085      2503
 -1       981    8    0    1
 -2       430       431       570      2092      2504      2505
 -1       982    8    0    1
 -2       431       432       571      2095      2506      2507
 -1       983    8    0    1
 -2       431       571       570      2507      2508      2504
 -1       984    8    0    1
 -2       428       427       572      2082      2509      2510
 -1       985    8    0    1
 -2       427       430       573      2089      2511      2512
 -1       986    8    0    1
 -2       572       427       573      2509      2512      2513
 -1       987    8    0    1
 -2       430       570       573      2505      2514      2511
 -1       988    8    0    1
 -2       432       433       574      2098      2515      2516
 -1       989    8    0    1
 -2       432       574       571      2516      2517      2506
 -1       990    8    0    1
 -2       433       434       575      2101      2518      2519
 -1       991    8    0    1
 -2       433       575       574      2519      2520      2515
 -1       992    8    0    1
 -2       434       435       576      2104      2521      2522
 -1       993    8    0    1
 -2       434       576       575      2522      2523      2518
 -1       994    8    0    1
 -2       435       436       577      2107      2524      2525
 -1       995    8    0    1
 -2       435       577       576      2525      2526      2521
 -1       996    8    0    1
 -2       436       437       578      2110      2527      2528
 -1       997    8    0    1
 -2       436       578       577      2528      2529      2524
 -1       998    8    0    1
 -2       437       438       579      2113      2530      2531
 -1       999    8    0    1
 -2       437       579       578      2531      2532      2527
 -1      1000    8    0    1
 -2       438       439       580      2116      2533      2534
 -1      1001    8    0    1
 -2       438       580       579      2534      2535      2530
 -1      1002    8    0    1
 -2       439       290       380      2191      1937      2536
 -1      1003    8    0    1
 -2       468       441       581      2192      2537      2538
 -1      1004    8    0    1
 -2       382       383       582      1947      2539      2540
 -1      1005    8    0    1
 -2       383       528       582      2379      2541      2539
 -1      1006    8    0    1
 -2       440       443       583      2190      2542      2543
 -1      1007    8    0    1
 -2       335       321       584      2188      2544      2545
 -1      1008    8    0    1
 -2       483       335       584      2244      2545      2546
 -1      1009    8    0    1
 -2       321       320       584      1759      2547      2544
 -1      1010    8    0    1
 -2       465       466       585      2197      2548      2549
 -1      1011    8    0    1
 -2       450       451       586      2210      2550      2551
 -1      1012    8    0    1
 -2       324       325       587      1770      2552      2553
 -1      1013    8    0    1
 -2       473       324       587      2217      2553      2554
 -1      1014    8    0    1
 -2       325       475       587      2223      2555      2552
 -1      1015    8    0    1
 -2       448       449       588      2213      2556      2557
 -1      1016    8    0    1
 -2       446       447       589      2136      2558      2559
 -1      1017    8    0    1
 -2       453       454       590      2214      2560      2561
 -1      1018    8    0    1
 -2       447       448       591      2212      2562      2563
 -1      1019    8    0    1
 -2       449       450       592      2211      2564      2565
 -1      1020    8    0    1
 -2       450       586       592      2551      2566      2564
 -1      1021    8    0    1
 -2       451       452       593      2147      2567      2568
 -1      1022    8    0    1
 -2       452       453       594      2209      2569      2570
 -1      1023    8    0    1
 -2       452       594       593      2570      2571      2567
 -1      1024    8    0    1
 -2       454       455       595      2208      2572      2573
 -1      1025    8    0    1
 -2       454       595       590      2573      2574      2560
 -1      1026    8    0    1
 -2       455       456       596      2207      2575      2576
 -1      1027    8    0    1
 -2       455       596       595      2576      2577      2572
 -1      1028    8    0    1
 -2       456       457       597      2206      2578      2579
 -1      1029    8    0    1
 -2       457       458       598      2205      2580      2581
 -1      1030    8    0    1
 -2       458       459       599      2204      2582      2583
 -1      1031    8    0    1
 -2       458       599       598      2583      2584      2580
 -1      1032    8    0    1
 -2       459       460       600      2203      2585      2586
 -1      1033    8    0    1
 -2       460       461       601      2202      2587      2588
 -1      1034    8    0    1
 -2       461       462       602      2201      2589      2590
 -1      1035    8    0    1
 -2       462       463       603      2200      2591      2592
 -1      1036    8    0    1
 -2       463       464       604      2199      2593      2594
 -1      1037    8    0    1
 -2       464       465       605      2198      2595      2596
 -1      1038    8    0    1
 -2       466       467       606      2178      2597      2598
 -1      1039    8    0    1
 -2       443       444       607      2193      2599      2600
 -1      1040    8    0    1
 -2       444       469       608      2183      2601      2602
 -1      1041    8    0    1
 -2       333       334       609      1799      2603      2604
 -1      1042    8    0    1
 -2       332       333       609      1794      2604      2605
 -1      1043    8    0    1
 -2       334       472       609      2216      2606      2603
 -1      1044    8    0    1
 -2       448       588       591      2557      2607      2562
 -1      1045    8    0    1
 -2       322       474       610      2220      2608      2609
 -1      1046    8    0    1
 -2       322       610       445      2609      2610      2131
 -1      1047    8    0    1
 -2       441       481       611      2240      2611      2612
 -1      1048    8    0    1
 -2       441       611       581      2612      2613      2537
 -1      1049    8    0    1
 -2       440       583       612      2543      2614      2615
 -1      1050    8    0    1
 -2       440       612       527      2615      2616      2375
 -1      1051    8    0    1
 -2       331       332       609      1791      2605      2617
 -1      1052    8    0    1
 -2       470       446       589      2185      2559      2618
 -1      1053    8    0    1
 -2       585       466       606      2548      2598      2619
 -1      1054    8    0    1
 -2       469       470       608      2187      2620      2601
 -1      1055    8    0    1
 -2       468       581       613      2538      2621      2622
 -1      1056    8    0    1
 -2       468       613       471      2622      2623      2196
 -1      1057    8    0    1
 -2       331       609       480      2617      2624      2236
 -1      1058    8    0    1
 -2       425       429       569      2503      2625      2500
 -1      1059    8    0    1
 -2       584       320       445      2547      2130      2626
 -1      1060    8    0    1
 -2       429       428       569      2086      2627      2625
 -1      1061    8    0    1
 -2       439       380       614      2536      2628      2629
 -1      1062    8    0    1
 -2       580       439       614      2533      2629      2630
 -1      1063    8    0    1
 -2       380       379       614      1938      2631      2628
 -1      1064    8    0    1
 -2       607       444       608      2599      2602      2632
 -1      1065    8    0    1
 -2       606       467       471      2597      2195      2633
 -1      1066    8    0    1
 -2       382       582       482      2540      2634      2241
 -1      1067    8    0    1
 -2       583       443       607      2542      2600      2635
 -1      1068    8    0    1
 -2       605       465       585      2595      2549      2636
 -1      1069    8    0    1
 -2       586       451       593      2550      2568      2637
 -1      1070    8    0    1
 -2       604       464       605      2593      2596      2638
 -1      1071    8    0    1
 -2       603       463       604      2591      2594      2639
 -1      1072    8    0    1
 -2       602       462       603      2589      2592      2640
 -1      1073    8    0    1
 -2       601       461       602      2587      2590      2641
 -1      1074    8    0    1
 -2       599       459       600      2582      2586      2642
 -1      1075    8    0    1
 -2       594       453       615      2569      2643      2644
 -1      1076    8    0    1
 -2       453       590       615      2561      2645      2643
 -1      1077    8    0    1
 -2       589       447       591      2558      2563      2646
 -1      1078    8    0    1
 -2       569       428       572      2627      2510      2647
 -1      1079    8    0    1
 -2       588       449       592      2556      2565      2648
 -1      1080    8    0    1
 -2       456       597       596      2579      2649      2575
 -1      1081    8    0    1
 -2       597       457       598      2578      2581      2650
 -1      1082    8    0    1
 -2       600       460       601      2585      2588      2651
 -1      1083    8    0    1
 -2       614       379       526      2631      2373      2652
 -1      1084    8    0    1
 -2       476       477       616      2229      2653      2654
 -1      1085    8    0    1
 -2       475       476       617      2226      2655      2656
 -1      1086    8    0    1
 -2       476       616       617      2654      2657      2655
 -1      1087    8    0    1
 -2       478       479       618      2235      2658      2659
 -1      1088    8    0    1
 -2       479       480       619      2238      2660      2661
 -1      1089    8    0    1
 -2       479       619       618      2661      2662      2658
 -1      1090    8    0    1
 -2       580       614       620      2630      2663      2664
 -1      1091    8    0    1
 -2       614       526       620      2652      2665      2663
 -1      1092    8    0    1
 -2       472       482       621      2243      2666      2667
 -1      1093    8    0    1
 -2       609       472       480      2606      2668      2624
 -1      1094    8    0    1
 -2       485       484       622      2251      2669      2670
 -1      1095    8    0    1
 -2       486       485       623      2254      2671      2672
 -1      1096    8    0    1
 -2       485       622       623      2670      2673      2671
 -1      1097    8    0    1
 -2       487       486       624      2257      2674      2675
 -1      1098    8    0    1
 -2       486       623       624      2672      2676      2674
 -1      1099    8    0    1
 -2       488       487       625      2260      2677      2678
 -1      1100    8    0    1
 -2       487       624       625      2675      2679      2677
 -1      1101    8    0    1
 -2       489       488       626      2263      2680      2681
 -1      1102    8    0    1
 -2       488       625       626      2678      2682      2680
 -1      1103    8    0    1
 -2       490       489       627      2266      2683      2684
 -1      1104    8    0    1
 -2       489       626       627      2681      2685      2683
 -1      1105    8    0    1
 -2       491       490       628      2269      2686      2687
 -1      1106    8    0    1
 -2       490       627       628      2684      2688      2686
 -1      1107    8    0    1
 -2       492       491       629      2272      2689      2690
 -1      1108    8    0    1
 -2       491       628       629      2687      2691      2689
 -1      1109    8    0    1
 -2       493       492       630      2275      2692      2693
 -1      1110    8    0    1
 -2       492       629       630      2690      2694      2692
 -1      1111    8    0    1
 -2       494       493       631      2278      2695      2696
 -1      1112    8    0    1
 -2       493       630       631      2693      2697      2695
 -1      1113    8    0    1
 -2       495       494       632      2281      2698      2699
 -1      1114    8    0    1
 -2       494       631       632      2696      2700      2698
 -1      1115    8    0    1
 -2       496       495       633      2284      2701      2702
 -1      1116    8    0    1
 -2       495       632       633      2699      2703      2701
 -1      1117    8    0    1
 -2       497       496       634      2287      2704      2705
 -1      1118    8    0    1
 -2       496       633       634      2702      2706      2704
 -1      1119    8    0    1
 -2       498       497       635      2290      2707      2708
 -1      1120    8    0    1
 -2       497       634       635      2705      2709      2707
 -1      1121    8    0    1
 -2       499       498       636      2293      2710      2711
 -1      1122    8    0    1
 -2       498       635       636      2708      2712      2710
 -1      1123    8    0    1
 -2       500       499       637      2296      2713      2714
 -1      1124    8    0    1
 -2       499       636       637      2711      2715      2713
 -1      1125    8    0    1
 -2       501       500       638      2299      2716      2717
 -1      1126    8    0    1
 -2       500       637       638      2714      2718      2716
 -1      1127    8    0    1
 -2       502       501       639      2302      2719      2720
 -1      1128    8    0    1
 -2       501       638       639      2717      2721      2719
 -1      1129    8    0    1
 -2       503       502       640      2305      2722      2723
 -1      1130    8    0    1
 -2       502       639       640      2720      2724      2722
 -1      1131    8    0    1
 -2       504       503       641      2308      2725      2726
 -1      1132    8    0    1
 -2       503       640       641      2723      2727      2725
 -1      1133    8    0    1
 -2       505       504       642      2311      2728      2729
 -1      1134    8    0    1
 -2       504       641       642      2726      2730      2728
 -1      1135    8    0    1
 -2       506       505       643      2314      2731      2732
 -1      1136    8    0    1
 -2       505       642       643      2729      2733      2731
 -1      1137    8    0    1
 -2       507       506       644      2317      2734      2735
 -1      1138    8    0    1
 -2       506       643       644      2732      2736      2734
 -1      1139    8    0    1
 -2       508       507       645      2320      2737      2738
 -1      1140    8    0    1
 -2       507       644       645      2735      2739      2737
 -1      1141    8    0    1
 -2       509       508       646      2323      2740      2741
 -1      1142    8    0    1
 -2       508       645       646      2738      2742      2740
 -1      1143    8    0    1
 -2       510       509       647      2326      2743      2744
 -1      1144    8    0    1
 -2       509       646       647      2741      2745      2743
 -1      1145    8    0    1
 -2       511       510       648      2329      2746      2747
 -1      1146    8    0    1
 -2       510       647       648      2744      2748      2746
 -1      1147    8    0    1
 -2       512       511       649      2332      2749      2750
 -1      1148    8    0    1
 -2       511       648       649      2747      2751      2749
 -1      1149    8    0    1
 -2       513       512       650      2335      2752      2753
 -1      1150    8    0    1
 -2       512       649       650      2750      2754      2752
 -1      1151    8    0    1
 -2       514       513       651      2338      2755      2756
 -1      1152    8    0    1
 -2       513       650       651      2753      2757      2755
 -1      1153    8    0    1
 -2       515       514       652      2341      2758      2759
 -1      1154    8    0    1
 -2       514       651       652      2756      2760      2758
 -1      1155    8    0    1
 -2       516       515       653      2344      2761      2762
 -1      1156    8    0    1
 -2       515       652       653      2759      2763      2761
 -1      1157    8    0    1
 -2       518       517       654      2350      2764      2765
 -1      1158    8    0    1
 -2       519       518       655      2353      2766      2767
 -1      1159    8    0    1
 -2       520       519       656      2356      2768      2769
 -1      1160    8    0    1
 -2       519       655       656      2767      2770      2768
 -1      1161    8    0    1
 -2       521       520       657      2359      2771      2772
 -1      1162    8    0    1
 -2       520       656       657      2769      2773      2771
 -1      1163    8    0    1
 -2       522       521       658      2362      2774      2775
 -1      1164    8    0    1
 -2       521       657       658      2772      2776      2774
 -1      1165    8    0    1
 -2       523       522       659      2365      2777      2778
 -1      1166    8    0    1
 -2       522       658       659      2775      2779      2777
 -1      1167    8    0    1
 -2       524       523       660      2368      2780      2781
 -1      1168    8    0    1
 -2       523       659       660      2778      2782      2780
 -1      1169    8    0    1
 -2       525       524       661      2371      2783      2784
 -1      1170    8    0    1
 -2       524       660       661      2781      2785      2783
 -1      1171    8    0    1
 -2       526       525       662      2374      2786      2787
 -1      1172    8    0    1
 -2       620       526       662      2665      2787      2788
 -1      1173    8    0    1
 -2       525       661       662      2784      2789      2786
 -1      1174    8    0    1
 -2       607       608       663      2632      2790      2791
 -1      1175    8    0    1
 -2       529       530       664      2385      2792      2793
 -1      1176    8    0    1
 -2       528       529       665      2382      2794      2795
 -1      1177    8    0    1
 -2       529       664       665      2793      2796      2794
 -1      1178    8    0    1
 -2       531       532       666      2391      2797      2798
 -1      1179    8    0    1
 -2       532       533       667      2394      2799      2800
 -1      1180    8    0    1
 -2       532       667       666      2800      2801      2797
 -1      1181    8    0    1
 -2       533       534       668      2397      2802      2803
 -1      1182    8    0    1
 -2       533       668       667      2803      2804      2799
 -1      1183    8    0    1
 -2       534       535       669      2400      2805      2806
 -1      1184    8    0    1
 -2       534       669       668      2806      2807      2802
 -1      1185    8    0    1
 -2       535       536       670      2403      2808      2809
 -1      1186    8    0    1
 -2       535       670       669      2809      2810      2805
 -1      1187    8    0    1
 -2       536       537       671      2406      2811      2812
 -1      1188    8    0    1
 -2       536       671       670      2812      2813      2808
 -1      1189    8    0    1
 -2       537       538       672      2409      2814      2815
 -1      1190    8    0    1
 -2       537       672       671      2815      2816      2811
 -1      1191    8    0    1
 -2       538       539       673      2412      2817      2818
 -1      1192    8    0    1
 -2       538       673       672      2818      2819      2814
 -1      1193    8    0    1
 -2       539       540       674      2415      2820      2821
 -1      1194    8    0    1
 -2       539       674       673      2821      2822      2817
 -1      1195    8    0    1
 -2       540       541       675      2418      2823      2824
 -1      1196    8    0    1
 -2       540       675       674      2824      2825      2820
 -1      1197    8    0    1
 -2       541       542       676      2421      2826      2827
 -1      1198    8    0    1
 -2       541       676       675      2827      2828      2823
 -1      1199    8    0    1
 -2       542       543       677      2424      2829      2830
 -1      1200    8    0    1
 -2       542       677       676      2830      2831      2826
 -1      1201    8    0    1
 -2       543       544       678      2427      2832      2833
 -1      1202    8    0    1
 -2       543       678       677      2833      2834      2829
 -1      1203    8    0    1
 -2       544       545       679      2430      2835      2836
 -1      1204    8    0    1
 -2       544       679       678      2836      2837      2832
 -1      1205    8    0    1
 -2       545       546       680      2433      2838      2839
 -1      1206    8    0    1
 -2       545       680       679      2839      2840      2835
 -1      1207    8    0    1
 -2       546       547       681      2436      2841      2842
 -1      1208    8    0    1
 -2       546       681       680      2842      2843      2838
 -1      1209    8    0    1
 -2       547       548       682      2439      2844      2845
 -1      1210    8    0    1
 -2       547       682       681      2845      2846      2841
 -1      1211    8    0    1
 -2       548       549       683      2442      2847      2848
 -1      1212    8    0    1
 -2       548       683       682      2848      2849      2844
 -1      1213    8    0    1
 -2       549       550       684      2445      2850      2851
 -1      1214    8    0    1
 -2       549       684       683      2851      2852      2847
 -1      1215    8    0    1
 -2       550       551       685      2448      2853      2854
 -1      1216    8    0    1
 -2       550       685       684      2854      2855      2850
 -1      1217    8    0    1
 -2       551       552       686      2451      2856      2857
 -1      1218    8    0    1
 -2       551       686       685      2857      2858      2853
 -1      1219    8    0    1
 -2       552       553       687      2454      2859      2860
 -1      1220    8    0    1
 -2       552       687       686      2860      2861      2856
 -1      1221    8    0    1
 -2       553       554       688      2457      2862      2863
 -1      1222    8    0    1
 -2       553       688       687      2863      2864      2859
 -1      1223    8    0    1
 -2       554       555       689      2460      2865      2866
 -1      1224    8    0    1
 -2       554       689       688      2866      2867      2862
 -1      1225    8    0    1
 -2       555       556       690      2463      2868      2869
 -1      1226    8    0    1
 -2       555       690       689      2869      2870      2865
 -1      1227    8    0    1
 -2       556       557       691      2466      2871      2872
 -1      1228    8    0    1
 -2       556       691       690      2872      2873      2868
 -1      1229    8    0    1
 -2       557       558       692      2469      2874      2875
 -1      1230    8    0    1
 -2       557       692       691      2875      2876      2871
 -1      1231    8    0    1
 -2       558       559       693      2472      2877      2878
 -1      1232    8    0    1
 -2       558       693       692      2878      2879      2874
 -1      1233    8    0    1
 -2       559       560       694      2475      2880      2881
 -1      1234    8    0    1
 -2       559       694       693      2881      2882      2877
 -1      1235    8    0    1
 -2       560       561       695      2478      2883      2884
 -1      1236    8    0    1
 -2       560       695       694      2884      2885      2880
 -1      1237    8    0    1
 -2       561       562       696      2481      2886      2887
 -1      1238    8    0    1
 -2       561       696       695      2887      2888      2883
 -1      1239    8    0    1
 -2       562       563       697      2484      2889      2890
 -1      1240    8    0    1
 -2       562       697       696      2890      2891      2886
 -1      1241    8    0    1
 -2       563       564       698      2487      2892      2893
 -1      1242    8    0    1
 -2       563       698       697      2893      2894      2889
 -1      1243    8    0    1
 -2       564       565       699      2490      2895      2896
 -1      1244    8    0    1
 -2       564       699       698      2896      2897      2892
 -1      1245    8    0    1
 -2       565       566       700      2493      2898      2899
 -1      1246    8    0    1
 -2       565       700       699      2899      2900      2895
 -1      1247    8    0    1
 -2       566       567       701      2496      2901      2902
 -1      1248    8    0    1
 -2       566       701       700      2902      2903      2898
 -1      1249    8    0    1
 -2       567       568       702      2499      2904      2905
 -1      1250    8    0    1
 -2       567       702       701      2905      2906      2901
 -1      1251    8    0    1
 -2       568       569       703      2502      2907      2908
 -1      1252    8    0    1
 -2       702       568       703      2904      2908      2909
 -1      1253    8    0    1
 -2       569       572       703      2647      2910      2907
 -1      1254    8    0    1
 -2       584       445       610      2626      2610      2911
 -1      1255    8    0    1
 -2       574       575       704      2520      2912      2913
 -1      1256    8    0    1
 -2       588       592       705      2648      2914      2915
 -1      1257    8    0    1
 -2       570       571       706      2508      2916      2917
 -1      1258    8    0    1
 -2       575       576       707      2523      2918      2919
 -1      1259    8    0    1
 -2       575       707       704      2919      2920      2912
 -1      1260    8    0    1
 -2       571       574       708      2517      2921      2922
 -1      1261    8    0    1
 -2       706       571       708      2916      2922      2923
 -1      1262    8    0    1
 -2       574       704       708      2913      2924      2921
 -1      1263    8    0    1
 -2       576       577       709      2526      2925      2926
 -1      1264    8    0    1
 -2       576       709       707      2926      2927      2918
 -1      1265    8    0    1
 -2       577       578       710      2529      2928      2929
 -1      1266    8    0    1
 -2       577       710       709      2929      2930      2925
 -1      1267    8    0    1
 -2       578       579       711      2532      2931      2932
 -1      1268    8    0    1
 -2       578       711       710      2932      2933      2928
 -1      1269    8    0    1
 -2       579       580       620      2535      2664      2934
 -1      1270    8    0    1
 -2       582       528       712      2541      2935      2936
 -1      1271    8    0    1
 -2       528       665       712      2795      2937      2935
 -1      1272    8    0    1
 -2       483       584       713      2546      2938      2939
 -1      1273    8    0    1
 -2       484       483       713      2248      2939      2940
 -1      1274    8    0    1
 -2       584       610       713      2911      2941      2938
 -1      1275    8    0    1
 -2       482       582       714      2634      2942      2943
 -1      1276    8    0    1
 -2       621       482       714      2666      2943      2944
 -1      1277    8    0    1
 -2       582       712       714      2936      2945      2942
 -1      1278    8    0    1
 -2       604       605       715      2638      2946      2947
 -1      1279    8    0    1
 -2       592       586       716      2566      2948      2949
 -1      1280    8    0    1
 -2       592       716       705      2949      2950      2914
 -1      1281    8    0    1
 -2       595       596       717      2577      2951      2952
 -1      1282    8    0    1
 -2       530       531       718      2388      2953      2954
 -1      1283    8    0    1
 -2       664       530       718      2792      2954      2955
 -1      1284    8    0    1
 -2       531       666       718      2798      2956      2953
 -1      1285    8    0    1
 -2       583       607       719      2635      2957      2958
 -1      1286    8    0    1
 -2       477       478       720      2232      2959      2960
 -1      1287    8    0    1
 -2       616       477       720      2653      2960      2961
 -1      1288    8    0    1
 -2       478       618       720      2659      2962      2959
 -1      1289    8    0    1
 -2       586       593       721      2637      2963      2964
 -1      1290    8    0    1
 -2       474       473       722      2221      2965      2966
 -1      1291    8    0    1
 -2       585       606       723      2619      2967      2968
 -1      1292    8    0    1
 -2       589       591       724      2646      2969      2970
 -1      1293    8    0    1
 -2       596       597       725      2649      2971      2972
 -1      1294    8    0    1
 -2       590       595       726      2574      2973      2974
 -1      1295    8    0    1
 -2       593       594       727      2571      2975      2976
 -1      1296    8    0    1
 -2       481       527       728      2377      2977      2978
 -1      1297    8    0    1
 -2       591       588       729      2607      2979      2980
 -1      1298    8    0    1
 -2       597       598       730      2650      2981      2982
 -1      1299    8    0    1
 -2       600       601       653      2651      2983      2984
 -1      1300    8    0    1
 -2       598       599       731      2584      2985      2986
 -1      1301    8    0    1
 -2       599       600       732      2642      2987      2988
 -1      1302    8    0    1
 -2       731       599       732      2985      2988      2989
 -1      1303    8    0    1
 -2       600       653       732      2984      2990      2987
 -1      1304    8    0    1
 -2       602       603       654      2640      2991      2992
 -1      1305    8    0    1
 -2       603       604       655      2639      2993      2994
 -1      1306    8    0    1
 -2       608       470       733      2620      2995      2996
 -1      1307    8    0    1
 -2       605       585       734      2636      2997      2998
 -1      1308    8    0    1
 -2       606       471       735      2633      2999      3000
 -1      1309    8    0    1
 -2       470       589       736      2618      3001      3002
 -1      1310    8    0    1
 -2       470       736       733      3002      3003      2995
 -1      1311    8    0    1
 -2       610       474       737      2608      3004      3005
 -1      1312    8    0    1
 -2       474       722       737      2966      3006      3004
 -1      1313    8    0    1
 -2       611       481       728      2611      2978      3007
 -1      1314    8    0    1
 -2       475       617       738      2656      3008      3009
 -1      1315    8    0    1
 -2       475       738       587      3009      3010      2555
 -1      1316    8    0    1
 -2       663       608       739      2790      3011      3012
 -1      1317    8    0    1
 -2       608       733       739      2996      3013      3011
 -1      1318    8    0    1
 -2       612       583       740      2614      3014      3015
 -1      1319    8    0    1
 -2       583       719       740      2958      3016      3014
 -1      1320    8    0    1
 -2       715       605       734      2946      2998      3017
 -1      1321    8    0    1
 -2       480       472       621      2668      2667      3018
 -1      1322    8    0    1
 -2       581       611       741      2613      3019      3020
 -1      1323    8    0    1
 -2       581       741       613      3020      3021      2621
 -1      1324    8    0    1
 -2       586       721       716      2964      3022      2948
 -1      1325    8    0    1
 -2       622       484       713      2669      2940      3023
 -1      1326    8    0    1
 -2       654       517       742      2764      3024      3025
 -1      1327    8    0    1
 -2       602       654       742      2992      3025      3026
 -1      1328    8    0    1
 -2       517       516       742      2347      3027      3024
 -1      1329    8    0    1
 -2       607       663       719      2791      3028      2957
 -1      1330    8    0    1
 -2       602       742       601      3026      3029      2641
 -1      1331    8    0    1
 -2       595       717       726      2952      3030      2973
 -1      1332    8    0    1
 -2       703       572       743      2910      3031      3032
 -1      1333    8    0    1
 -2       572       573       743      2513      3033      3031
 -1      1334    8    0    1
 -2       736       589       724      3001      2970      3034
 -1      1335    8    0    1
 -2       588       705       729      2915      3035      2979
 -1      1336    8    0    1
 -2       724       591       729      2969      2980      3036
 -1      1337    8    0    1
 -2       735       471       613      2999      2623      3037
 -1      1338    8    0    1
 -2       721       593       727      2963      2976      3038
 -1      1339    8    0    1
 -2       579       620       744      2934      3039      3040
 -1      1340    8    0    1
 -2       711       579       744      2931      3040      3041
 -1      1341    8    0    1
 -2       620       662       744      2788      3042      3039
 -1      1342    8    0    1
 -2       723       606       735      2967      3000      3043
 -1      1343    8    0    1
 -2       734       585       723      2997      2968      3044
 -1      1344    8    0    1
 -2       654       603       655      2991      2994      3045
 -1      1345    8    0    1
 -2       527       612       728      2616      3046      2977
 -1      1346    8    0    1
 -2       653       601       742      2983      3029      3047
 -1      1347    8    0    1
 -2       730       598       731      2981      2986      3048
 -1      1348    8    0    1
 -2       518       654       655      2765      3045      2766
 -1      1349    8    0    1
 -2       727       594       745      2975      3049      3050
 -1      1350    8    0    1
 -2       594       615       745      2644      3051      3049
 -1      1351    8    0    1
 -2       725       597       730      2971      2982      3052
 -1      1352    8    0    1
 -2       615       590       746      2645      3053      3054
 -1      1353    8    0    1
 -2       590       726       746      2974      3055      3053
 -1      1354    8    0    1
 -2       717       596       725      2951      2972      3056
 -1      1355    8    0    1
 -2       573       570       747      2514      3057      3058
 -1      1356    8    0    1
 -2       743       573       747      3033      3058      3059
 -1      1357    8    0    1
 -2       570       706       747      2917      3060      3057
 -1      1358    8    0    1
 -2       473       587       748      2554      3061      3062
 -1      1359    8    0    1
 -2       722       473       748      2965      3062      3063
 -1      1360    8    0    1
 -2       587       738       748      3010      3064      3061
 -1      1361    8    0    1
 -2       619       480       621      2660      3018      3065
 -1      1362    8    0    1
 -2       742       516       653      3027      2762      3047
 -1      1363    8    0    1
 -2       604       715       655      2947      3066      2993
 -1      1364    8    0    1
 -2       618       619       749      2662      3067      3068
 -1      1365    8    0    1
 -2       716       721       750      3022      3069      3070
 -1      1366    8    0    1
 -2       624       623       751      2676      3071      3072
 -1      1367    8    0    1
 -2       625       624       752      2679      3073      3074
 -1      1368    8    0    1
 -2       624       751       752      3072      3075      3073
 -1      1369    8    0    1
 -2       626       625       753      2682      3076      3077
 -1      1370    8    0    1
 -2       625       752       753      3074      3078      3076
 -1      1371    8    0    1
 -2       627       626       754      2685      3079      3080
 -1      1372    8    0    1
 -2       626       753       754      3077      3081      3079
 -1      1373    8    0    1
 -2       628       627       755      2688      3082      3083
 -1      1374    8    0    1
 -2       627       754       755      3080      3084      3082
 -1      1375    8    0    1
 -2       629       628       756      2691      3085      3086
 -1      1376    8    0    1
 -2       628       755       756      3083      3087      3085
 -1      1377    8    0    1
 -2       630       629       757      2694      3088      3089
 -1      1378    8    0    1
 -2       629       756       757      3086      3090      3088
 -1      1379    8    0    1
 -2       631       630       758      2697      3091      3092
 -1      1380    8    0    1
 -2       630       757       758      3089      3093      3091
 -1      1381    8    0    1
 -2       632       631       759      2700      3094      3095
 -1      1382    8    0    1
 -2       631       758       759      3092      3096      3094
 -1      1383    8    0    1
 -2       633       632       760      2703      3097      3098
 -1      1384    8    0    1
 -2       632       759       760      3095      3099      3097
 -1      1385    8    0    1
 -2       634       633       761      2706      3100      3101
 -1      1386    8    0    1
 -2       633       760       761      3098      3102      3100
 -1      1387    8    0    1
 -2       635       634       762      2709      3103      3104
 -1      1388    8    0    1
 -2       634       761       762      3101      3105      3103
 -1      1389    8    0    1
 -2       636       635       763      2712      3106      3107
 -1      1390    8    0    1
 -2       635       762       763      3104      3108      3106
 -1      1391    8    0    1
 -2       637       636       764      2715      3109      3110
 -1      1392    8    0    1
 -2       636       763       764      3107      3111      3109
 -1      1393    8    0    1
 -2       638       637       765      2718      3112      3113
 -1      1394    8    0    1
 -2       637       764       765      3110      3114      3112
 -1      1395    8    0    1
 -2       639       638       766      2721      3115      3116
 -1      1396    8    0    1
 -2       638       765       766      3113      3117      3115
 -1      1397    8    0    1
 -2       640       639       767      2724      3118      3119
 -1      1398    8    0    1
 -2       639       766       767      3116      3120      3118
 -1      1399    8    0    1
 -2       641       640       768      2727      3121      3122
 -1      1400    8    0    1
 -2       640       767       768      3119      3123      3121
 -1      1401    8    0    1
 -2       642       641       769      2730      3124      3125
 -1      1402    8    0    1
 -2       641       768       769      3122      3126      3124
 -1      1403    8    0    1
 -2       643       642       770      2733      3127      3128
 -1      1404    8    0    1
 -2       642       769       770      3125      3129      3127
 -1      1405    8    0    1
 -2       644       643       771      2736      3130      3131
 -1      1406    8    0    1
 -2       643       770       771      3128      3132      3130
 -1      1407    8    0    1
 -2       645       644       772      2739      3133      3134
 -1      1408    8    0    1
 -2       644       771       772      3131      3135      3133
 -1      1409    8    0    1
 -2       646       645       773      2742      3136      3137
 -1      1410    8    0    1
 -2       645       772       773      3134      3138      3136
 -1      1411    8    0    1
 -2       647       646       774      2745      3139      3140
 -1      1412    8    0    1
 -2       646       773       774      3137      3141      3139
 -1      1413    8    0    1
 -2       648       647       775      2748      3142      3143
 -1      1414    8    0    1
 -2       647       774       775      3140      3144      3142
 -1      1415    8    0    1
 -2       649       648       776      2751      3145      3146
 -1      1416    8    0    1
 -2       648       775       776      3143      3147      3145
 -1      1417    8    0    1
 -2       650       649       777      2754      3148      3149
 -1      1418    8    0    1
 -2       649       776       777      3146      3150      3148
 -1      1419    8    0    1
 -2       651       650       778      2757      3151      3152
 -1      1420    8    0    1
 -2       650       777       778      3149      3153      3151
 -1      1421    8    0    1
 -2       653       652       732      2763      3154      2990
 -1      1422    8    0    1
 -2       719       663       779      3028      3155      3156
 -1      1423    8    0    1
 -2       723       735       780      3043      3157      3158
 -1      1424    8    0    1
 -2       658       657       781      2776      3159      3160
 -1      1425    8    0    1
 -2       659       658       782      2779      3161      3162
 -1      1426    8    0    1
 -2       658       781       782      3160      3163      3161
 -1      1427    8    0    1
 -2       660       659       783      2782      3164      3165
 -1      1428    8    0    1
 -2       659       782       783      3162      3166      3164
 -1      1429    8    0    1
 -2       661       660       784      2785      3167      3168
 -1      1430    8    0    1
 -2       660       783       784      3165      3169      3167
 -1      1431    8    0    1
 -2       730       731       778      3048      3170      3171
 -1      1432    8    0    1
 -2       667       668       785      2804      3172      3173
 -1      1433    8    0    1
 -2       666       667       786      2801      3174      3175
 -1      1434    8    0    1
 -2       667       785       786      3173      3176      3174
 -1      1435    8    0    1
 -2       669       670       787      2810      3177      3178
 -1      1436    8    0    1
 -2       670       671       788      2813      3179      3180
 -1      1437    8    0    1
 -2       670       788       787      3180      3181      3177
 -1      1438    8    0    1
 -2       671       672       789      2816      3182      3183
 -1      1439    8    0    1
 -2       671       789       788      3183      3184      3179
 -1      1440    8    0    1
 -2       672       673       790      2819      3185      3186
 -1      1441    8    0    1
 -2       672       790       789      3186      3187      3182
 -1      1442    8    0    1
 -2       673       674       791      2822      3188      3189
 -1      1443    8    0    1
 -2       673       791       790      3189      3190      3185
 -1      1444    8    0    1
 -2       674       675       792      2825      3191      3192
 -1      1445    8    0    1
 -2       674       792       791      3192      3193      3188
 -1      1446    8    0    1
 -2       675       676       793      2828      3194      3195
 -1      1447    8    0    1
 -2       675       793       792      3195      3196      3191
 -1      1448    8    0    1
 -2       676       677       794      2831      3197      3198
 -1      1449    8    0    1
 -2       676       794       793      3198      3199      3194
 -1      1450    8    0    1
 -2       677       678       795      2834      3200      3201
 -1      1451    8    0    1
 -2       677       795       794      3201      3202      3197
 -1      1452    8    0    1
 -2       678       679       796      2837      3203      3204
 -1      1453    8    0    1
 -2       678       796       795      3204      3205      3200
 -1      1454    8    0    1
 -2       679       680       797      2840      3206      3207
 -1      1455    8    0    1
 -2       679       797       796      3207      3208      3203
 -1      1456    8    0    1
 -2       680       681       798      2843      3209      3210
 -1      1457    8    0    1
 -2       680       798       797      3210      3211      3206
 -1      1458    8    0    1
 -2       681       682       799      2846      3212      3213
 -1      1459    8    0    1
 -2       681       799       798      3213      3214      3209
 -1      1460    8    0    1
 -2       682       683       800      2849      3215      3216
 -1      1461    8    0    1
 -2       682       800       799      3216      3217      3212
 -1      1462    8    0    1
 -2       683       684       801      2852      3218      3219
 -1      1463    8    0    1
 -2       683       801       800      3219      3220      3215
 -1      1464    8    0    1
 -2       684       685       802      2855      3221      3222
 -1      1465    8    0    1
 -2       684       802       801      3222      3223      3218
 -1      1466    8    0    1
 -2       685       686       803      2858      3224      3225
 -1      1467    8    0    1
 -2       685       803       802      3225      3226      3221
 -1      1468    8    0    1
 -2       686       687       804      2861      3227      3228
 -1      1469    8    0    1
 -2       686       804       803      3228      3229      3224
 -1      1470    8    0    1
 -2       687       688       805      2864      3230      3231
 -1      1471    8    0    1
 -2       687       805       804      3231      3232      3227
 -1      1472    8    0    1
 -2       688       689       806      2867      3233      3234
 -1      1473    8    0    1
 -2       688       806       805      3234      3235      3230
 -1      1474    8    0    1
 -2       689       690       807      2870      3236      3237
 -1      1475    8    0    1
 -2       689       807       806      3237      3238      3233
 -1      1476    8    0    1
 -2       690       691       750      2873      3239      3240
 -1      1477    8    0    1
 -2       692       693       808      2879      3241      3242
 -1      1478    8    0    1
 -2       693       694       729      2882      3243      3244
 -1      1479    8    0    1
 -2       694       695       724      2885      3245      3246
 -1      1480    8    0    1
 -2       696       697       809      2891      3247      3248
 -1      1481    8    0    1
 -2       697       698       810      2894      3249      3250
 -1      1482    8    0    1
 -2       697       810       809      3250      3251      3247
 -1      1483    8    0    1
 -2       698       699       811      2897      3252      3253
 -1      1484    8    0    1
 -2       698       811       810      3253      3254      3249
 -1      1485    8    0    1
 -2       699       700       812      2900      3255      3256
 -1      1486    8    0    1
 -2       699       812       811      3256      3257      3252
 -1      1487    8    0    1
 -2       700       701       813      2903      3258      3259
 -1      1488    8    0    1
 -2       700       813       812      3259      3260      3255
 -1      1489    8    0    1
 -2       701       702       814      2906      3261      3262
 -1      1490    8    0    1
 -2       701       814       813      3262      3263      3258
 -1      1491    8    0    1
 -2       702       703       815      2909      3264      3265
 -1      1492    8    0    1
 -2       814       702       815      3261      3265      3266
 -1      1493    8    0    1
 -2       703       743       815      3032      3267      3264
 -1      1494    8    0    1
 -2       710       711       816      2933      3268      3269
 -1      1495    8    0    1
 -2       704       707       817      2920      3270      3271
 -1      1496    8    0    1
 -2       721       727       818      3038      3272      3273
 -1      1497    8    0    1
 -2       712       665       819      2937      3274      3275
 -1      1498    8    0    1
 -2       713       610       737      2941      3005      3276
 -1      1499    8    0    1
 -2       724       729       694      3036      3243      3246
 -1      1500    8    0    1
 -2       622       713       820      3023      3277      3278
 -1      1501    8    0    1
 -2       713       737       820      3276      3279      3277
 -1      1502    8    0    1
 -2       705       716       821      2950      3280      3281
 -1      1503    8    0    1
 -2       709       710       822      2930      3282      3283
 -1      1504    8    0    1
 -2       710       816       822      3269      3284      3282
 -1      1505    8    0    1
 -2       725       730       823      3052      3285      3286
 -1      1506    8    0    1
 -2       668       669       824      2807      3287      3288
 -1      1507    8    0    1
 -2       785       668       824      3172      3288      3289
 -1      1508    8    0    1
 -2       669       787       824      3178      3290      3287
 -1      1509    8    0    1
 -2       707       709       825      2927      3291      3292
 -1      1510    8    0    1
 -2       817       707       825      3270      3292      3293
 -1      1511    8    0    1
 -2       709       822       825      3283      3294      3291
 -1      1512    8    0    1
 -2       665       664       826      2796      3295      3296
 -1      1513    8    0    1
 -2       665       826       819      3296      3297      3274
 -1      1514    8    0    1
 -2       611       728       827      3007      3298      3299
 -1      1515    8    0    1
 -2       717       725       828      3056      3300      3301
 -1      1516    8    0    1
 -2       725       823       828      3286      3302      3300
 -1      1517    8    0    1
 -2       619       621       829      3065      3303      3304
 -1      1518    8    0    1
 -2       749       619       829      3067      3304      3305
 -1      1519    8    0    1
 -2       621       714       829      2944      3306      3303
 -1      1520    8    0    1
 -2       735       613       830      3037      3307      3308
 -1      1521    8    0    1
 -2       623       622       831      2673      3309      3310
 -1      1522    8    0    1
 -2       751       623       831      3071      3310      3311
 -1      1523    8    0    1
 -2       622       820       831      3278      3312      3309
 -1      1524    8    0    1
 -2       724       695       736      3245      3313      3034
 -1      1525    8    0    1
 -2       617       616       832      2657      3314      3315
 -1      1526    8    0    1
 -2       726       717       833      3030      3316      3317
 -1      1527    8    0    1
 -2       728       612       834      3046      3318      3319
 -1      1528    8    0    1
 -2       612       740       834      3015      3320      3318
 -1      1529    8    0    1
 -2       734       723       781      3044      3321      3322
 -1      1530    8    0    1
 -2       733       736       835      3003      3323      3324
 -1      1531    8    0    1
 -2       738       617       836      3008      3325      3326
 -1      1532    8    0    1
 -2       617       832       836      3315      3327      3325
 -1      1533    8    0    1
 -2       739       733       835      3013      3324      3328
 -1      1534    8    0    1
 -2       830       613       741      3307      3021      3329
 -1      1535    8    0    1
 -2       716       750       821      3070      3330      3280
 -1      1536    8    0    1
 -2       740       719       837      3016      3331      3332
 -1      1537    8    0    1
 -2       719       779       837      3156      3333      3331
 -1      1538    8    0    1
 -2       741       611       827      3019      3299      3334
 -1      1539    8    0    1
 -2       833       717       838      3316      3335      3336
 -1      1540    8    0    1
 -2       717       828       838      3301      3337      3335
 -1      1541    8    0    1
 -2       750       721       818      3069      3273      3338
 -1      1542    8    0    1
 -2       651       778       731      3152      3170      3339
 -1      1543    8    0    1
 -2       780       735       830      3157      3308      3340
 -1      1544    8    0    1
 -2       652       651       731      2760      3339      3341
 -1      1545    8    0    1
 -2       779       663       839      3155      3342      3343
 -1      1546    8    0    1
 -2       663       739       839      3012      3344      3342
 -1      1547    8    0    1
 -2       723       780       781      3158      3345      3321
 -1      1548    8    0    1
 -2       730       778       823      3171      3346      3285
 -1      1549    8    0    1
 -2       661       784       840      3168      3347      3348
 -1      1550    8    0    1
 -2       661       840       662      3348      3349      2789
 -1      1551    8    0    1
 -2       715       734       841      3017      3350      3351
 -1      1552    8    0    1
 -2       666       786       842      3175      3352      3353
 -1      1553    8    0    1
 -2       666       842       718      3353      3354      2956
 -1      1554    8    0    1
 -2       691       692       821      2876      3355      3356
 -1      1555    8    0    1
 -2       693       729       808      3244      3357      3241
 -1      1556    8    0    1
 -2       736       695       843      3313      3358      3359
 -1      1557    8    0    1
 -2       696       809       843      3248      3360      3361
 -1      1558    8    0    1
 -2       695       696       843      2888      3361      3358
 -1      1559    8    0    1
 -2       816       711       840      3268      3362      3363
 -1      1560    8    0    1
 -2       826       664       844      3295      3364      3365
 -1      1561    8    0    1
 -2       664       718       844      2955      3366      3364
 -1      1562    8    0    1
 -2       704       817       845      3271      3367      3368
 -1      1563    8    0    1
 -2       704       845       708      3368      3369      2924
 -1      1564    8    0    1
 -2       706       708       846      2923      3370      3371
 -1      1565    8    0    1
 -2       708       845       846      3369      3372      3370
 -1      1566    8    0    1
 -2       722       748       847      3063      3373      3374
 -1      1567    8    0    1
 -2       706       846       848      3371      3375      3376
 -1      1568    8    0    1
 -2       706       848       747      3376      3377      3060
 -1      1569    8    0    1
 -2       705       821       808      3281      3378      3379
 -1      1570    8    0    1
 -2       818       727       849      3272      3380      3381
 -1      1571    8    0    1
 -2       727       745       849      3050      3382      3380
 -1      1572    8    0    1
 -2       691       821       750      3356      3330      3239
 -1      1573    8    0    1
 -2       655       715       656      3066      3383      2770
 -1      1574    8    0    1
 -2       746       726       850      3055      3384      3385
 -1      1575    8    0    1
 -2       726       833       850      3317      3386      3384
 -1      1576    8    0    1
 -2       705       808       729      3379      3357      3035
 -1      1577    8    0    1
 -2       720       618       851      2962      3387      3388
 -1      1578    8    0    1
 -2       618       749       851      3068      3389      3387
 -1      1579    8    0    1
 -2       714       712       852      2945      3390      3391
 -1      1580    8    0    1
 -2       829       714       852      3306      3391      3392
 -1      1581    8    0    1
 -2       712       819       852      3275      3393      3390
 -1      1582    8    0    1
 -2       616       720       853      2961      3394      3395
 -1      1583    8    0    1
 -2       832       616       853      3314      3395      3396
 -1      1584    8    0    1
 -2       720       851       853      3388      3397      3394
 -1      1585    8    0    1
 -2       827       728       854      3298      3398      3399
 -1      1586    8    0    1
 -2       728       834       854      3319      3400      3398
 -1      1587    8    0    1
 -2       745       615       855      3051      3401      3402
 -1      1588    8    0    1
 -2       615       746       855      3054      3403      3401
 -1      1589    8    0    1
 -2       821       692       808      3355      3242      3378
 -1      1590    8    0    1
 -2       656       715       841      3383      3351      3404
 -1      1591    8    0    1
 -2       737       722       856      3006      3405      3406
 -1      1592    8    0    1
 -2       820       737       856      3279      3406      3407
 -1      1593    8    0    1
 -2       722       847       856      3374      3408      3405
 -1      1594    8    0    1
 -2       753       752       857      3078      3409      3410
 -1      1595    8    0    1
 -2       754       753       858      3081      3411      3412
 -1      1596    8    0    1
 -2       753       857       858      3410      3413      3411
 -1      1597    8    0    1
 -2       755       754       859      3084      3414      3415
 -1      1598    8    0    1
 -2       754       858       859      3412      3416      3414
 -1      1599    8    0    1
 -2       756       755       860      3087      3417      3418
 -1      1600    8    0    1
 -2       755       859       860      3415      3419      3417
 -1      1601    8    0    1
 -2       757       756       861      3090      3420      3421
 -1      1602    8    0    1
 -2       756       860       861      3418      3422      3420
 -1      1603    8    0    1
 -2       758       757       862      3093      3423      3424
 -1      1604    8    0    1
 -2       757       861       862      3421      3425      3423
 -1      1605    8    0    1
 -2       759       758       863      3096      3426      3427
 -1      1606    8    0    1
 -2       758       862       863      3424      3428      3426
 -1      1607    8    0    1
 -2       760       759       864      3099      3429      3430
 -1      1608    8    0    1
 -2       759       863       864      3427      3431      3429
 -1      1609    8    0    1
 -2       761       760       865      3102      3432      3433
 -1      1610    8    0    1
 -2       760       864       865      3430      3434      3432
 -1      1611    8    0    1
 -2       762       761       866      3105      3435      3436
 -1      1612    8    0    1
 -2       761       865       866      3433      3437      3435
 -1      1613    8    0    1
 -2       763       762       867      3108      3438      3439
 -1      1614    8    0    1
 -2       762       866       867      3436      3440      3438
 -1      1615    8    0    1
 -2       764       763       868      3111      3441      3442
 -1      1616    8    0    1
 -2       763       867       868      3439      3443      3441
 -1      1617    8    0    1
 -2       765       764       869      3114      3444      3445
 -1      1618    8    0    1
 -2       764       868       869      3442      3446      3444
 -1      1619    8    0    1
 -2       766       765       870      3117      3447      3448
 -1      1620    8    0    1
 -2       765       869       870      3445      3449      3447
 -1      1621    8    0    1
 -2       767       766       871      3120      3450      3451
 -1      1622    8    0    1
 -2       766       870       871      3448      3452      3450
 -1      1623    8    0    1
 -2       768       767       872      3123      3453      3454
 -1      1624    8    0    1
 -2       767       871       872      3451      3455      3453
 -1      1625    8    0    1
 -2       769       768       873      3126      3456      3457
 -1      1626    8    0    1
 -2       768       872       873      3454      3458      3456
 -1      1627    8    0    1
 -2       770       769       874      3129      3459      3460
 -1      1628    8    0    1
 -2       769       873       874      3457      3461      3459
 -1      1629    8    0    1
 -2       771       770       875      3132      3462      3463
 -1      1630    8    0    1
 -2       770       874       875      3460      3464      3462
 -1      1631    8    0    1
 -2       772       771       876      3135      3465      3466
 -1      1632    8    0    1
 -2       771       875       876      3463      3467      3465
 -1      1633    8    0    1
 -2       773       772       877      3138      3468      3469
 -1      1634    8    0    1
 -2       772       876       877      3466      3470      3468
 -1      1635    8    0    1
 -2       774       773       878      3141      3471      3472
 -1      1636    8    0    1
 -2       773       877       878      3469      3473      3471
 -1      1637    8    0    1
 -2       775       774       879      3144      3474      3475
 -1      1638    8    0    1
 -2       774       878       879      3472      3476      3474
 -1      1639    8    0    1
 -2       776       775       880      3147      3477      3478
 -1      1640    8    0    1
 -2       775       879       880      3475      3479      3477
 -1      1641    8    0    1
 -2       777       776       881      3150      3480      3481
 -1      1642    8    0    1
 -2       776       880       881      3478      3482      3480
 -1      1643    8    0    1
 -2       778       777       823      3153      3483      3346
 -1      1644    8    0    1
 -2       840       784       882      3347      3484      3485
 -1      1645    8    0    1
 -2       840       882       816      3485      3486      3363
 -1      1646    8    0    1
 -2       657       656       841      2773      3404      3487
 -1      1647    8    0    1
 -2       783       782       883      3166      3488      3489
 -1      1648    8    0    1
 -2       784       783       884      3169      3490      3491
 -1      1649    8    0    1
 -2       882       784       884      3484      3491      3492
 -1      1650    8    0    1
 -2       783       883       884      3489      3493      3490
 -1      1651    8    0    1
 -2       780       830       885      3340      3494      3495
 -1      1652    8    0    1
 -2       788       789       886      3184      3496      3497
 -1      1653    8    0    1
 -2       787       788       887      3181      3498      3499
 -1      1654    8    0    1
 -2       788       886       887      3497      3500      3498
 -1      1655    8    0    1
 -2       790       791       888      3190      3501      3502
 -1      1656    8    0    1
 -2       791       792       889      3193      3503      3504
 -1      1657    8    0    1
 -2       791       889       888      3504      3505      3501
 -1      1658    8    0    1
 -2       792       793       890      3196      3506      3507
 -1      1659    8    0    1
 -2       792       890       889      3507      3508      3503
 -1      1660    8    0    1
 -2       793       794       891      3199      3509      3510
 -1      1661    8    0    1
 -2       793       891       890      3510      3511      3506
 -1      1662    8    0    1
 -2       794       795       892      3202      3512      3513
 -1      1663    8    0    1
 -2       794       892       891      3513      3514      3509
 -1      1664    8    0    1
 -2       795       796       893      3205      3515      3516
 -1      1665    8    0    1
 -2       795       893       892      3516      3517      3512
 -1      1666    8    0    1
 -2       796       797       894      3208      3518      3519
 -1      1667    8    0    1
 -2       796       894       893      3519      3520      3515
 -1      1668    8    0    1
 -2       797       798       895      3211      3521      3522
 -1      1669    8    0    1
 -2       797       895       894      3522      3523      3518
 -1      1670    8    0    1
 -2       798       799       896      3214      3524      3525
 -1      1671    8    0    1
 -2       798       896       895      3525      3526      3521
 -1      1672    8    0    1
 -2       799       800       897      3217      3527      3528
 -1      1673    8    0    1
 -2       799       897       896      3528      3529      3524
 -1      1674    8    0    1
 -2       800       801       898      3220      3530      3531
 -1      1675    8    0    1
 -2       800       898       897      3531      3532      3527
 -1      1676    8    0    1
 -2       801       802       899      3223      3533      3534
 -1      1677    8    0    1
 -2       801       899       898      3534      3535      3530
 -1      1678    8    0    1
 -2       802       803       900      3226      3536      3537
 -1      1679    8    0    1
 -2       802       900       899      3537      3538      3533
 -1      1680    8    0    1
 -2       803       804       901      3229      3539      3540
 -1      1681    8    0    1
 -2       803       901       900      3540      3541      3536
 -1      1682    8    0    1
 -2       804       805       902      3232      3542      3543
 -1      1683    8    0    1
 -2       804       902       901      3543      3544      3539
 -1      1684    8    0    1
 -2       805       806       903      3235      3545      3546
 -1      1685    8    0    1
 -2       805       903       902      3546      3547      3542
 -1      1686    8    0    1
 -2       806       807       904      3238      3548      3549
 -1      1687    8    0    1
 -2       806       904       903      3549      3550      3545
 -1      1688    8    0    1
 -2       690       750       807      3240      3551      3236
 -1      1689    8    0    1
 -2       823       777       881      3483      3481      3552
 -1      1690    8    0    1
 -2       807       750       818      3551      3338      3553
 -1      1691    8    0    1
 -2       840       711       744      3362      3041      3554
 -1      1692    8    0    1
 -2       809       810       839      3251      3555      3556
 -1      1693    8    0    1
 -2       812       813       905      3260      3557      3558
 -1      1694    8    0    1
 -2       813       814       906      3263      3559      3560
 -1      1695    8    0    1
 -2       813       906       905      3560      3561      3557
 -1      1696    8    0    1
 -2       748       738       907      3064      3562      3563
 -1      1697    8    0    1
 -2       748       907       847      3563      3564      3373
 -1      1698    8    0    1
 -2       744       662       840      3042      3349      3554
 -1      1699    8    0    1
 -2       741       827       908      3334      3565      3566
 -1      1700    8    0    1
 -2       811       812       909      3257      3567      3568
 -1      1701    8    0    1
 -2       812       905       909      3558      3569      3567
 -1      1702    8    0    1
 -2       810       811       910      3254      3570      3571
 -1      1703    8    0    1
 -2       839       810       910      3555      3571      3572
 -1      1704    8    0    1
 -2       811       909       910      3568      3573      3570
 -1      1705    8    0    1
 -2       822       816       911      3284      3574      3575
 -1      1706    8    0    1
 -2       816       882       911      3486      3576      3574
 -1      1707    8    0    1
 -2       736       843       835      3359      3577      3323
 -1      1708    8    0    1
 -2       819       826       912      3297      3578      3579
 -1      1709    8    0    1
 -2       789       790       913      3187      3580      3581
 -1      1710    8    0    1
 -2       886       789       913      3496      3581      3582
 -1      1711    8    0    1
 -2       790       888       913      3502      3583      3580
 -1      1712    8    0    1
 -2       828       823       914      3302      3584      3585
 -1      1713    8    0    1
 -2       838       828       914      3337      3585      3586
 -1      1714    8    0    1
 -2       823       881       914      3552      3587      3584
 -1      1715    8    0    1
 -2       781       780       782      3345      3588      3163
 -1      1716    8    0    1
 -2       786       785       915      3176      3589      3590
 -1      1717    8    0    1
 -2       743       747       916      3059      3591      3592
 -1      1718    8    0    1
 -2       815       743       916      3267      3592      3593
 -1      1719    8    0    1
 -2       747       848       916      3377      3594      3591
 -1      1720    8    0    1
 -2       652       731       732      3341      2989      3154
 -1      1721    8    0    1
 -2       834       740       917      3320      3595      3596
 -1      1722    8    0    1
 -2       740       837       917      3332      3597      3595
 -1      1723    8    0    1
 -2       835       843       809      3577      3360      3598
 -1      1724    8    0    1
 -2       752       751       918      3075      3599      3600
 -1      1725    8    0    1
 -2       752       918       857      3600      3601      3409
 -1      1726    8    0    1
 -2       830       741       908      3329      3566      3602
 -1      1727    8    0    1
 -2       835       809       739      3598      3603      3328
 -1      1728    8    0    1
 -2       739       809       839      3603      3556      3344
 -1      1729    8    0    1
 -2       834       917       919      3596      3604      3605
 -1      1730    8    0    1
 -2       834       919       854      3605      3606      3400
 -1      1731    8    0    1
 -2       885       830       908      3494      3602      3607
 -1      1732    8    0    1
 -2       849       745       920      3382      3608      3609
 -1      1733    8    0    1
 -2       745       855       920      3402      3610      3608
 -1      1734    8    0    1
 -2       842       786       921      3352      3611      3612
 -1      1735    8    0    1
 -2       786       915       921      3590      3613      3611
 -1      1736    8    0    1
 -2       841       734       781      3350      3322      3614
 -1      1737    8    0    1
 -2       820       856       922      3407      3615      3616
 -1      1738    8    0    1
 -2       817       825       923      3293      3617      3618
 -1      1739    8    0    1
 -2       718       842       844      3354      3619      3366
 -1      1740    8    0    1
 -2       787       887       924      3499      3620      3621
 -1      1741    8    0    1
 -2       787       924       824      3621      3622      3290
 -1      1742    8    0    1
 -2       847       907       925      3564      3623      3624
 -1      1743    8    0    1
 -2       782       780       883      3588      3625      3488
 -1      1744    8    0    1
 -2       856       847       926      3408      3626      3627
 -1      1745    8    0    1
 -2       922       856       926      3615      3627      3628
 -1      1746    8    0    1
 -2       847       925       926      3624      3629      3626
 -1      1747    8    0    1
 -2       851       749       927      3389      3630      3631
 -1      1748    8    0    1
 -2       657       841       781      3487      3614      3159
 -1      1749    8    0    1
 -2       848       846       928      3375      3632      3633
 -1      1750    8    0    1
 -2       907       738       836      3562      3326      3634
 -1      1751    8    0    1
 -2       814       815       916      3266      3593      3635
 -1      1752    8    0    1
 -2       826       844       929      3365      3636      3637
 -1      1753    8    0    1
 -2       826       929       912      3637      3638      3578
 -1      1754    8    0    1
 -2       845       817       930      3367      3639      3640
 -1      1755    8    0    1
 -2       817       923       930      3618      3641      3639
 -1      1756    8    0    1
 -2       846       845       931      3372      3642      3643
 -1      1757    8    0    1
 -2       928       846       931      3632      3643      3644
 -1      1758    8    0    1
 -2       845       930       931      3640      3645      3642
 -1      1759    8    0    1
 -2       779       839       910      3343      3572      3646
 -1      1760    8    0    1
 -2       780       885       883      3495      3647      3625
 -1      1761    8    0    1
 -2       832       853       932      3396      3648      3649
 -1      1762    8    0    1
 -2       818       849       904      3381      3650      3651
 -1      1763    8    0    1
 -2       836       832       933      3327      3652      3653
 -1      1764    8    0    1
 -2       832       932       933      3649      3654      3652
 -1      1765    8    0    1
 -2       822       911       825      3575      3655      3294
 -1      1766    8    0    1
 -2       833       838       934      3336      3656      3657
 -1      1767    8    0    1
 -2       833       934       850      3657      3658      3386
 -1      1768    8    0    1
 -2       779       910       837      3646      3659      3333
 -1      1769    8    0    1
 -2       749       829       935      3305      3660      3661
 -1      1770    8    0    1
 -2       927       749       935      3630      3661      3662
 -1      1771    8    0    1
 -2       829       852       935      3392      3663      3660
 -1      1772    8    0    1
 -2       908       827       936      3565      3664      3665
 -1      1773    8    0    1
 -2       785       824       937      3289      3666      3667
 -1      1774    8    0    1
 -2       915       785       937      3589      3667      3668
 -1      1775    8    0    1
 -2       824       924       937      3622      3669      3666
 -1      1776    8    0    1
 -2       819       912       938      3579      3670      3671
 -1      1777    8    0    1
 -2       807       818       904      3553      3651      3548
 -1      1778    8    0    1
 -2       852       819       938      3393      3671      3672
 -1      1779    8    0    1
 -2       855       746       939      3403      3673      3674
 -1      1780    8    0    1
 -2       746       850       939      3385      3675      3673
 -1      1781    8    0    1
 -2       827       854       936      3399      3676      3664
 -1      1782    8    0    1
 -2       831       820       922      3312      3616      3677
 -1      1783    8    0    1
 -2       751       831       940      3311      3678      3679
 -1      1784    8    0    1
 -2       918       751       940      3599      3679      3680
 -1      1785    8    0    1
 -2       831       922       940      3677      3681      3678
 -1      1786    8    0    1
 -2       814       916       906      3635      3682      3559
 -1      1787    8    0    1
 -2       916       848       906      3594      3683      3682
 -1      1788    8    0    1
 -2       906       848       928      3683      3633      3684
 -1      1789    8    0    1
 -2       859       858       941      3416      3685      3686
 -1      1790    8    0    1
 -2       860       859       942      3419      3687      3688
 -1      1791    8    0    1
 -2       859       941       942      3686      3689      3687
 -1      1792    8    0    1
 -2       861       860       943      3422      3690      3691
 -1      1793    8    0    1
 -2       860       942       943      3688      3692      3690
 -1      1794    8    0    1
 -2       862       861       944      3425      3693      3694
 -1      1795    8    0    1
 -2       861       943       944      3691      3695      3693
 -1      1796    8    0    1
 -2       863       862       945      3428      3696      3697
 -1      1797    8    0    1
 -2       862       944       945      3694      3698      3696
 -1      1798    8    0    1
 -2       864       863       946      3431      3699      3700
 -1      1799    8    0    1
 -2       863       945       946      3697      3701      3699
 -1      1800    8    0    1
 -2       865       864       947      3434      3702      3703
 -1      1801    8    0    1
 -2       864       946       947      3700      3704      3702
 -1      1802    8    0    1
 -2       866       865       948      3437      3705      3706
 -1      1803    8    0    1
 -2       865       947       948      3703      3707      3705
 -1      1804    8    0    1
 -2       867       866       949      3440      3708      3709
 -1      1805    8    0    1
 -2       866       948       949      3706      3710      3708
 -1      1806    8    0    1
 -2       868       867       950      3443      3711      3712
 -1      1807    8    0    1
 -2       867       949       950      3709      3713      3711
 -1      1808    8    0    1
 -2       869       868       951      3446      3714      3715
 -1      1809    8    0    1
 -2       868       950       951      3712      3716      3714
 -1      1810    8    0    1
 -2       870       869       952      3449      3717      3718
 -1      1811    8    0    1
 -2       869       951       952      3715      3719      3717
 -1      1812    8    0    1
 -2       871       870       953      3452      3720      3721
 -1      1813    8    0    1
 -2       870       952       953      3718      3722      3720
 -1      1814    8    0    1
 -2       872       871       954      3455      3723      3724
 -1      1815    8    0    1
 -2       871       953       954      3721      3725      3723
 -1      1816    8    0    1
 -2       873       872       955      3458      3726      3727
 -1      1817    8    0    1
 -2       872       954       955      3724      3728      3726
 -1      1818    8    0    1
 -2       874       873       956      3461      3729      3730
 -1      1819    8    0    1
 -2       873       955       956      3727      3731      3729
 -1      1820    8    0    1
 -2       875       874       957      3464      3732      3733
 -1      1821    8    0    1
 -2       874       956       957      3730      3734      3732
 -1      1822    8    0    1
 -2       876       875       958      3467      3735      3736
 -1      1823    8    0    1
 -2       875       957       958      3733      3737      3735
 -1      1824    8    0    1
 -2       877       876       959      3470      3738      3739
 -1      1825    8    0    1
 -2       876       958       959      3736      3740      3738
 -1      1826    8    0    1
 -2       878       877       960      3473      3741      3742
 -1      1827    8    0    1
 -2       877       959       960      3739      3743      3741
 -1      1828    8    0    1
 -2       879       878       961      3476      3744      3745
 -1      1829    8    0    1
 -2       878       960       961      3742      3746      3744
 -1      1830    8    0    1
 -2       880       879       962      3479      3747      3748
 -1      1831    8    0    1
 -2       879       961       962      3745      3749      3747
 -1      1832    8    0    1
 -2       881       880       963      3482      3750      3751
 -1      1833    8    0    1
 -2       914       881       963      3587      3751      3752
 -1      1834    8    0    1
 -2       880       962       963      3748      3753      3750
 -1      1835    8    0    1
 -2       887       886       964      3500      3754      3755
 -1      1836    8    0    1
 -2       857       918       965      3601      3756      3757
 -1      1837    8    0    1
 -2       923       825       911      3617      3655      3758
 -1      1838    8    0    1
 -2       906       928       905      3684      3759      3561
 -1      1839    8    0    1
 -2       844       842       966      3619      3760      3761
 -1      1840    8    0    1
 -2       842       921       966      3612      3762      3760
 -1      1841    8    0    1
 -2       889       890       967      3508      3763      3764
 -1      1842    8    0    1
 -2       888       889       968      3505      3765      3766
 -1      1843    8    0    1
 -2       889       967       968      3764      3767      3765
 -1      1844    8    0    1
 -2       891       892       969      3514      3768      3769
 -1      1845    8    0    1
 -2       892       893       970      3517      3770      3771
 -1      1846    8    0    1
 -2       892       970       969      3771      3772      3768
 -1      1847    8    0    1
 -2       893       894       971      3520      3773      3774
 -1      1848    8    0    1
 -2       893       971       970      3774      3775      3770
 -1      1849    8    0    1
 -2       894       895       972      3523      3776      3777
 -1      1850    8    0    1
 -2       894       972       971      3777      3778      3773
 -1      1851    8    0    1
 -2       895       896       973      3526      3779      3780
 -1      1852    8    0    1
 -2       895       973       972      3780      3781      3776
 -1      1853    8    0    1
 -2       896       897       974      3529      3782      3783
 -1      1854    8    0    1
 -2       896       974       973      3783      3784      3779
 -1      1855    8    0    1
 -2       897       898       975      3532      3785      3786
 -1      1856    8    0    1
 -2       897       975       974      3786      3787      3782
 -1      1857    8    0    1
 -2       898       899       976      3535      3788      3789
 -1      1858    8    0    1
 -2       898       976       975      3789      3790      3785
 -1      1859    8    0    1
 -2       899       900       977      3538      3791      3792
 -1      1860    8    0    1
 -2       899       977       976      3792      3793      3788
 -1      1861    8    0    1
 -2       900       901       978      3541      3794      3795
 -1      1862    8    0    1
 -2       900       978       977      3795      3796      3791
 -1      1863    8    0    1
 -2       901       902       979      3544      3797      3798
 -1      1864    8    0    1
 -2       901       979       978      3798      3799      3794
 -1      1865    8    0    1
 -2       902       903       980      3547      3800      3801
 -1      1866    8    0    1
 -2       902       980       979      3801      3802      3797
 -1      1867    8    0    1
 -2       905       928       981      3759      3803      3804
 -1      1868    8    0    1
 -2       890       891       982      3511      3805      3806
 -1      1869    8    0    1
 -2       891       969       982      3769      3807      3805
 -1      1870    8    0    1
 -2       911       882       983      3576      3808      3809
 -1      1871    8    0    1
 -2       882       884       983      3492      3810      3808
 -1      1872    8    0    1
 -2       907       836       984      3634      3811      3812
 -1      1873    8    0    1
 -2       925       907       984      3623      3812      3813
 -1      1874    8    0    1
 -2       836       933       984      3653      3814      3811
 -1      1875    8    0    1
 -2       904       849       985      3650      3815      3816
 -1      1876    8    0    1
 -2       903       904       985      3550      3816      3817
 -1      1877    8    0    1
 -2       849       920       985      3609      3818      3815
 -1      1878    8    0    1
 -2       909       905       981      3569      3804      3819
 -1      1879    8    0    1
 -2       910       909       986      3573      3820      3821
 -1      1880    8    0    1
 -2       837       910       986      3659      3821      3822
 -1      1881    8    0    1
 -2       909       981       986      3819      3823      3820
 -1      1882    8    0    1
 -2       938       912       987      3670      3824      3825
 -1      1883    8    0    1
 -2       853       851       988      3397      3826      3827
 -1      1884    8    0    1
 -2       932       853       988      3648      3827      3828
 -1      1885    8    0    1
 -2       851       927       988      3631      3829      3826
 -1      1886    8    0    1
 -2       885       908       983      3607      3830      3831
 -1      1887    8    0    1
 -2       917       837       986      3597      3822      3832
 -1      1888    8    0    1
 -2       858       857       989      3413      3833      3834
 -1      1889    8    0    1
 -2       857       965       989      3757      3835      3833
 -1      1890    8    0    1
 -2       941       858       989      3685      3834      3836
 -1      1891    8    0    1
 -2       887       964       990      3755      3837      3838
 -1      1892    8    0    1
 -2       887       990       924      3838      3839      3620
 -1      1893    8    0    1
 -2       965       918       991      3756      3840      3841
 -1      1894    8    0    1
 -2       918       940       991      3680      3842      3840
 -1      1895    8    0    1
 -2       920       855       992      3610      3843      3844
 -1      1896    8    0    1
 -2       855       939       992      3674      3845      3843
 -1      1897    8    0    1
 -2       921       915       993      3613      3846      3847
 -1      1898    8    0    1
 -2       923       911       994      3758      3848      3849
 -1      1899    8    0    1
 -2       884       883       983      3493      3850      3810
 -1      1900    8    0    1
 -2       925       984       995      3813      3851      3852
 -1      1901    8    0    1
 -2       964       886       996      3754      3853      3854
 -1      1902    8    0    1
 -2       886       913       996      3582      3855      3853
 -1      1903    8    0    1
 -2       838       914       997      3586      3856      3857
 -1      1904    8    0    1
 -2       914       963       997      3752      3858      3856
 -1      1905    8    0    1
 -2       928       931       981      3644      3859      3803
 -1      1906    8    0    1
 -2       967       890       982      3763      3806      3860
 -1      1907    8    0    1
 -2       980       903       985      3800      3817      3861
 -1      1908    8    0    1
 -2       926       925       998      3629      3862      3863
 -1      1909    8    0    1
 -2       925       995       998      3852      3864      3862
 -1      1910    8    0    1
 -2       883       885       983      3647      3831      3850
 -1      1911    8    0    1
 -2       844       966       929      3761      3865      3636
 -1      1912    8    0    1
 -2       930       923       936      3641      3866      3867
 -1      1913    8    0    1
 -2       934       838       997      3656      3857      3868
 -1      1914    8    0    1
 -2       913       888       999      3583      3869      3870
 -1      1915    8    0    1
 -2       913       999       996      3870      3871      3855
 -1      1916    8    0    1
 -2       987       912      1000      3824      3872      3873
 -1      1917    8    0    1
 -2       912       929      1000      3638      3874      3872
 -1      1918    8    0    1
 -2       915       937      1001      3668      3875      3876
 -1      1919    8    0    1
 -2       915      1001       993      3876      3877      3846
 -1      1920    8    0    1
 -2       932       988      1002      3828      3878      3879
 -1      1921    8    0    1
 -2       939       850      1003      3675      3880      3881
 -1      1922    8    0    1
 -2       850       934      1003      3658      3882      3880
 -1      1923    8    0    1
 -2       933       932      1004      3654      3883      3884
 -1      1924    8    0    1
 -2       932      1002      1004      3879      3885      3883
 -1      1925    8    0    1
 -2       936       854      1005      3676      3886      3887
 -1      1926    8    0    1
 -2       917       986      1006      3832      3888      3889
 -1      1927    8    0    1
 -2       919       917      1006      3604      3889      3890
 -1      1928    8    0    1
 -2       986       981      1006      3823      3891      3888
 -1      1929    8    0    1
 -2       908       936       994      3665      3892      3893
 -1      1930    8    0    1
 -2       911       983       994      3809      3894      3848
 -1      1931    8    0    1
 -2       936       923       994      3866      3849      3892
 -1      1932    8    0    1
 -2       908       994       983      3893      3894      3830
 -1      1933    8    0    1
 -2       999       888       968      3869      3766      3895
 -1      1934    8    0    1
 -2      1005       854       919      3886      3606      3896
 -1      1935    8    0    1
 -2       927       935       938      3662      3897      3898
 -1      1936    8    0    1
 -2       942       941      1007      3689      3899      3900
 -1      1937    8    0    1
 -2       943       942      1008      3692      3901      3902
 -1      1938    8    0    1
 -2       942      1007      1008      3900      3903      3901
 -1      1939    8    0    1
 -2       944       943      1009      3695      3904      3905
 -1      1940    8    0    1
 -2       943      1008      1009      3902      3906      3904
 -1      1941    8    0    1
 -2       945       944      1010      3698      3907      3908
 -1      1942    8    0    1
 -2       944      1009      1010      3905      3909      3907
 -1      1943    8    0    1
 -2       946       945      1011      3701      3910      3911
 -1      1944    8    0    1
 -2       945      1010      1011      3908      3912      3910
 -1      1945    8    0    1
 -2       947       946      1012      3704      3913      3914
 -1      1946    8    0    1
 -2       946      1011      1012      3911      3915      3913
 -1      1947    8    0    1
 -2       948       947      1013      3707      3916      3917
 -1      1948    8    0    1
 -2       947      1012      1013      3914      3918      3916
 -1      1949    8    0    1
 -2       949       948      1014      3710      3919      3920
 -1      1950    8    0    1
 -2       948      1013      1014      3917      3921      3919
 -1      1951    8    0    1
 -2       950       949      1015      3713      3922      3923
 -1      1952    8    0    1
 -2       949      1014      1015      3920      3924      3922
 -1      1953    8    0    1
 -2       951       950      1016      3716      3925      3926
 -1      1954    8    0    1
 -2       950      1015      1016      3923      3927      3925
 -1      1955    8    0    1
 -2       952       951      1017      3719      3928      3929
 -1      1956    8    0    1
 -2       951      1016      1017      3926      3930      3928
 -1      1957    8    0    1
 -2       953       952      1018      3722      3931      3932
 -1      1958    8    0    1
 -2       952      1017      1018      3929      3933      3931
 -1      1959    8    0    1
 -2       954       953      1019      3725      3934      3935
 -1      1960    8    0    1
 -2       953      1018      1019      3932      3936      3934
 -1      1961    8    0    1
 -2       955       954      1020      3728      3937      3938
 -1      1962    8    0    1
 -2       954      1019      1020      3935      3939      3937
 -1      1963    8    0    1
 -2       956       955      1021      3731      3940      3941
 -1      1964    8    0    1
 -2       955      1020      1021      3938      3942      3940
 -1      1965    8    0    1
 -2       957       956      1022      3734      3943      3944
 -1      1966    8    0    1
 -2       956      1021      1022      3941      3945      3943
 -1      1967    8    0    1
 -2       958       957      1023      3737      3946      3947
 -1      1968    8    0    1
 -2       957      1022      1023      3944      3948      3946
 -1      1969    8    0    1
 -2       959       958      1024      3740      3949      3950
 -1      1970    8    0    1
 -2       958      1023      1024      3947      3951      3949
 -1      1971    8    0    1
 -2       960       959      1025      3743      3952      3953
 -1      1972    8    0    1
 -2       959      1024      1025      3950      3954      3952
 -1      1973    8    0    1
 -2       961       960      1026      3746      3955      3956
 -1      1974    8    0    1
 -2       960      1025      1026      3953      3957      3955
 -1      1975    8    0    1
 -2       962       961      1027      3749      3958      3959
 -1      1976    8    0    1
 -2       961      1026      1027      3956      3960      3958
 -1      1977    8    0    1
 -2       941       989      1028      3836      3961      3962
 -1      1978    8    0    1
 -2       941      1028      1007      3962      3963      3899
 -1      1979    8    0    1
 -2       936      1005       930      3887      3964      3867
 -1      1980    8    0    1
 -2       927       938       988      3898      3965      3829
 -1      1981    8    0    1
 -2       929       966      1029      3865      3966      3967
 -1      1982    8    0    1
 -2       929      1029      1000      3967      3968      3874
 -1      1983    8    0    1
 -2       968       967      1030      3767      3969      3970
 -1      1984    8    0    1
 -2       995       984      1031      3851      3971      3972
 -1      1985    8    0    1
 -2       984       933      1031      3814      3973      3971
 -1      1986    8    0    1
 -2       922       926      1032      3628      3974      3975
 -1      1987    8    0    1
 -2       966       921      1033      3762      3976      3977
 -1      1988    8    0    1
 -2      1029       966      1033      3966      3977      3978
 -1      1989    8    0    1
 -2       921       993      1033      3847      3979      3976
 -1      1990    8    0    1
 -2       985       920       992      3818      3844      3980
 -1      1991    8    0    1
 -2      1005       919      1034      3896      3981      3982
 -1      1992    8    0    1
 -2       930      1005      1034      3964      3982      3983
 -1      1993    8    0    1
 -2       919      1006      1034      3890      3984      3981
 -1      1994    8    0    1
 -2       970       971      1035      3775      3985      3986
 -1      1995    8    0    1
 -2       969       970      1036      3772      3987      3988
 -1      1996    8    0    1
 -2       970      1035      1036      3986      3989      3987
 -1      1997    8    0    1
 -2       972       973      1037      3781      3990      3991
 -1      1998    8    0    1
 -2       973       974      1038      3784      3992      3993
 -1      1999    8    0    1
 -2       973      1038      1037      3993      3994      3990
 -1      2000    8    0    1
 -2       974       975      1039      3787      3995      3996
 -1      2001    8    0    1
 -2       974      1039      1038      3996      3997      3992
 -1      2002    8    0    1
 -2       975       976      1040      3790      3998      3999
 -1      2003    8    0    1
 -2       975      1040      1039      3999      4000      3995
 -1      2004    8    0    1
 -2       976       977      1041      3793      4001      4002
 -1      2005    8    0    1
 -2       976      1041      1040      4002      4003      3998
 -1      2006    8    0    1
 -2       977       978      1042      3796      4004      4005
 -1      2007    8    0    1
 -2       977      1042      1041      4005      4006      4001
 -1      2008    8    0    1
 -2       978       979      1043      3799      4007      4008
 -1      2009    8    0    1
 -2       978      1043      1042      4008      4009      4004
 -1      2010    8    0    1
 -2       979       980      1044      3802      4010      4011
 -1      2011    8    0    1
 -2       979      1044      1043      4011      4012      4007
 -1      2012    8    0    1
 -2       967       982      1045      3860      4013      4014
 -1      2013    8    0    1
 -2       967      1045      1030      4014      4015      3969
 -1      2014    8    0    1
 -2       980       985       992      3861      3980      4016
 -1      2015    8    0    1
 -2       852       938       935      3672      3897      3663
 -1      2016    8    0    1
 -2      1032       926       998      3974      3863      4017
 -1      2017    8    0    1
 -2       922      1032       940      3975      4018      3681
 -1      2018    8    0    1
 -2       988       938       987      3965      3825      4019
 -1      2019    8    0    1
 -2       934       997      1046      3868      4020      4021
 -1      2020    8    0    1
 -2       934      1046      1003      4021      4022      3882
 -1      2021    8    0    1
 -2       931       930      1034      3645      3983      4023
 -1      2022    8    0    1
 -2       999       968      1047      3895      4024      4025
 -1      2023    8    0    1
 -2       968      1030      1047      3970      4026      4024
 -1      2024    8    0    1
 -2       937       924      1048      3669      4027      4028
 -1      2025    8    0    1
 -2      1001       937      1048      3875      4028      4029
 -1      2026    8    0    1
 -2       924       990      1048      3839      4030      4027
 -1      2027    8    0    1
 -2      1002       988       987      3878      4019      4031
 -1      2028    8    0    1
 -2       989       965      1049      3835      4032      4033
 -1      2029    8    0    1
 -2       989      1049      1028      4033      4034      3961
 -1      2030    8    0    1
 -2       982       969      1050      3807      4035      4036
 -1      2031    8    0    1
 -2       982      1050      1045      4036      4037      4013
 -1      2032    8    0    1
 -2       971       972      1051      3778      4038      4039
 -1      2033    8    0    1
 -2       971      1051      1035      4039      4040      3985
 -1      2034    8    0    1
 -2      1002       987      1052      4031      4041      4042
 -1      2035    8    0    1
 -2       987      1000      1052      3873      4043      4041
 -1      2036    8    0    1
 -2       990       964      1053      3837      4044      4045
 -1      2037    8    0    1
 -2       963       962      1054      3753      4046      4047
 -1      2038    8    0    1
 -2       997       963      1054      3858      4047      4048
 -1      2039    8    0    1
 -2       962      1027      1054      3959      4049      4046
 -1      2040    8    0    1
 -2       992       939      1055      3845      4050      4051
 -1      2041    8    0    1
 -2      1033       993      1056      3979      4052      4053
 -1      2042    8    0    1
 -2      1031       933      1004      3973      3884      4054
 -1      2043    8    0    1
 -2       980       992      1044      4016      4055      4010
 -1      2044    8    0    1
 -2       995      1031      1057      3972      4056      4057
 -1      2045    8    0    1
 -2       964       996      1058      3854      4058      4059
 -1      2046    8    0    1
 -2       964      1058      1053      4059      4060      4044
 -1      2047    8    0    1
 -2      1055       939      1003      4050      3881      4061
 -1      2048    8    0    1
 -2       969      1036      1050      3988      4062      4035
 -1      2049    8    0    1
 -2       995      1057      1059      4057      4063      4064
 -1      2050    8    0    1
 -2       995      1059       998      4064      4065      3864
 -1      2051    8    0    1
 -2      1046       997      1054      4020      4048      4066
 -1      2052    8    0    1
 -2       940      1032       991      4018      4067      3842
 -1      2053    8    0    1
 -2      1002      1052      1004      4042      4068      3885
 -1      2054    8    0    1
 -2      1032       998       991      4017      4069      4067
 -1      2055    8    0    1
 -2       996       999      1060      3871      4070      4071
 -1      2056    8    0    1
 -2       996      1060      1058      4071      4072      4058
 -1      2057    8    0    1
 -2      1049       965      1059      4032      4073      4074
 -1      2058    8    0    1
 -2       993      1001      1061      3877      4075      4076
 -1      2059    8    0    1
 -2       993      1061      1056      4076      4077      4052
 -1      2060    8    0    1
 -2       972      1037      1051      3991      4078      4038
 -1      2061    8    0    1
 -2       981       931      1034      3859      4023      4079
 -1      2062    8    0    1
 -2       999      1047      1060      4025      4080      4070
 -1      2063    8    0    1
 -2       992      1055      1044      4051      4081      4055
 -1      2064    8    0    1
 -2      1007      1028      1062      3963      4082      4083
 -1      2065    8    0    1
 -2      1004      1052      1063      4068      4084      4085
 -1      2066    8    0    1
 -2      1009      1008      1064      3906      4086      4087
 -1      2067    8    0    1
 -2      1010      1009      1065      3909      4088      4089
 -1      2068    8    0    1
 -2      1009      1064      1065      4087      4090      4088
 -1      2069    8    0    1
 -2      1011      1010      1066      3912      4091      4092
 -1      2070    8    0    1
 -2      1010      1065      1066      4089      4093      4091
 -1      2071    8    0    1
 -2      1012      1011      1067      3915      4094      4095
 -1      2072    8    0    1
 -2      1011      1066      1067      4092      4096      4094
 -1      2073    8    0    1
 -2      1013      1012      1068      3918      4097      4098
 -1      2074    8    0    1
 -2      1012      1067      1068      4095      4099      4097
 -1      2075    8    0    1
 -2      1014      1013      1069      3921      4100      4101
 -1      2076    8    0    1
 -2      1013      1068      1069      4098      4102      4100
 -1      2077    8    0    1
 -2      1015      1014      1070      3924      4103      4104
 -1      2078    8    0    1
 -2      1014      1069      1070      4101      4105      4103
 -1      2079    8    0    1
 -2      1016      1015      1071      3927      4106      4107
 -1      2080    8    0    1
 -2      1015      1070      1071      4104      4108      4106
 -1      2081    8    0    1
 -2      1017      1016      1072      3930      4109      4110
 -1      2082    8    0    1
 -2      1016      1071      1072      4107      4111      4109
 -1      2083    8    0    1
 -2      1018      1017      1073      3933      4112      4113
 -1      2084    8    0    1
 -2      1017      1072      1073      4110      4114      4112
 -1      2085    8    0    1
 -2      1019      1018      1074      3936      4115      4116
 -1      2086    8    0    1
 -2      1018      1073      1074      4113      4117      4115
 -1      2087    8    0    1
 -2      1020      1019      1075      3939      4118      4119
 -1      2088    8    0    1
 -2      1019      1074      1075      4116      4120      4118
 -1      2089    8    0    1
 -2      1021      1020      1076      3942      4121      4122
 -1      2090    8    0    1
 -2      1020      1075      1076      4119      4123      4121
 -1      2091    8    0    1
 -2      1022      1021      1077      3945      4124      4125
 -1      2092    8    0    1
 -2      1021      1076      1077      4122      4126      4124
 -1      2093    8    0    1
 -2      1023      1022      1078      3948      4127      4128
 -1      2094    8    0    1
 -2      1022      1077      1078      4125      4129      4127
 -1      2095    8    0    1
 -2      1024      1023      1079      3951      4130      4131
 -1      2096    8    0    1
 -2      1023      1078      1079      4128      4132      4130
 -1      2097    8    0    1
 -2      1025      1024      1080      3954      4133      4134
 -1      2098    8    0    1
 -2      1024      1079      1080      4131      4135      4133
 -1      2099    8    0    1
 -2      1026      1025      1081      3957      4136      4137
 -1      2100    8    0    1
 -2      1025      1080      1081      4134      4138      4136
 -1      2101    8    0    1
 -2      1027      1026      1082      3960      4139      4140
 -1      2102    8    0    1
 -2      1026      1081      1082      4137      4141      4139
 -1      2103    8    0    1
 -2      1045      1050      1083      4037      4142      4143
 -1      2104    8    0    1
 -2      1051      1037      1084      4078      4144      4145
 -1      2105    8    0    1
 -2      1033      1056      1085      4053      4146      4147
 -1      2106    8    0    1
 -2      1033      1085      1029      4147      4148      3978
 -1      2107    8    0    1
 -2      1031      1004      1063      4054      4085      4149
 -1      2108    8    0    1
 -2      1049      1059      1086      4074      4150      4151
 -1      2109    8    0    1
 -2      1059      1057      1086      4063      4152      4150
 -1      2110    8    0    1
 -2      1039      1040      1087      4000      4153      4154
 -1      2111    8    0    1
 -2      1057      1031      1063      4056      4149      4155
 -1      2112    8    0    1
 -2       965       991      1059      3841      4156      4073
 -1      2113    8    0    1
 -2      1036      1035      1088      3989      4157      4158
 -1      2114    8    0    1
 -2      1038      1039      1089      3997      4159      4160
 -1      2115    8    0    1
 -2      1039      1087      1089      4154      4161      4159
 -1      2116    8    0    1
 -2      1037      1038      1090      3994      4162      4163
 -1      2117    8    0    1
 -2      1084      1037      1090      4144      4163      4164
 -1      2118    8    0    1
 -2      1038      1089      1090      4160      4165      4162
 -1      2119    8    0    1
 -2      1040      1041      1091      4003      4166      4167
 -1      2120    8    0    1
 -2      1040      1091      1087      4167      4168      4153
 -1      2121    8    0    1
 -2      1041      1042      1092      4006      4169      4170
 -1      2122    8    0    1
 -2      1041      1092      1091      4170      4171      4166
 -1      2123    8    0    1
 -2      1042      1043      1093      4009      4172      4173
 -1      2124    8    0    1
 -2      1042      1093      1092      4173      4174      4169
 -1      2125    8    0    1
 -2      1043      1044      1094      4012      4175      4176
 -1      2126    8    0    1
 -2      1043      1094      1093      4176      4177      4172
 -1      2127    8    0    1
 -2      1030      1045      1095      4015      4178      4179
 -1      2128    8    0    1
 -2      1045      1083      1095      4143      4180      4178
 -1      2129    8    0    1
 -2      1035      1051      1096      4040      4181      4182
 -1      2130    8    0    1
 -2      1051      1084      1096      4145      4183      4181
 -1      2131    8    0    1
 -2      1046      1054      1097      4066      4184      4185
 -1      2132    8    0    1
 -2      1054      1027      1097      4049      4186      4184
 -1      2133    8    0    1
 -2      1047      1030      1098      4026      4187      4188
 -1      2134    8    0    1
 -2      1030      1095      1098      4179      4189      4187
 -1      2135    8    0    1
 -2      1060      1047      1099      4080      4190      4191
 -1      2136    8    0    1
 -2      1047      1098      1099      4188      4192      4190
 -1      2137    8    0    1
 -2      1000      1029      1100      3968      4193      4194
 -1      2138    8    0    1
 -2      1052      1000      1100      4043      4194      4195
 -1      2139    8    0    1
 -2      1029      1085      1100      4148      4196      4193
 -1      2140    8    0    1
 -2      1003      1046      1101      4022      4197      4198
 -1      2141    8    0    1
 -2      1055      1003      1101      4061      4198      4199
 -1      2142    8    0    1
 -2      1046      1097      1101      4185      4200      4197
 -1      2143    8    0    1
 -2      1044      1055      1094      4081      4201      4175
 -1      2144    8    0    1
 -2      1050      1036      1102      4062      4202      4203
 -1      2145    8    0    1
 -2      1036      1088      1102      4158      4204      4202
 -1      2146    8    0    1
 -2       991       998      1059      4069      4065      4156
 -1      2147    8    0    1
 -2       990      1053      1103      4045      4205      4206
 -1      2148    8    0    1
 -2       990      1103      1048      4206      4207      4030
 -1      2149    8    0    1
 -2      1028      1049      1104      4034      4208      4209
 -1      2150    8    0    1
 -2      1062      1028      1104      4082      4209      4210
 -1      2151    8    0    1
 -2      1049      1086      1104      4151      4211      4208
 -1      2152    8    0    1
 -2      1008      1007      1105      3903      4212      4213
 -1      2153    8    0    1
 -2      1007      1062      1105      4083      4214      4212
 -1      2154    8    0    1
 -2      1008      1105      1064      4213      4215      4086
 -1      2155    8    0    1
 -2      1058      1060      1106      4072      4216      4217
 -1      2156    8    0    1
 -2      1060      1099      1106      4191      4218      4216
 -1      2157    8    0    1
 -2      1027      1082      1097      4140      4219      4186
 -1      2158    8    0    1
 -2      1035      1096      1088      4182      4220      4157
 -1      2159    8    0    1
 -2      1083      1050      1102      4142      4203      4221
 -1      2160    8    0    1
 -2      1094      1055      1101      4201      4199      4222
 -1      2161    8    0    1
 -2      1086      1057      1107      4152      4223      4224
 -1      2162    8    0    1
 -2      1104      1086      1107      4211      4224      4225
 -1      2163    8    0    1
 -2      1057      1063      1107      4155      4226      4223
 -1      2164    8    0    1
 -2      1053      1058      1108      4060      4227      4228
 -1      2165    8    0    1
 -2      1058      1106      1108      4217      4229      4227
 -1      2166    8    0    1
 -2      1006       981      1034      3891      4079      3984
 -1      2167    8    0    1
 -2      1085      1056      1109      4146      4230      4231
 -1      2168    8    0    1
 -2      1001      1048      1110      4029      4232      4233
 -1      2169    8    0    1
 -2      1061      1001      1110      4075      4233      4234
 -1      2170    8    0    1
 -2      1048      1103      1110      4207      4235      4232
 -1      2171    8    0    1
 -2      1052      1100      1063      4195      4236      4084
 -1      2172    8    0    1
 -2      1056      1061      1111      4077      4237      4238
 -1      2173    8    0    1
 -2      1056      1111      1109      4238      4239      4230
 -1      2174    8    0    1
 -2      1103      1053      1112      4205      4240      4241
 -1      2175    8    0    1
 -2      1053      1108      1112      4228      4242      4240
 -1      2176    8    0    1
 -2      1105      1062      1111      4214      4243      4244
 -1      2177    8    0    1
 -2      1066      1065      1113      4093      4245      4246
 -1      2178    8    0    1
 -2      1067      1066      1108      4096      4247      4248
 -1      2179    8    0    1
 -2      1068      1067      1106      4099      4249      4250
 -1      2180    8    0    1
 -2      1069      1068      1099      4102      4251      4252
 -1      2181    8    0    1
 -2      1070      1069      1098      4105      4253      4254
 -1      2182    8    0    1
 -2      1071      1070      1095      4108      4255      4256
 -1      2183    8    0    1
 -2      1072      1071      1083      4111      4257      4258
 -1      2184    8    0    1
 -2      1073      1072      1102      4114      4259      4260
 -1      2185    8    0    1
 -2      1074      1073      1088      4117      4261      4262
 -1      2186    8    0    1
 -2      1075      1074      1096      4120      4263      4264
 -1      2187    8    0    1
 -2      1076      1075      1084      4123      4265      4266
 -1      2188    8    0    1
 -2      1077      1076      1090      4126      4267      4268
 -1      2189    8    0    1
 -2      1078      1077      1089      4129      4269      4270
 -1      2190    8    0    1
 -2      1079      1078      1087      4132      4271      4272
 -1      2191    8    0    1
 -2      1080      1079      1091      4135      4273      4274
 -1      2192    8    0    1
 -2      1081      1080      1092      4138      4275      4276
 -1      2193    8    0    1
 -2      1082      1081      1093      4141      4277      4278
 -1      2194    8    0    1
 -2      1095      1070      1098      4255      4254      4189
 -1      2195    8    0    1
 -2      1098      1069      1099      4253      4252      4192
 -1      2196    8    0    1
 -2      1091      1092      1080      4171      4275      4274
 -1      2197    8    0    1
 -2      1089      1087      1078      4161      4271      4270
 -1      2198    8    0    1
 -2      1099      1068      1106      4251      4250      4218
 -1      2199    8    0    1
 -2      1063      1100      1114      4236      4279      4280
 -1      2200    8    0    1
 -2      1107      1063      1114      4226      4280      4281
 -1      2201    8    0    1
 -2      1100      1085      1114      4196      4282      4279
 -1      2202    8    0    1
 -2      1083      1102      1072      4221      4259      4258
 -1      2203    8    0    1
 -2      1085      1109      1114      4231      4283      4282
 -1      2204    8    0    1
 -2      1087      1091      1079      4168      4273      4272
 -1      2205    8    0    1
 -2      1093      1094      1082      4177      4284      4278
 -1      2206    8    0    1
 -2      1095      1083      1071      4180      4257      4256
 -1      2207    8    0    1
 -2      1096      1084      1075      4183      4265      4264
 -1      2208    8    0    1
 -2      1088      1096      1074      4220      4263      4262
 -1      2209    8    0    1
 -2      1093      1081      1092      4277      4276      4174
 -1      2210    8    0    1
 -2      1102      1088      1073      4204      4261      4260
 -1      2211    8    0    1
 -2      1089      1077      1090      4269      4268      4165
 -1      2212    8    0    1
 -2      1065      1064      1115      4090      4285      4286
 -1      2213    8    0    1
 -2      1065      1115      1113      4286      4287      4245
 -1      2214    8    0    1
 -2      1067      1108      1106      4248      4229      4249
 -1      2215    8    0    1
 -2      1076      1084      1090      4266      4164      4267
 -1      2216    8    0    1
 -2      1082      1094      1097      4284      4288      4219
 -1      2217    8    0    1
 -2      1105      1111      1116      4244      4289      4290
 -1      2218    8    0    1
 -2      1064      1105      1116      4215      4290      4291
 -1      2219    8    0    1
 -2      1111      1061      1116      4237      4292      4289
 -1      2220    8    0    1
 -2      1064      1116      1115      4291      4293      4285
 -1      2221    8    0    1
 -2      1110      1103      1115      4235      4294      4295
 -1      2222    8    0    1
 -2      1061      1110      1116      4234      4296      4292
 -1      2223    8    0    1
 -2      1108      1066      1113      4247      4246      4297
 -1      2224    8    0    1
 -2      1111      1062      1109      4243      4298      4239
 -1      2225    8    0    1
 -2      1109      1062      1117      4298      4299      4300
 -1      2226    8    0    1
 -2      1109      1117      1114      4300      4301      4283
 -1      2227    8    0    1
 -2      1110      1115      1116      4295      4293      4296
 -1      2228    8    0    1
 -2      1115      1103      1112      4294      4241      4302
 -1      2229    8    0    1
 -2      1094      1101      1097      4222      4200      4288
 -1      2230    8    0    1
 -2      1062      1104      1117      4210      4303      4299
 -1      2231    8    0    1
 -2      1114      1117      1107      4301      4304      4281
 -1      2232    8    0    1
 -2      1108      1113      1112      4297      4305      4242
 -1      2233    8    0    1
 -2      1104      1107      1117      4225      4304      4303
 -1      2234    8    0    1
 -2      1112      1113      1115      4305      4287      4302
 -3
    1PSTEP                         1           1           1          
  100CL  101 1.000000000        4305                     0    1           1
 -4  DISP        4    1
 -5  D1          1    2    1    0
 -5  D2          1    2    2    0
 -5  D3          1    2    3    0
 -5  ALL         1    2    0    0    1ALL
 -1         1 9.60856E-03-6.88679E-04-5.11438E-14
 -1         2 1.34638E-02-1.65506E-04-6.12901E-14
 -1         3 1.47298E-02 1.58678E-04-8.82990E-14
 -1         4 1.51031E-02-7.17797E-04-9.10205E-14
 -1         5 0.00000E+00 0.00000E+00 0.00000E+00
 -1         6 0.00000E+00 0.00000E+00 0.00000E+00
 -1         7 0.00000E+00 0.00000E+00 0.00000E+00
 -1         8 0.00000E+00 0.00000E+00 0.00000E+00
 -1         9 0.00000E+00 0.00000E+00 0.00000E+00
 -1        10 0.00000E+00 0.00000E+00 0.00000E+00
 -1        11 0.00000E+00 0.00000E+00 0.00000E+00
 -1        12 0.00000E+00 0.00000E+00 0.00000E+00
 -1        13 0.00000E+00 0.00000E+00 0.00000E+00
 -1        14 0.00000E+00 0.00000E+00 0.00000E+00
 -1        15 0.00000E+00 0.00000E+00 0.00000E+00
 -1        16 0.00000E+00 0.00000E+00 0.00000E+00
 -1        17 0.00000E+00 0.00000E+00 0.00000E+00
 -1        18 0.00000E+00 0.00000E+00 0.00000E+00
 -1        19 0.00000E+00 0.00000E+00 0.00000E+00
 -1        20 0.00000E+00 0.00000E+00 0.00000E+00
 -1        21 0.00000E+00 0.00000E+00 0.00000E+00
 -1        22 0.00000E+00 0.00000E+00 0.00000E+00
 -1        23 4.11386E-04-2.60759E-04 2.16739E-17
 -1        24 7.03362E-04-4.01030E-04-6.62109E-17
 -1        25 9.73413E-04-4.98428E-04-2.58918E-16
 -1        26 1.23788E-03-5.67190E-04-5.54058E-16
 -1        27 1.50137E-03-6.16457E-04-9.49910E-16
 -1        28 1.76598E-03-6.51602E-04-1.44568E-15
 -1        29 2.03266E-03-6.76331E-04-2.04007E-15
 -1        30 2.30178E-03-6.93333E-04-2.73094E-15
 -1        31 2.57338E-03-7.04616E-04-3.51739E-15
 -1        32 2.84733E-03-7.11692E-04-4.39575E-15
 -1        33 3.12339E-03-7.15694E-04-5.36157E-15
 -1        34 3.40129E-03-7.17455E-04-6.40683E-15
 -1        35 3.68078E-03-7.17579E-04-7.53594E-15
 -1        36 3.96160E-03-7.16481E-04-8.74493E-15
 -1        37 4.24355E-03-7.14433E-04-1.00271E-14
 -1        38 4.52649E-03-7.11591E-04-1.13808E-14
 -1        39 4.81035E-03-7.08029E-04-1.27977E-14
 -1        40 5.09514E-03-7.03762E-04-1.42859E-14
 -1        41 5.38096E-03-6.98771E-04-1.58417E-14
 -1        42 5.66802E-03-6.93032E-04-1.74667E-14
 -1        43 5.95669E-03-6.86544E-04-1.91604E-14
 -1        44 6.24745E-03-6.79375E-04-2.09225E-14
 -1        45 6.54101E-03-6.71714E-04-2.27556E-14
 -1        46 6.83827E-03-6.63944E-04-2.46599E-14
 -1        47 7.14036E-03-6.56743E-04-2.66296E-14
 -1        48 7.44866E-03-6.51217E-04-2.86623E-14
 -1        49 7.76476E-03-6.49068E-04-3.07556E-14
 -1        50 8.09031E-03-6.52793E-04-3.29123E-14
 -1        51 8.42679E-03-6.65870E-04-3.51302E-14
 -1        52 8.77500E-03-6.92837E-04-3.73985E-14
 -1        53 9.13421E-03-7.39054E-04-3.97113E-14
 -1        54 9.50109E-03-8.09776E-04-4.20675E-14
 -1        55 9.86859E-03-9.08102E-04-4.44697E-14
 -1        56 1.02257E-02-1.03159E-03-4.69188E-14
 -1        57 1.05596E-02-1.16847E-03-4.94125E-14
 -1        58 1.08610E-02-1.29617E-03-5.19401E-14
 -1        59 1.11309E-02-1.38613E-03-5.44878E-14
 -1        60 1.13835E-02-1.41547E-03-5.70695E-14
 -1        61 1.16412E-02-1.37912E-03-5.96885E-14
 -1        62 1.19228E-02-1.29265E-03-6.23539E-14
 -1        63 1.22352E-02-1.18319E-03-6.50674E-14
 -1        64 1.25725E-02-1.07626E-03-6.78124E-14
 -1        65 1.29223E-02-9.87615E-04-7.05961E-14
 -1        66 1.32720E-02-9.22168E-04-7.34218E-14
 -1        67 1.36122E-02-8.77152E-04-7.62842E-14
 -1        68 1.39381E-02-8.45813E-04-7.91845E-14
 -1        69 1.42484E-02-8.20126E-04-8.21208E-14
 -1        70 1.45449E-02-7.92522E-04-8.51008E-14
 -1        71 1.48324E-02-7.57714E-04-8.81207E-14
 -1        72 4.13834E-04 2.61464E-04 4.75321E-17
 -1        73 7.03188E-04 4.03737E-04 6.40018E-18
 -1        74 9.73952E-04 5.00205E-04-1.21837E-16
 -1        75 1.23871E-03 5.68905E-04-3.39355E-16
 -1        76 1.50233E-03 6.18217E-04-6.47177E-16
 -1        77 1.76700E-03 6.53451E-04-1.04686E-15
 -1        78 2.03372E-03 6.78291E-04-1.53674E-15
 -1        79 2.30287E-03 6.95416E-04-2.11566E-15
 -1        80 2.57448E-03 7.06827E-04-2.78387E-15
 -1        81 2.84844E-03 7.14034E-04-3.54020E-15
 -1        82 3.12451E-03 7.18168E-04-4.38586E-15
 -1        83 3.40243E-03 7.20064E-04-5.31488E-15
 -1        84 3.68192E-03 7.20325E-04-6.33123E-15
 -1        85 3.96276E-03 7.19368E-04-7.42998E-15
 -1        86 4.24472E-03 7.17465E-04-8.61084E-15
 -1        87 4.52769E-03 7.14781E-04-9.87316E-15
 -1        88 4.81158E-03 7.11394E-04-1.12143E-14
 -1        89 5.09640E-03 7.07331E-04-1.26304E-14
 -1        90 5.38226E-03 7.02589E-04-1.41213E-14
 -1        91 5.66935E-03 6.97167E-04-1.56866E-14
 -1        92 5.95801E-03 6.91099E-04-1.73257E-14
 -1        93 6.24870E-03 6.84495E-04-1.90431E-14
 -1        94 6.54204E-03 6.77599E-04-2.08335E-14
 -1        95 6.83878E-03 6.70851E-04-2.26760E-14
 -1        96 7.13985E-03 6.64976E-04-2.45723E-14
 -1        97 7.44625E-03 6.61084E-04-2.65215E-14
 -1        98 7.75901E-03 6.60768E-04-2.85250E-14
 -1        99 8.07900E-03 6.66195E-04-3.05784E-14
 -1       100 8.40662E-03 6.80112E-04-3.26766E-14
 -1       101 8.74142E-03 7.05697E-04-3.48268E-14
 -1       102 9.08150E-03 7.46089E-04-3.70292E-14
 -1       103 9.42302E-03 8.03451E-04-3.92899E-14
 -1       104 9.75995E-03 8.77462E-04-4.15922E-14
 -1       105 1.00847E-02 9.63468E-04-4.39406E-14
 -1       106 1.03900E-02 1.05114E-03-4.63462E-14
 -1       107 1.06721E-02 1.12502E-03-4.88053E-14
 -1       108 1.09336E-02 1.16808E-03-5.13186E-14
 -1       109 1.11842E-02 1.16779E-03-5.38999E-14
 -1       110 1.14377E-02 1.12152E-03-5.65438E-14
 -1       111 1.17058E-02 1.03762E-03-5.92399E-14
 -1       112 1.19943E-02 9.31430E-04-6.19832E-14
 -1       113 1.23015E-02 8.19065E-04-6.47724E-14
 -1       114 1.26209E-02 7.12414E-04-6.76086E-14
 -1       115 1.29443E-02 6.17285E-04-7.04995E-14
 -1       116 1.32645E-02 5.34073E-04-7.34312E-14
 -1       117 1.35769E-02 4.59536E-04-7.63950E-14
 -1       118 1.38792E-02 3.88614E-04-7.93915E-14
 -1       119 1.41722E-02 3.15992E-04-8.24118E-14
 -1       120 1.44589E-02 2.37785E-04-8.54364E-14
 -1       121 1.48131E-02 7.38089E-05-8.84798E-14
 -1       122 1.49016E-02-9.43839E-06-8.86785E-14
 -1       123 1.49961E-02-8.63541E-05-8.88197E-14
 -1       124 1.50932E-02-1.53068E-04-8.89348E-14
 -1       125 1.51881E-02-2.07141E-04-8.90573E-14
 -1       126 1.52733E-02-2.47102E-04-8.91978E-14
 -1       127 1.53454E-02-2.75226E-04-8.93379E-14
 -1       128 1.53973E-02-2.93576E-04-8.94832E-14
 -1       129 1.54249E-02-3.06801E-04-8.96424E-14
 -1       130 1.54270E-02-3.20650E-04-8.98024E-14
 -1       131 1.54053E-02-3.40950E-04-8.99892E-14
 -1       132 1.53651E-02-3.71880E-04-9.02156E-14
 -1       133 1.53115E-02-4.17459E-04-9.04309E-14
 -1       134 1.52526E-02-4.78008E-04-9.06088E-14
 -1       135 1.51957E-02-5.51927E-04-9.07601E-14
 -1       136 1.51455E-02-6.34160E-04-9.08974E-14
 -1       137 1.34059E-02 1.59733E-05-6.10668E-14
 -1       138 1.32555E-02 1.86284E-04-6.05818E-14
 -1       139 1.30070E-02 3.49533E-04-5.98295E-14
 -1       140 1.26867E-02 4.88911E-04-5.88984E-14
 -1       141 1.23050E-02 6.00188E-04-5.78209E-14
 -1       142 1.18373E-02 6.85811E-04-5.65150E-14
 -1       143 1.13809E-02 7.24192E-04-5.52748E-14
 -1       144 1.08944E-02 7.22367E-04-5.39641E-14
 -1       145 1.04263E-02 6.77491E-04-5.27371E-14
 -1       146 1.00069E-02 5.95196E-04-5.16570E-14
 -1       147 9.62527E-03 4.73070E-04-5.06925E-14
 -1       148 9.34017E-03 3.30702E-04-4.99910E-14
 -1       149 9.13481E-03 1.63221E-04-4.95149E-14
 -1       150 9.03647E-03-9.26144E-06-4.93353E-14
 -1       151 9.03624E-03-1.84937E-04-4.94151E-14
 -1       152 9.13909E-03-3.68040E-04-4.97677E-14
 -1       153 9.34400E-03-5.42994E-04-5.03832E-14
 -1       154 9.96441E-03-8.23525E-04-5.21305E-14
 -1       155 1.03931E-02-9.31788E-04-5.32936E-14
 -1       156 1.08453E-02-9.98443E-04-5.45042E-14
 -1       157 1.13326E-02-1.02365E-03-5.57996E-14
 -1       158 1.18233E-02-1.00124E-03-5.70984E-14
 -1       159 1.22905E-02-9.31775E-04-5.83195E-14
 -1       160 1.26734E-02-8.31400E-04-5.93167E-14
 -1       161 1.29994E-02-6.99818E-04-6.01561E-14
 -1       162 1.32523E-02-5.40400E-04-6.08021E-14
 -1       163 1.34157E-02-3.55425E-04-6.12040E-14
 -1       164 2.40399E-04-1.25541E-04-2.29241E-17
 -1       165 2.25270E-04-9.46447E-05-3.65173E-17
 -1       166 2.19520E-04-7.28009E-05-4.35409E-17
 -1       167 2.16707E-04-5.51300E-05-4.70849E-17
 -1       168 2.15224E-04-3.99877E-05-4.84943E-17
 -1       169 2.14393E-04-2.59287E-05-4.87417E-17
 -1       170 2.13976E-04-1.26504E-05-4.83080E-17
 -1       171 2.13854E-04 2.73646E-07-4.75931E-17
 -1       172 2.13995E-04 1.32100E-05-4.66071E-17
 -1       173 2.14433E-04 2.65275E-05-4.48453E-17
 -1       174 2.15274E-04 4.04129E-05-4.21890E-17
 -1       175 2.16818E-04 5.59371E-05-3.83062E-17
 -1       176 2.19670E-04 7.38415E-05-3.19230E-17
 -1       177 2.25439E-04 9.60425E-05-2.15858E-17
 -1       178 2.39329E-04 1.27618E-04-4.68240E-18
 -1       179 2.97705E-04 1.85523E-04 1.34610E-17
 -1       180 4.68613E-04-2.63590E-04-6.20536E-17
 -1       181 7.66741E-04-3.82206E-04-2.21082E-16
 -1       182 1.05057E-03-4.65106E-04-4.77645E-16
 -1       183 1.32793E-03-5.23898E-04-8.32057E-16
 -1       184 1.60250E-03-5.65589E-04-1.28375E-15
 -1       185 1.87633E-03-5.94861E-04-1.83196E-15
 -1       186 2.15058E-03-6.15013E-04-2.47524E-15
 -1       187 2.42583E-03-6.28459E-04-3.21220E-15
 -1       188 2.70233E-03-6.36997E-04-4.04108E-15
 -1       189 2.98017E-03-6.41966E-04-4.95769E-15
 -1       190 3.25930E-03-6.44358E-04-5.95807E-15
 -1       191 3.53963E-03-6.44888E-04-7.03968E-15
 -1       192 3.82102E-03-6.44057E-04-8.20270E-15
 -1       193 4.10337E-03-6.42195E-04-9.44211E-15
 -1       194 4.38659E-03-6.39502E-04-1.07544E-14
 -1       195 4.67063E-03-6.36074E-04-1.21342E-14
 -1       196 4.95550E-03-6.31933E-04-1.35809E-14
 -1       197 5.24128E-03-6.27055E-04-1.50967E-14
 -1       198 5.52810E-03-6.21387E-04-1.66817E-14
 -1       199 5.81622E-03-6.14882E-04-1.83357E-14
 -1       200 6.10597E-03-6.07535E-04-2.00600E-14
 -1       201 6.39784E-03-5.99424E-04-2.18538E-14
 -1       202 6.69242E-03-5.90777E-04-2.37186E-14
 -1       203 6.99049E-03-5.82061E-04-2.56505E-14
 -1       204 7.29293E-03-5.74098E-04-2.76448E-14
 -1       205 7.60079E-03-5.68225E-04-2.97023E-14
 -1       206 7.91516E-03-5.66497E-04-3.18215E-14
 -1       207 8.23708E-03-5.71911E-04-3.40020E-14
 -1       208 8.56732E-03-5.88605E-04-3.62370E-14
 -1       209 8.90598E-03-6.21875E-04-3.85200E-14
 -1       210 9.25207E-03-6.77719E-04-4.08467E-14
 -1       211 9.60283E-03-7.61435E-04-4.32195E-14
 -1       212 9.95338E-03-8.74764E-04-4.56350E-14
 -1       213 1.02969E-02-1.01165E-03-4.80936E-14
 -1       214 1.06266E-02-1.15432E-03-5.05896E-14
 -1       215 1.09389E-02-1.27392E-03-5.31210E-14
 -1       216 1.12371E-02-1.33962E-03-5.56843E-14
 -1       217 1.15316E-02-1.33416E-03-5.82836E-14
 -1       218 1.18340E-02-1.26417E-03-6.09256E-14
 -1       219 1.21510E-02-1.15583E-03-6.36161E-14
 -1       220 1.24817E-02-1.03991E-03-6.63494E-14
 -1       221 1.28202E-02-9.38811E-04-6.91154E-14
 -1       222 1.31589E-02-8.62380E-04-7.19177E-14
 -1       223 1.34920E-02-8.10321E-04-7.47575E-14
 -1       224 1.38157E-02-7.76535E-04-7.76361E-14
 -1       225 1.41286E-02-7.52627E-04-8.05507E-14
 -1       226 1.44310E-02-7.30049E-04-8.35074E-14
 -1       227 1.47246E-02-7.01540E-04-8.65038E-14
 -1       228 6.04552E-04 3.31086E-04-4.32800E-17
 -1       229 8.93628E-04 4.32726E-04-1.82583E-16
 -1       230 1.17249E-03 5.04488E-04-4.08351E-16
 -1       231 1.44680E-03 5.55581E-04-7.22363E-16
 -1       232 1.71957E-03 5.91819E-04-1.12529E-15
 -1       233 1.99241E-03 6.17178E-04-1.61777E-15
 -1       234 2.26617E-03 6.34521E-04-2.19877E-15
 -1       235 2.54124E-03 6.45967E-04-2.86713E-15
 -1       236 2.81777E-03 6.53103E-04-3.62206E-15
 -1       237 3.09574E-03 6.57110E-04-4.46456E-15
 -1       238 3.37506E-03 6.58857E-04-5.39331E-15
 -1       239 3.65560E-03 6.58965E-04-6.40725E-15
 -1       240 3.93721E-03 6.57863E-04-7.50319E-15
 -1       241 4.21979E-03 6.55826E-04-8.67952E-15
 -1       242 4.50324E-03 6.53014E-04-9.93609E-15
 -1       243 4.78754E-03 6.49502E-04-1.12705E-14
 -1       244 5.07271E-03 6.45301E-04-1.26815E-14
 -1       245 5.35884E-03 6.40392E-04-1.41667E-14
 -1       246 5.64612E-03 6.34750E-04-1.57261E-14
 -1       247 5.93481E-03 6.28380E-04-1.73614E-14
 -1       248 6.22528E-03 6.21356E-04-1.90707E-14
 -1       249 6.51803E-03 6.13876E-04-2.08528E-14
 -1       250 6.81364E-03 6.06331E-04-2.26888E-14
 -1       251 7.11279E-03 5.99392E-04-2.45785E-14
 -1       252 7.41624E-03 5.94112E-04-2.65270E-14
 -1       253 7.72472E-03 5.92047E-04-2.85292E-14
 -1       254 8.03883E-03 5.95354E-04-3.05803E-14
 -1       255 8.35887E-03 6.06840E-04-3.26774E-14
 -1       256 8.68454E-03 6.29854E-04-3.48283E-14
 -1       257 9.01461E-03 6.67876E-04-3.70320E-14
 -1       258 9.34667E-03 7.23616E-04-3.92886E-14
 -1       259 9.67693E-03 7.97468E-04-4.15901E-14
 -1       260 1.00006E-02 8.85487E-04-4.39401E-14
 -1       261 1.03131E-02 9.77654E-04-4.63443E-14
 -1       262 1.06115E-02 1.05796E-03-4.88026E-14
 -1       263 1.08968E-02 1.10785E-03-5.13116E-14
 -1       264 1.11747E-02 1.11282E-03-5.38819E-14
 -1       265 1.14532E-02 1.06888E-03-5.65122E-14
 -1       266 1.17398E-02 9.84311E-04-5.91961E-14
 -1       267 1.20381E-02 8.75589E-04-6.19298E-14
 -1       268 1.23474E-02 7.60272E-04-6.47104E-14
 -1       269 1.26637E-02 6.51365E-04-6.75392E-14
 -1       270 1.29818E-02 5.55207E-04-7.04162E-14
 -1       271 1.32971E-02 4.72240E-04-7.33335E-14
 -1       272 1.36066E-02 3.98980E-04-7.62831E-14
 -1       273 1.39087E-02 3.29984E-04-7.92660E-14
 -1       274 1.42037E-02 2.59443E-04-8.22745E-14
 -1       275 1.44930E-02 1.82819E-04-8.52897E-14
 -1       276 1.46094E-02 1.06009E-04-8.59575E-14
 -1       277 1.47027E-02 2.74566E-05-8.61243E-14
 -1       278 1.48015E-02-4.46310E-05-8.62705E-14
 -1       279 1.49011E-02-1.08512E-04-8.64125E-14
 -1       280 1.49942E-02-1.62297E-04-8.65513E-14
 -1       281 1.50774E-02-2.07868E-04-8.66962E-14
 -1       282 1.51423E-02-2.45531E-04-8.68512E-14
 -1       283 1.51836E-02-2.77920E-04-8.70142E-14
 -1       284 1.51983E-02-3.08686E-04-8.71813E-14
 -1       285 1.51866E-02-3.41888E-04-8.73591E-14
 -1       286 1.51526E-02-3.80512E-04-8.75415E-14
 -1       287 1.51013E-02-4.28556E-04-8.77269E-14
 -1       288 1.50407E-02-4.86726E-04-8.79002E-14
 -1       289 1.49787E-02-5.54812E-04-8.80547E-14
 -1       290 1.48494E-02-6.26320E-04-8.72830E-14
 -1       291 1.34698E-02-1.20709E-04-6.22787E-14
 -1       292 1.33242E-02-1.07743E-05-6.18614E-14
 -1       293 1.30548E-02 1.15231E-04-6.12574E-14
 -1       294 1.27161E-02 2.97164E-04-6.01306E-14
 -1       295 1.23355E-02 4.77462E-04-5.89341E-14
 -1       296 1.19091E-02 6.48806E-04-5.75883E-14
 -1       297 1.15288E-02 7.66962E-04-5.60060E-14
 -1       298 1.11465E-02 8.09935E-04-5.44875E-14
 -1       299 1.07538E-02 7.50520E-04-5.30158E-14
 -1       300 1.03606E-02 6.24598E-04-5.16668E-14
 -1       301 9.95961E-03 4.53966E-04-5.04754E-14
 -1       302 9.58386E-03 2.77501E-04-4.95119E-14
 -1       303 9.27693E-03 1.13889E-04-4.87077E-14
 -1       304 9.06722E-03 3.08019E-06-4.84554E-14
 -1       305 8.99687E-03-9.60575E-05-4.83944E-14
 -1       306 9.06796E-03-1.97891E-04-4.86412E-14
 -1       307 9.28278E-03-3.13957E-04-4.90822E-14
 -1       308 9.58551E-03-4.74043E-04-4.99499E-14
 -1       309 9.93636E-03-6.58587E-04-5.10210E-14
 -1       310 1.03444E-02-8.46911E-04-5.22482E-14
 -1       311 1.07368E-02-1.00380E-03-5.36701E-14
 -1       312 1.11281E-02-1.09271E-03-5.51403E-14
 -1       313 1.15167E-02-1.09003E-03-5.66991E-14
 -1       314 1.19224E-02-9.87071E-04-5.81928E-14
 -1       315 1.23264E-02-8.30000E-04-5.94834E-14
 -1       316 1.27040E-02-6.56133E-04-6.05823E-14
 -1       317 1.30512E-02-4.87335E-04-6.14697E-14
 -1       318 1.33259E-02-3.31539E-04-6.22392E-14
 -1       319 1.34774E-02-2.21111E-04-6.24458E-14
 -1       320 4.55391E-04-1.64844E-04-1.48251E-16
 -1       321 4.74243E-04-2.13026E-04-1.26662E-16
 -1       322 4.40452E-04-9.40533E-05-1.66276E-16
 -1       323 4.37502E-04-6.49394E-05-1.68712E-16
 -1       324 4.35885E-04-3.79228E-05-1.68719E-16
 -1       325 4.35177E-04-1.20225E-05-1.67089E-16
 -1       326 4.35208E-04 1.35437E-05-1.64165E-16
 -1       327 4.35981E-04 3.95021E-05-1.59750E-16
 -1       328 4.37641E-04 6.61698E-05-1.53364E-16
 -1       329 4.40689E-04 9.54539E-05-1.44141E-16
 -1       330 4.46067E-04 1.28372E-04-1.30684E-16
 -1       331 4.55891E-04 1.67353E-04-1.10819E-16
 -1       332 4.75877E-04 2.17093E-04-8.11796E-17
 -1       333 5.32001E-04 2.70021E-04-6.71833E-17
 -1       334 8.24466E-04 3.73578E-04-2.12578E-16
 -1       335 8.63232E-04-3.57478E-04-3.92495E-16
 -1       336 1.14958E-03-4.26236E-04-7.08618E-16
 -1       337 1.43234E-03-4.75433E-04-1.11915E-15
 -1       338 1.71303E-03-5.10153E-04-1.62366E-15
 -1       339 1.99277E-03-5.34214E-04-2.22183E-15
 -1       340 2.27233E-03-5.50430E-04-2.91183E-15
 -1       341 2.55217E-03-5.60901E-04-3.69190E-15
 -1       342 2.83256E-03-5.67201E-04-4.56104E-15
 -1       343 3.11362E-03-5.70495E-04-5.51561E-15
 -1       344 3.39539E-03-5.71633E-04-6.55161E-15
 -1       345 3.67785E-03-5.71218E-04-7.66844E-15
 -1       346 3.96097E-03-5.69657E-04-8.86479E-15
 -1       347 4.24472E-03-5.67202E-04-1.01346E-14
 -1       348 4.52909E-03-5.63991E-04-1.14754E-14
 -1       349 4.81407E-03-5.60068E-04-1.28832E-14
 -1       350 5.09971E-03-5.55416E-04-1.43597E-14
 -1       351 5.38611E-03-5.49978E-04-1.59042E-14
 -1       352 5.67340E-03-5.43682E-04-1.75181E-14
 -1       353 5.96180E-03-5.36476E-04-1.92028E-14
 -1       354 6.25159E-03-5.28365E-04-2.09582E-14
 -1       355 6.54312E-03-5.19460E-04-2.27825E-14
 -1       356 6.83686E-03-5.10059E-04-2.46783E-14
 -1       357 7.13335E-03-5.00741E-04-2.66352E-14
 -1       358 7.43323E-03-4.92501E-04-2.86566E-14
 -1       359 7.73725E-03-4.86929E-04-3.07406E-14
 -1       360 8.04624E-03-4.86425E-04-3.28839E-14
 -1       361 8.36111E-03-4.94431E-04-3.50847E-14
 -1       362 8.68281E-03-5.15604E-04-3.73349E-14
 -1       363 9.01220E-03-5.55768E-04-3.96315E-14
 -1       364 9.34977E-03-6.21299E-04-4.19741E-14
 -1       365 9.69495E-03-7.17384E-04-4.43624E-14
 -1       366 1.00450E-02-8.44503E-04-4.67906E-14
 -1       367 1.03941E-02-9.93091E-04-4.92577E-14
 -1       368 1.07346E-02-1.13874E-03-5.17602E-14
 -1       369 1.10622E-02-1.24473E-03-5.43008E-14
 -1       370 1.13813E-02-1.27800E-03-5.68814E-14
 -1       371 1.17029E-02-1.23106E-03-5.95007E-14
 -1       372 1.20350E-02-1.12728E-03-6.21689E-14
 -1       373 1.23769E-02-1.00389E-03-6.48837E-14
 -1       374 1.27215E-02-8.91149E-04-6.76383E-14
 -1       375 1.30618E-02-8.03948E-04-7.04217E-14
 -1       376 1.33935E-02-7.44336E-04-7.32382E-14
 -1       377 1.37152E-02-7.06997E-04-7.60931E-14
 -1       378 1.40270E-02-6.83601E-04-7.89826E-14
 -1       379 1.43299E-02-6.65263E-04-8.19119E-14
 -1       380 1.45921E-02-6.49624E-04-8.45832E-14
 -1       381 1.10993E-03 4.47915E-04-4.42188E-16
 -1       382 1.39065E-03 5.00984E-04-7.58132E-16
 -1       383 1.66893E-03 5.38587E-04-1.16167E-15
 -1       384 1.94629E-03 5.64840E-04-1.65326E-15
 -1       385 2.22366E-03 5.82743E-04-2.23222E-15
 -1       386 2.50159E-03 5.94520E-04-2.89809E-15
 -1       387 2.78035E-03 6.01833E-04-3.64928E-15
 -1       388 3.06005E-03 6.05917E-04-4.48774E-15
 -1       389 3.34069E-03 6.07680E-04-5.41192E-15
 -1       390 3.62224E-03 6.07769E-04-6.42043E-15
 -1       391 3.90462E-03 6.06632E-04-7.51092E-15
 -1       392 4.18778E-03 6.04554E-04-8.68136E-15
 -1       393 4.47167E-03 6.01701E-04-9.93200E-15
 -1       394 4.75627E-03 5.98145E-04-1.12591E-14
 -1       395 5.04162E-03 5.93895E-04-1.26627E-14
 -1       396 5.32780E-03 5.88923E-04-1.41402E-14
 -1       397 5.61496E-03 5.83188E-04-1.56927E-14
 -1       398 5.90330E-03 5.76673E-04-1.73207E-14
 -1       399 6.19313E-03 5.69426E-04-1.90229E-14
 -1       400 6.48482E-03 5.61606E-04-2.07949E-14
 -1       401 6.77882E-03 5.53557E-04-2.26250E-14
 -1       402 7.07569E-03 5.45890E-04-2.45087E-14
 -1       403 7.37600E-03 5.39588E-04-2.64531E-14
 -1       404 7.68038E-03 5.36127E-04-2.84515E-14
 -1       405 7.98939E-03 5.37592E-04-3.04992E-14
 -1       406 8.30344E-03 5.46741E-04-3.25948E-14
 -1       407 8.62265E-03 5.66952E-04-3.47423E-14
 -1       408 8.94659E-03 6.01893E-04-3.69433E-14
 -1       409 9.27404E-03 6.54727E-04-3.91982E-14
 -1       410 9.60270E-03 7.26659E-04-4.14988E-14
 -1       411 9.92914E-03 8.14836E-04-4.38464E-14
 -1       412 1.02492E-02 9.10189E-04-4.62465E-14
 -1       413 1.05595E-02 9.96795E-04-4.87021E-14
 -1       414 1.08594E-02 1.05461E-03-5.12057E-14
 -1       415 1.11524E-02 1.06652E-03-5.37678E-14
 -1       416 1.14452E-02 1.02643E-03-5.63844E-14
 -1       417 1.17440E-02 9.42251E-04-5.90591E-14
 -1       418 1.20517E-02 8.31681E-04-6.17819E-14
 -1       419 1.23670E-02 7.13925E-04-6.45531E-14
 -1       420 1.26858E-02 6.03108E-04-6.73721E-14
 -1       421 1.30042E-02 5.06032E-04-7.02350E-14
 -1       422 1.33187E-02 4.23184E-04-7.31394E-14
 -1       423 1.36272E-02 3.50952E-04-7.60773E-14
 -1       424 1.39290E-02 2.83700E-04-7.90491E-14
 -1       425 1.42242E-02 2.15356E-04-8.20478E-14
 -1       426 1.44178E-02 1.62362E-04-8.39998E-14
 -1       427 1.46079E-02-1.77839E-05-8.37543E-14
 -1       428 1.45053E-02 5.44318E-05-8.35971E-14
 -1       429 1.44592E-02 1.07240E-04-8.38010E-14
 -1       430 1.47073E-02-8.22152E-05-8.39067E-14
 -1       431 1.48004E-02-1.40458E-04-8.40561E-14
 -1       432 1.48783E-02-1.91546E-04-8.42109E-14
 -1       433 1.49342E-02-2.36860E-04-8.43741E-14
 -1       434 1.49632E-02-2.78965E-04-8.45491E-14
 -1       435 1.49635E-02-3.21195E-04-8.47244E-14
 -1       436 1.49380E-02-3.66126E-04-8.48914E-14
 -1       437 1.48909E-02-4.17964E-04-8.50605E-14
 -1       438 1.48301E-02-4.77533E-04-8.52196E-14
 -1       439 1.47642E-02-5.45197E-04-8.53724E-14
 -1       440 1.32058E-02-3.11842E-05-6.29421E-14
 -1       441 1.35143E-02-1.76041E-04-6.38598E-14
 -1       442 1.34035E-02-1.06902E-04-6.33643E-14
 -1       443 1.28238E-02 1.48808E-04-6.15218E-14
 -1       444 1.24513E-02 3.32847E-04-6.03396E-14
 -1       445 4.45598E-04-1.26525E-04-1.60089E-16
 -1       446 1.16279E-02 7.45030E-04-5.69133E-14
 -1       447 1.13364E-02 8.28884E-04-5.53766E-14
 -1       448 1.09520E-02 8.17232E-04-5.33452E-14
 -1       449 1.06141E-02 7.02773E-04-5.18446E-14
 -1       450 1.02282E-02 5.16621E-04-5.03638E-14
 -1       451 9.83305E-03 3.04880E-04-4.89104E-14
 -1       452 9.50988E-03 1.52697E-04-4.81149E-14
 -1       453 9.13377E-03-7.28480E-06-4.69440E-14
 -1       454 9.00102E-03-6.41217E-05-4.73768E-14
 -1       455 9.00016E-03-1.21540E-04-4.74163E-14
 -1       456 9.14741E-03-1.87811E-04-4.76579E-14
 -1       457 9.46495E-03-3.29540E-04-4.86670E-14
 -1       458 9.83159E-03-5.09351E-04-4.97408E-14
 -1       459 1.02055E-02-7.09723E-04-5.09482E-14
 -1       460 1.06198E-02-9.36734E-04-5.26263E-14
 -1       461 1.09623E-02-1.07996E-03-5.42232E-14
 -1       462 1.13108E-02-1.13940E-03-5.59924E-14
 -1       463 1.16869E-02-1.06635E-03-5.79632E-14
 -1       464 1.20640E-02-8.96346E-04-5.96871E-14
 -1       465 1.24452E-02-6.98859E-04-6.09967E-14
 -1       466 1.28341E-02-5.04692E-04-6.21352E-14
 -1       467 1.31477E-02-3.63919E-04-6.29037E-14
 -1       468 1.34334E-02-2.40905E-04-6.35356E-14
 -1       469 1.20930E-02 5.23849E-04-5.89746E-14
 -1       470 1.18366E-02 6.46090E-04-5.82896E-14
 -1       471 1.33171E-02-2.82655E-04-6.41936E-14
 -1       472 9.31224E-04 3.46116E-04-3.82649E-16
 -1       473 6.65881E-04-7.51671E-05-3.58715E-16
 -1       474 6.69829E-04-1.15942E-04-3.56611E-16
 -1       475 6.63221E-04 1.10546E-06-3.52830E-16
 -1       476 6.63937E-04 3.87871E-05-3.45535E-16
 -1       477 6.66066E-04 7.68590E-05-3.34924E-16
 -1       478 6.70142E-04 1.17786E-04-3.20331E-16
 -1       479 6.77130E-04 1.62415E-04-3.00172E-16
 -1       480 6.89021E-04 2.12785E-04-2.71901E-16
 -1       481 1.35088E-02-1.56822E-04-6.50713E-14
 -1       482 1.21709E-03 4.06616E-04-6.72453E-16
 -1       483 9.76258E-04-3.28759E-04-5.81959E-16
 -1       484 1.26221E-03-3.83649E-04-9.53247E-16
 -1       485 1.54718E-03-4.23359E-04-1.41596E-15
 -1       486 1.83130E-03-4.51389E-04-1.97034E-15
 -1       487 2.11482E-03-4.70606E-04-2.61546E-15
 -1       488 2.39808E-03-4.83285E-04-3.34928E-15
 -1       489 2.68131E-03-4.91178E-04-4.17133E-15
 -1       490 2.96469E-03-4.95609E-04-5.07918E-15
 -1       491 3.24831E-03-4.97558E-04-6.07024E-15
 -1       492 3.53223E-03-4.97731E-04-7.14216E-15
 -1       493 3.81647E-03-4.96615E-04-8.29376E-15
 -1       494 4.10102E-03-4.94530E-04-9.52183E-15
 -1       495 4.38591E-03-4.91657E-04-1.08206E-14
 -1       496 4.67115E-03-4.88079E-04-1.21900E-14
 -1       497 4.95675E-03-4.83799E-04-1.36275E-14
 -1       498 5.24275E-03-4.78772E-04-1.51337E-14
 -1       499 5.52924E-03-4.72922E-04-1.67073E-14
 -1       500 5.81630E-03-4.66175E-04-1.83531E-14
 -1       501 6.10406E-03-4.58488E-04-2.00703E-14
 -1       502 6.39268E-03-4.49894E-04-2.18560E-14
 -1       503 6.68237E-03-4.40558E-04-2.37121E-14
 -1       504 6.97339E-03-4.30855E-04-2.56344E-14
 -1       505 7.26606E-03-4.21475E-04-2.76195E-14
 -1       506 7.56080E-03-4.13557E-04-2.96675E-14
 -1       507 7.85821E-03-4.08860E-04-3.17753E-14
 -1       508 8.15913E-03-4.09969E-04-3.39402E-14
 -1       509 8.46485E-03-4.20513E-04-3.61589E-14
 -1       510 8.77727E-03-4.45354E-04-3.84247E-14
 -1       511 9.09903E-03-4.90642E-04-4.07366E-14
 -1       512 9.43317E-03-5.63419E-04-4.30934E-14
 -1       513 9.78171E-03-6.69984E-04-4.54934E-14
 -1       514 1.01429E-02-8.11554E-04-4.79321E-14
 -1       515 1.05085E-02-9.75857E-04-5.04093E-14
 -1       516 1.08658E-02-1.12742E-03-5.29234E-14
 -1       517 1.12094E-02-1.21405E-03-5.54781E-14
 -1       518 1.15493E-02-1.20033E-03-5.80774E-14
 -1       519 1.18992E-02-1.10076E-03-6.07183E-14
 -1       520 1.22607E-02-9.65006E-04-6.34142E-14
 -1       521 1.26225E-02-8.37760E-04-6.61546E-14
 -1       522 1.29738E-02-7.40157E-04-6.89225E-14
 -1       523 1.33098E-02-6.74724E-04-7.17207E-14
 -1       524 1.36313E-02-6.35283E-04-7.45539E-14
 -1       525 1.39410E-02-6.12984E-04-7.74216E-14
 -1       526 1.42416E-02-5.98886E-04-8.03273E-14
 -1       527 1.33849E-02-1.11548E-04-6.46436E-14
 -1       528 1.78391E-03 4.81157E-04-1.50899E-15
 -1       529 2.06588E-03 5.02463E-04-2.05692E-15
 -1       530 2.34759E-03 5.16695E-04-2.68988E-15
 -1       531 2.62941E-03 5.25749E-04-3.40768E-15
 -1       532 2.91153E-03 5.31052E-04-4.21228E-15
 -1       533 3.19406E-03 5.33660E-04-5.10183E-15
 -1       534 3.47707E-03 5.34339E-04-6.07572E-15
 -1       535 3.76055E-03 5.33626E-04-7.13070E-15
 -1       536 4.04450E-03 5.31876E-04-8.26634E-15
 -1       537 4.32892E-03 5.29303E-04-9.48232E-15
 -1       538 4.61380E-03 5.26016E-04-1.07758E-14
 -1       539 4.89917E-03 5.22042E-04-1.21437E-14
 -1       540 5.18507E-03 5.17358E-04-1.35858E-14
 -1       541 5.47159E-03 5.11913E-04-1.51040E-14
 -1       542 5.75884E-03 5.05659E-04-1.66975E-14
 -1       543 6.04699E-03 4.98587E-04-1.83640E-14
 -1       544 6.33627E-03 4.90768E-04-2.01005E-14
 -1       545 6.62694E-03 4.82410E-04-2.19015E-14
 -1       546 6.91936E-03 4.73933E-04-2.37610E-14
 -1       547 7.21392E-03 4.66060E-04-2.56776E-14
 -1       548 7.51114E-03 4.59926E-04-2.76499E-14
 -1       549 7.81158E-03 4.57199E-04-2.96772E-14
 -1       550 8.11594E-03 4.60191E-04-3.17528E-14
 -1       551 8.42499E-03 4.71918E-04-3.38777E-14
 -1       552 8.73952E-03 4.96016E-04-3.60569E-14
 -1       553 9.06014E-03 5.36377E-04-3.82921E-14
 -1       554 9.38688E-03 5.96253E-04-4.05754E-14
 -1       555 9.71838E-03 6.76552E-04-4.29038E-14
 -1       556 1.00513E-02 7.73060E-04-4.52824E-14
 -1       557 1.03805E-02 8.73798E-04-4.77120E-14
 -1       558 1.07011E-02 9.57870E-04-5.01947E-14
 -1       559 1.10123E-02 1.00084E-03-5.27282E-14
 -1       560 1.13196E-02 9.86087E-04-5.53113E-14
 -1       561 1.16310E-02 9.15129E-04-5.79499E-14
 -1       562 1.19510E-02 8.06241E-04-6.06432E-14
 -1       563 1.22779E-02 6.83481E-04-6.33840E-14
 -1       564 1.26065E-02 5.65808E-04-6.61689E-14
 -1       565 1.29317E-02 4.62939E-04-6.90024E-14
 -1       566 1.32504E-02 3.76681E-04-7.18744E-14
 -1       567 1.35614E-02 3.03891E-04-7.47831E-14
 -1       568 1.38648E-02 2.39001E-04-7.77264E-14
 -1       569 1.41613E-02 1.75672E-04-8.07077E-14
 -1       570 1.45150E-02-7.26080E-05-8.14164E-14
 -1       571 1.46062E-02-1.34777E-04-8.15778E-14
 -1       572 1.43082E-02 7.05016E-05-8.10932E-14
 -1       573 1.44135E-02-4.04509E-06-8.12562E-14
 -1       574 1.46781E-02-1.90102E-04-8.17423E-14
 -1       575 1.47236E-02-2.40264E-04-8.19150E-14
 -1       576 1.47384E-02-2.88389E-04-8.20901E-14
 -1       577 1.47230E-02-3.37372E-04-8.22548E-14
 -1       578 1.46814E-02-3.92170E-04-8.24115E-14
 -1       579 1.46211E-02-4.53978E-04-8.25685E-14
 -1       580 1.45514E-02-5.23257E-04-8.27145E-14
 -1       581 1.35186E-02-2.06591E-04-6.50344E-14
 -1       582 1.50118E-03 4.50287E-04-1.04776E-15
 -1       583 1.30017E-02 3.54758E-05-6.32229E-14
 -1       584 7.12595E-04-2.51907E-04-3.29577E-16
 -1       585 1.26535E-02-5.76726E-04-6.27340E-14
 -1       586 1.00750E-02 4.24549E-04-4.87367E-14
 -1       587 6.63826E-04-3.65394E-05-3.57248E-16
 -1       588 1.07609E-02 7.72749E-04-5.19483E-14
 -1       589 1.14630E-02 8.11193E-04-5.62783E-14
 -1       590 8.98529E-03-5.68212E-05-4.58231E-14
 -1       591 1.11369E-02 8.58709E-04-5.41945E-14
 -1       592 1.04086E-02 6.04262E-04-5.01989E-14
 -1       593 9.64578E-03 2.04882E-04-4.73244E-14
 -1       594 9.25454E-03 4.11780E-05-4.61681E-14
 -1       595 8.94538E-03-9.05582E-05-4.58640E-14
 -1       596 9.01916E-03-1.27521E-04-4.61043E-14
 -1       597 9.29289E-03-2.27008E-04-4.70512E-14
 -1       598 9.64298E-03-3.81010E-04-4.81365E-14
 -1       599 9.96480E-03-5.49502E-04-4.93295E-14
 -1       600 1.04439E-02-8.28604E-04-5.11597E-14
 -1       601 1.08199E-02-1.03018E-03-5.32070E-14
 -1       602 1.11147E-02-1.13664E-03-5.48631E-14
 -1       603 1.14908E-02-1.13956E-03-5.72220E-14
 -1       604 1.18720E-02-1.00228E-03-5.95244E-14
 -1       605 1.22755E-02-7.81611E-04-6.13428E-14
 -1       606 1.30157E-02-4.03675E-04-6.38557E-14
 -1       607 1.26417E-02 2.04724E-04-6.19383E-14
 -1       608 1.22567E-02 4.11638E-04-6.04879E-14
 -1       609 7.03791E-04 2.90963E-04-2.03159E-16
 -1       610 6.76587E-04-1.60109E-04-3.49449E-16
 -1       611 1.35813E-02-1.86508E-04-6.62446E-14
 -1       612 1.32412E-02-5.61786E-05-6.49261E-14
 -1       613 1.34620E-02-2.40798E-04-6.56930E-14
 -1       614 1.44392E-02-5.91278E-04-8.23169E-14
 -1       615 9.04805E-03-1.86657E-05-4.50560E-14
 -1       616 8.99856E-04 7.41514E-05-5.86597E-16
 -1       617 8.97777E-04 2.51915E-05-6.00848E-16
 -1       618 9.11876E-04 1.78309E-04-5.40898E-16
 -1       619 9.24211E-04 2.36885E-04-5.05435E-16
 -1       620 1.43588E-02-5.27665E-04-8.07213E-14
 -1       621 1.04887E-03 3.14020E-04-5.76026E-16
 -1       622 1.38326E-03-3.37163E-04-1.21155E-15
 -1       623 1.66949E-03-3.68063E-04-1.72345E-15
 -1       624 1.95570E-03-3.89807E-04-2.32443E-15
 -1       625 2.24175E-03-4.04537E-04-3.01289E-15
 -1       626 2.52761E-03-4.14027E-04-3.78847E-15
 -1       627 2.81332E-03-4.19677E-04-4.65023E-15
 -1       628 3.09896E-03-4.22552E-04-5.59592E-15
 -1       629 3.38455E-03-4.23440E-04-6.62240E-15
 -1       630 3.67013E-03-4.22901E-04-7.72960E-15
 -1       631 3.95572E-03-4.21313E-04-8.91548E-15
 -1       632 4.24135E-03-4.18907E-04-1.01737E-14
 -1       633 4.52703E-03-4.15807E-04-1.15023E-14
 -1       634 4.81276E-03-4.12047E-04-1.29016E-14
 -1       635 5.09857E-03-4.07604E-04-1.43695E-14
 -1       636 5.38445E-03-4.02415E-04-1.59057E-14
 -1       637 5.67041E-03-3.96404E-04-1.75107E-14
 -1       638 5.95647E-03-3.89505E-04-1.91899E-14
 -1       639 6.24264E-03-3.81702E-04-2.09388E-14
 -1       640 6.52892E-03-3.73067E-04-2.27545E-14
 -1       641 6.81534E-03-3.63822E-04-2.46407E-14
 -1       642 7.10194E-03-3.54405E-04-2.65890E-14
 -1       643 7.38884E-03-3.45572E-04-2.86000E-14
 -1       644 7.67628E-03-3.38502E-04-3.06747E-14
 -1       645 7.96479E-03-3.34943E-04-3.28058E-14
 -1       646 8.25541E-03-3.37382E-04-3.49911E-14
 -1       647 8.55004E-03-3.49261E-04-3.72247E-14
 -1       648 8.85190E-03-3.75307E-04-3.95062E-14
 -1       649 9.16596E-03-4.22042E-04-4.18319E-14
 -1       650 9.49869E-03-4.98372E-04-4.42009E-14
 -1       651 9.85517E-03-6.14828E-04-4.66132E-14
 -1       652 1.02362E-02-7.77022E-04-4.90655E-14
 -1       653 1.06265E-02-9.68943E-04-5.15521E-14
 -1       654 1.13791E-02-1.18399E-03-5.66768E-14
 -1       655 1.17495E-02-1.09802E-03-5.92882E-14
 -1       656 1.21327E-02-9.45132E-04-6.19575E-14
 -1       657 1.25164E-02-7.95474E-04-6.46817E-14
 -1       658 1.28831E-02-6.84106E-04-6.74395E-14
 -1       659 1.32265E-02-6.12815E-04-7.02237E-14
 -1       660 1.35490E-02-5.72195E-04-7.30376E-14
 -1       661 1.38563E-02-5.51457E-04-7.58857E-14
 -1       662 1.41105E-02-5.37916E-04-7.82895E-14
 -1       663 1.24977E-02 2.91209E-04-6.22308E-14
 -1       664 2.19063E-03 4.37448E-04-2.47447E-15
 -1       665 1.90564E-03 4.20758E-04-1.87200E-15
 -1       666 2.76006E-03 4.55041E-04-3.93091E-15
 -1       667 3.04474E-03 4.58663E-04-4.78655E-15
 -1       668 3.32950E-03 4.60094E-04-5.72604E-15
 -1       669 3.61438E-03 4.59956E-04-6.74762E-15
 -1       670 3.89940E-03 4.58673E-04-7.84881E-15
 -1       671 4.18458E-03 4.56513E-04-9.03024E-15
 -1       672 4.46995E-03 4.53627E-04-1.02905E-14
 -1       673 4.75550E-03 4.50073E-04-1.16250E-14
 -1       674 5.04126E-03 4.45844E-04-1.30334E-14
 -1       675 5.32727E-03 4.40895E-04-1.45172E-14
 -1       676 5.61356E-03 4.35164E-04-1.60762E-14
 -1       677 5.90022E-03 4.28605E-04-1.77075E-14
 -1       678 6.18733E-03 4.21223E-04-1.94095E-14
 -1       679 6.47500E-03 4.13116E-04-2.11793E-14
 -1       680 6.76343E-03 4.04535E-04-2.30121E-14
 -1       681 7.05283E-03 3.95954E-04-2.49006E-14
 -1       682 7.34357E-03 3.88161E-04-2.68478E-14
 -1       683 7.63614E-03 3.82361E-04-2.88506E-14
 -1       684 7.93129E-03 3.80293E-04-3.09050E-14
 -1       685 8.23010E-03 3.84343E-04-3.30118E-14
 -1       686 8.53409E-03 3.97639E-04-3.51711E-14
 -1       687 8.84521E-03 4.24056E-04-3.73828E-14
 -1       688 9.16555E-03 4.67989E-04-3.96460E-14
 -1       689 9.49658E-03 5.33596E-04-4.19584E-14
 -1       690 9.83735E-03 6.22954E-04-4.43171E-14
 -1       691 1.01833E-02 7.30448E-04-4.67245E-14
 -1       692 1.05261E-02 8.40619E-04-4.91811E-14
 -1       693 1.08583E-02 9.22628E-04-5.16870E-14
 -1       694 1.11801E-02 9.43567E-04-5.42445E-14
 -1       695 1.15035E-02 8.91259E-04-5.68500E-14
 -1       696 1.18364E-02 7.82414E-04-5.95073E-14
 -1       697 1.21794E-02 6.49934E-04-6.22198E-14
 -1       698 1.25237E-02 5.22292E-04-6.49753E-14
 -1       699 1.28612E-02 4.12982E-04-6.77785E-14
 -1       700 1.31878E-02 3.24198E-04-7.06209E-14
 -1       701 1.35030E-02 2.52118E-04-7.34998E-14
 -1       702 1.38083E-02 1.90619E-04-7.64167E-14
 -1       703 1.40608E-02 1.29771E-04-7.87480E-14
 -1       704 1.44798E-02-1.97524E-04-7.92925E-14
 -1       705 1.05442E-02 7.16008E-04-5.01569E-14
 -1       706 1.43246E-02-7.50106E-05-7.89499E-14
 -1       707 1.45126E-02-2.49816E-04-7.94662E-14
 -1       708 1.44145E-02-1.40176E-04-7.91214E-14
 -1       709 1.45102E-02-3.00737E-04-7.96309E-14
 -1       710 1.44752E-02-3.56735E-04-7.97910E-14
 -1       711 1.44155E-02-4.20197E-04-7.99449E-14
 -1       712 1.62030E-03 3.96308E-04-1.35519E-15
 -1       713 9.61606E-04-2.66854E-04-6.20597E-16
 -1       714 1.33460E-03 3.61661E-04-9.23168E-16
 -1       715 1.21451E-02-8.95744E-04-6.15848E-14
 -1       716 1.02678E-02 5.73175E-04-4.86969E-14
 -1       717 8.90698E-03-9.89492E-05-4.44981E-14
 -1       718 2.47539E-03 4.48361E-04-3.16004E-15
 -1       719 1.28594E-02 1.08513E-04-6.37631E-14
 -1       720 9.04285E-04 1.24679E-04-5.67190E-16
 -1       721 9.80221E-03 3.21137E-04-4.67560E-14
 -1       722 9.03923E-04-1.22244E-04-6.14966E-16
 -1       723 1.28958E-02-4.86672E-04-6.47414E-14
 -1       724 1.12816E-02 8.69782E-04-5.51285E-14
 -1       725 9.09587E-03-1.63388E-04-4.53350E-14
 -1       726 8.90169E-03-6.97995E-05-4.46078E-14
 -1       727 9.39055E-03 1.30215E-04-4.53315E-14
 -1       728 1.35227E-02-1.43705E-04-6.66788E-14
 -1       729 1.09295E-02 8.53441E-04-5.26343E-14
 -1       730 9.41142E-03-2.87479E-04-4.63364E-14
 -1       731 9.77760E-03-4.69381E-04-4.75649E-14
 -1       732 1.02261E-02-7.23266E-04-4.95455E-14
 -1       733 1.20113E-02 5.64184E-04-5.98199E-14
 -1       734 1.25171E-02-6.77267E-04-6.31819E-14
 -1       735 1.32666E-02-3.18550E-04-6.55875E-14
 -1       736 1.16641E-02 7.49567E-04-5.77846E-14
 -1       737 9.11342E-04-1.75670E-04-6.08851E-16
 -1       738 8.97714E-04-2.31719E-05-6.10413E-16
 -1       739 1.22589E-02 4.49431E-04-6.15540E-14
 -1       740 1.31240E-02 1.13244E-05-6.54729E-14
 -1       741 1.35879E-02-2.12839E-04-6.69061E-14
 -1       742 1.09853E-02-1.12749E-03-5.38954E-14
 -1       743 1.41698E-02 4.80872E-05-7.89234E-14
 -1       744 1.42678E-02-4.74678E-04-7.91173E-14
 -1       745 9.15074E-03 5.22469E-05-4.42301E-14
 -1       746 8.91373E-03-3.89113E-05-4.38487E-14
 -1       747 1.42494E-02-1.55747E-05-7.89375E-14
 -1       748 8.99647E-04-7.18678E-05-6.15288E-16
 -1       749 1.16159E-03 2.43737E-04-8.10424E-16
 -1       750 9.93631E-03 4.69702E-04-4.63529E-14
 -1       751 1.79736E-03-3.09564E-04-2.04006E-15
 -1       752 2.08505E-03-3.25591E-04-2.68387E-15
 -1       753 2.37287E-03-3.36281E-04-3.41433E-15
 -1       754 2.66058E-03-3.42965E-04-4.23086E-15
 -1       755 2.94810E-03-3.46710E-04-5.13060E-15
 -1       756 3.23537E-03-3.48332E-04-6.11182E-15
 -1       757 3.52239E-03-3.48431E-04-7.17452E-15
 -1       758 3.80916E-03-3.47425E-04-8.31724E-15
 -1       759 4.09570E-03-3.45588E-04-9.53456E-15
 -1       760 4.38201E-03-3.43076E-04-1.08236E-14
 -1       761 4.66808E-03-3.39959E-04-1.21830E-14
 -1       762 4.95392E-03-3.36243E-04-1.36111E-14
 -1       763 5.23948E-03-3.31885E-04-1.51103E-14
 -1       764 5.52472E-03-3.26822E-04-1.66780E-14
 -1       765 5.80956E-03-3.20987E-04-1.83171E-14
 -1       766 6.09390E-03-3.14342E-04-2.00275E-14
 -1       767 6.37762E-03-3.06902E-04-2.18070E-14
 -1       768 6.66054E-03-2.98783E-04-2.36540E-14
 -1       769 6.94249E-03-2.90246E-04-2.55667E-14
 -1       770 7.22330E-03-2.81757E-04-2.75422E-14
 -1       771 7.50285E-03-2.74054E-04-2.95816E-14
 -1       772 7.78120E-03-2.68214E-04-3.16790E-14
 -1       773 8.05875E-03-2.65746E-04-3.38301E-14
 -1       774 8.33659E-03-2.68703E-04-3.60336E-14
 -1       775 8.61702E-03-2.79946E-04-3.82829E-14
 -1       776 8.90427E-03-3.03745E-04-4.05770E-14
 -1       777 9.20524E-03-3.47168E-04-4.29188E-14
 -1       778 9.53222E-03-4.22645E-04-4.53044E-14
 -1       779 1.27422E-02 2.03423E-04-6.41955E-14
 -1       780 1.32130E-02-3.95128E-04-6.69716E-14
 -1       781 1.28326E-02-5.99856E-04-6.59307E-14
 -1       782 1.31801E-02-5.25649E-04-6.87106E-14
 -1       783 1.34972E-02-4.89219E-04-7.15096E-14
 -1       784 1.37960E-02-4.74362E-04-7.43347E-14
 -1       785 3.18010E-03 3.84984E-04-5.37321E-15
 -1       786 2.89352E-03 3.82740E-04-4.46784E-15
 -1       787 3.75279E-03 3.84802E-04-7.42933E-15
 -1       788 4.03894E-03 3.83171E-04-8.57680E-15
 -1       789 4.32498E-03 3.80809E-04-9.80327E-15
 -1       790 4.61091E-03 3.77808E-04-1.11069E-14
 -1       791 4.89674E-03 3.74186E-04-1.24831E-14
 -1       792 5.18247E-03 3.69913E-04-1.39324E-14
 -1       793 5.46810E-03 3.64931E-04-1.54574E-14
 -1       794 5.75360E-03 3.59176E-04-1.70547E-14
 -1       795 6.03896E-03 3.52609E-04-1.87241E-14
 -1       796 6.32419E-03 3.45248E-04-2.04611E-14
 -1       797 6.60931E-03 3.37207E-04-2.22630E-14
 -1       798 6.89437E-03 3.28752E-04-2.41243E-14
 -1       799 7.17953E-03 3.20359E-04-2.60437E-14
 -1       800 7.46511E-03 3.12794E-04-2.80226E-14
 -1       801 7.75169E-03 3.07203E-04-3.00573E-14
 -1       802 8.04027E-03 3.05222E-04-3.21438E-14
 -1       803 8.33246E-03 3.09126E-04-3.42820E-14
 -1       804 8.63073E-03 3.22036E-04-3.64723E-14
 -1       805 8.93851E-03 3.48196E-04-3.87130E-14
 -1       806 9.25986E-03 3.93217E-04-4.10044E-14
 -1       807 9.59754E-03 4.63400E-04-4.33487E-14
 -1       808 1.06788E-02 8.18953E-04-5.06474E-14
 -1       809 1.20782E-02 6.17816E-04-6.10564E-14
 -1       810 1.24429E-02 4.72394E-04-6.37891E-14
 -1       811 1.27966E-02 3.53479E-04-6.65609E-14
 -1       812 1.31329E-02 2.62670E-04-6.93769E-14
 -1       813 1.34524E-02 1.93166E-04-7.22311E-14
 -1       814 1.37587E-02 1.36823E-04-7.51212E-14
 -1       815 1.39665E-02 9.11273E-05-7.70178E-14
 -1       816 1.42168E-02-3.79695E-04-7.73576E-14
 -1       817 1.42859E-02-2.09373E-04-7.68641E-14
 -1       818 9.49347E-03 2.48609E-04-4.44845E-14
 -1       819 1.74572E-03 3.39163E-04-1.68092E-15
 -1       820 1.32813E-03-2.29952E-04-1.19531E-15
 -1       821 1.03347E-02 6.74876E-04-4.84426E-14
 -1       822 1.42759E-02-3.16065E-04-7.71967E-14
 -1       823 9.14106E-03-2.17178E-04-4.42447E-14
 -1       824 3.46652E-03 3.85512E-04-6.36118E-15
 -1       825 1.43013E-02-2.61542E-04-7.70312E-14
 -1       826 2.03277E-03 3.57673E-04-2.25214E-15
 -1       827 1.36812E-02-1.84078E-04-6.84948E-14
 -1       828 8.91426E-03-1.31288E-04-4.34223E-14
 -1       829 1.24623E-03 3.00943E-04-8.70042E-16
 -1       830 1.34714E-02-2.73890E-04-6.72291E-14
 -1       831 1.56203E-03-2.71045E-04-1.59065E-15
 -1       832 1.13840E-03 5.90838E-05-9.06874E-16
 -1       833 8.81778E-03-7.49866E-05-4.31988E-14
 -1       834 1.34506E-02-9.99323E-05-6.72371E-14
 -1       835 1.19023E-02 6.65030E-04-5.96017E-14
 -1       836 1.13704E-03 1.19470E-06-9.24038E-16
 -1       837 1.30115E-02 1.00084E-04-6.59143E-14
 -1       838 8.77205E-03-1.01613E-04-4.21358E-14
 -1       839 1.25197E-02 3.50848E-04-6.35125E-14
 -1       840 1.40433E-02-4.66124E-04-7.67218E-14
 -1       841 1.24584E-02-7.82084E-04-6.39179E-14
 -1       842 2.60677E-03 3.78102E-04-3.64563E-15
 -1       843 1.18066E-02 7.41536E-04-5.90980E-14
 -1       844 2.31984E-03 3.70149E-04-2.90734E-15
 -1       845 1.42290E-02-1.52610E-04-7.66904E-14
 -1       846 1.41395E-02-8.62895E-05-7.65136E-14
 -1       847 1.14216E-03-1.15266E-04-9.38712E-16
 -1       848 1.40604E-02-2.35537E-05-7.64916E-14
 -1       849 9.25224E-03 1.56518E-04-4.33965E-14
 -1       850 8.78990E-03-4.70635E-05-4.24489E-14
 -1       851 1.14989E-03 1.79192E-04-8.51519E-16
 -1       852 1.49561E-03 3.24218E-04-1.24180E-15
 -1       853 1.14250E-03 1.17993E-04-8.83028E-16
 -1       854 1.36695E-02-1.54368E-04-6.90550E-14
 -1       855 8.97015E-03 1.74525E-05-4.30325E-14
 -1       856 1.23343E-03-1.70008E-04-1.06596E-15
 -1       857 2.21853E-03-2.58838E-04-3.05054E-15
 -1       858 2.50763E-03-2.66035E-04-3.82138E-15
 -1       859 2.79666E-03-2.70353E-04-4.67677E-15
 -1       860 3.08543E-03-2.72561E-04-5.61350E-15
 -1       861 3.37382E-03-2.73244E-04-6.63060E-15
 -1       862 3.66179E-03-2.72827E-04-7.72817E-15
 -1       863 3.94932E-03-2.71599E-04-8.90327E-15
 -1       864 4.23639E-03-2.69741E-04-1.01524E-14
 -1       865 4.52298E-03-2.67348E-04-1.14730E-14
 -1       866 4.80908E-03-2.64452E-04-1.28628E-14
 -1       867 5.09463E-03-2.61037E-04-1.43224E-14
 -1       868 5.37953E-03-2.57061E-04-1.58527E-14
 -1       869 5.66368E-03-2.52470E-04-1.74537E-14
 -1       870 5.94688E-03-2.47221E-04-1.91258E-14
 -1       871 6.22893E-03-2.41306E-04-2.08680E-14
 -1       872 6.50954E-03-2.34780E-04-2.26784E-14
 -1       873 6.78836E-03-2.27790E-04-2.45548E-14
 -1       874 7.06501E-03-2.20617E-04-2.64943E-14
 -1       875 7.33907E-03-2.13702E-04-2.84964E-14
 -1       876 7.61015E-03-2.07681E-04-3.05604E-14
 -1       877 7.87796E-03-2.03399E-04-3.26794E-14
 -1       878 8.14251E-03-2.01925E-04-3.48485E-14
 -1       879 8.40438E-03-2.04612E-04-3.70666E-14
 -1       880 8.66531E-03-2.13314E-04-3.93319E-14
 -1       881 8.92962E-03-2.31414E-04-4.16434E-14
 -1       882 1.39904E-02-3.75994E-04-7.49658E-14
 -1       883 1.34727E-02-4.00182E-04-6.99751E-14
 -1       884 1.37382E-02-3.82010E-04-7.24599E-14
 -1       885 1.35109E-02-3.32455E-04-6.91589E-14
 -1       886 4.17920E-03 3.07412E-04-9.31521E-15
 -1       887 3.89234E-03 3.09166E-04-8.12231E-15
 -1       888 4.75182E-03 3.02166E-04-1.19316E-14
 -1       889 5.03754E-03 2.98708E-04-1.33485E-14
 -1       890 5.32282E-03 2.94646E-04-1.48400E-14
 -1       891 5.60758E-03 2.89917E-04-1.64042E-14
 -1       892 5.89174E-03 2.84461E-04-1.80392E-14
 -1       893 6.17520E-03 2.78244E-04-1.97457E-14
 -1       894 6.45784E-03 2.71286E-04-2.15160E-14
 -1       895 6.73957E-03 2.63697E-04-2.33481E-14
 -1       896 7.02033E-03 2.55709E-04-2.52407E-14
 -1       897 7.30020E-03 2.47732E-04-2.71941E-14
 -1       898 7.57941E-03 2.40399E-04-2.92072E-14
 -1       899 7.85859E-03 2.34644E-04-3.12727E-14
 -1       900 8.13891E-03 2.31810E-04-3.33916E-14
 -1       901 8.42244E-03 2.33857E-04-3.55605E-14
 -1       902 8.71254E-03 2.43782E-04-3.77782E-14
 -1       903 9.01427E-03 2.66344E-04-4.00479E-14
 -1       904 9.33448E-03 3.09331E-04-4.23719E-14
 -1       905 1.34141E-02 1.25436E-04-7.09739E-14
 -1       906 1.37175E-02 7.64476E-05-7.38382E-14
 -1       907 1.13824E-03-5.65488E-05-9.34830E-16
 -1       908 1.37354E-02-2.31720E-04-6.96673E-14
 -1       909 1.30936E-02 1.90022E-04-6.81447E-14
 -1       910 1.28159E-02 2.57097E-04-6.58123E-14
 -1       911 1.40667E-02-3.06906E-04-7.48013E-14
 -1       912 1.87602E-03 2.78791E-04-2.02638E-15
 -1       913 4.46570E-03 3.05064E-04-1.05862E-14
 -1       914 8.83952E-03-1.56222E-04-4.18948E-14
 -1       915 3.02963E-03 3.09137E-04-5.01816E-15
 -1       916 1.40133E-02 3.30382E-05-7.67542E-14
 -1       917 1.33532E-02-3.33187E-05-6.76898E-14
 -1       918 1.92970E-03-2.47809E-04-2.36560E-15
 -1       919 1.36164E-02-1.07620E-04-6.95144E-14
 -1       920 9.04658E-03 1.04957E-04-4.22105E-14
 -1       921 2.74139E-03 3.06189E-04-4.14634E-15
 -1       922 1.50598E-03-1.95009E-04-1.52230E-15
 -1       923 1.40972E-02-2.22355E-04-7.44547E-14
 -1       924 3.60513E-03 3.10205E-04-7.00764E-15
 -1       925 1.38409E-03-9.71299E-05-1.32403E-15
 -1       926 1.44405E-03-1.44808E-04-1.42356E-15
 -1       927 1.40136E-03 2.37145E-04-1.18589E-15
 -1       928 1.38575E-02-2.78733E-05-7.39970E-14
 -1       929 2.16435E-03 2.92024E-04-2.65003E-15
 -1       930 1.40538E-02-1.68486E-04-7.42839E-14
 -1       931 1.39690E-02-1.05080E-04-7.41430E-14
 -1       932 1.38437E-03 1.00093E-04-1.26800E-15
 -1       933 1.38122E-03 3.40532E-05-1.29467E-15
 -1       934 8.69513E-03-7.27334E-05-4.13984E-14
 -1       935 1.44765E-03 2.79891E-04-1.21616E-15
 -1       936 1.38592E-02-2.03140E-04-7.12537E-14
 -1       937 3.31755E-03 3.10309E-04-5.97289E-15
 -1       938 1.58843E-03 2.59780E-04-1.48627E-15
 -1       939 8.80148E-03-4.57887E-07-4.16455E-14
 -1       940 1.71735E-03-2.22183E-04-1.92155E-15
 -1       941 2.64558E-03-1.94010E-04-4.23344E-15
 -1       942 2.93550E-03-1.96451E-04-5.12534E-15
 -1       943 3.22505E-03-1.97516E-04-6.09834E-15
 -1       944 3.51412E-03-1.97584E-04-7.15061E-15
 -1       945 3.80261E-03-1.96926E-04-8.28193E-15
 -1       946 4.09049E-03-1.95721E-04-9.48938E-15
 -1       947 4.37772E-03-1.94075E-04-1.07710E-14
 -1       948 4.66426E-03-1.92037E-04-1.21214E-14
 -1       949 4.95005E-03-1.89614E-04-1.35428E-14
 -1       950 5.23499E-03-1.86785E-04-1.50347E-14
 -1       951 5.51892E-03-1.83517E-04-1.65970E-14
 -1       952 5.80164E-03-1.79780E-04-1.82310E-14
 -1       953 6.08288E-03-1.75560E-04-1.99368E-14
 -1       954 6.36229E-03-1.70885E-04-2.17110E-14
 -1       955 6.63944E-03-1.65841E-04-2.35508E-14
 -1       956 6.91382E-03-1.60600E-04-2.54559E-14
 -1       957 7.18482E-03-1.55434E-04-2.74223E-14
 -1       958 7.45174E-03-1.50727E-04-2.94501E-14
 -1       959 7.71382E-03-1.46968E-04-3.15352E-14
 -1       960 7.97021E-03-1.44712E-04-3.36722E-14
 -1       961 8.22000E-03-1.44536E-04-3.58601E-14
 -1       962 8.46240E-03-1.47045E-04-3.80930E-14
 -1       963 8.65467E-03-1.49961E-04-3.99761E-14
 -1       964 4.03295E-03 2.33346E-04-8.82583E-15
 -1       965 2.06581E-03-1.82846E-04-2.69940E-15
 -1       966 2.45291E-03 3.00783E-04-3.35706E-15
 -1       967 5.17794E-03 2.23995E-04-1.42212E-14
 -1       968 4.89268E-03 2.27030E-04-1.27631E-14
 -1       969 5.74591E-03 2.16282E-04-1.73565E-14
 -1       970 6.02830E-03 2.11487E-04-1.90314E-14
 -1       971 6.30937E-03 2.06014E-04-2.07721E-14
 -1       972 6.58889E-03 1.99871E-04-2.25738E-14
 -1       973 6.86661E-03 1.93129E-04-2.44380E-14
 -1       974 7.14236E-03 1.85941E-04-2.63631E-14
 -1       975 7.41602E-03 1.78574E-04-2.83534E-14
 -1       976 7.68769E-03 1.71427E-04-3.03996E-14
 -1       977 7.95782E-03 1.65084E-04-3.24978E-14
 -1       978 8.22746E-03 1.60414E-04-3.46469E-14
 -1       979 8.49864E-03 1.58853E-04-3.68434E-14
 -1       980 8.77506E-03 1.63152E-04-3.90876E-14
 -1       981 1.35386E-02 6.42199E-06-7.07460E-14
 -1       982 5.46240E-03 2.20432E-04-1.57529E-14
 -1       983 1.38448E-02-3.03059E-04-7.22933E-14
 -1       984 1.38113E-03-3.13058E-05-1.31337E-15
 -1       985 9.04429E-03 1.86368E-04-4.11294E-14
 -1       986 1.32843E-02 4.36030E-05-6.83159E-14
 -1       987 1.72187E-03 2.02511E-04-1.79960E-15
 -1       988 1.39086E-03 1.67425E-04-1.23196E-15
 -1       989 2.35556E-03-1.89686E-04-3.42435E-15
 -1       990 3.74521E-03 2.34469E-04-7.66575E-15
 -1       991 1.85349E-03-1.61148E-04-2.22388E-15
 -1       992 8.84384E-03 7.18166E-05-4.08343E-14
 -1       993 2.87890E-03 2.32876E-04-4.66149E-15
 -1       994 1.39085E-02-2.49325E-04-7.22105E-14
 -1       995 1.62932E-03-7.01609E-05-1.76818E-15
 -1       996 4.32013E-03 2.31697E-04-1.00639E-14
 -1       997 8.61599E-03-9.73166E-05-4.02144E-14
 -1       998 1.68886E-03-1.20052E-04-1.88688E-15
 -1       999 4.60672E-03 2.29588E-04-1.13773E-14
 -1      1000 2.01036E-03 2.15214E-04-2.39100E-15
 -1      1001 3.16814E-03 2.34513E-04-5.58225E-15
 -1      1002 1.63466E-03 1.45862E-04-1.68158E-15
 -1      1003 8.65205E-03-3.49844E-05-4.06136E-14
 -1      1004 1.62951E-03 7.31991E-05-1.72047E-15
 -1      1005 1.38525E-02-1.53707E-04-7.18031E-14
 -1      1006 1.35742E-02-5.37523E-05-7.01271E-14
 -1      1007 2.78634E-03-1.20469E-04-4.64952E-15
 -1      1008 3.07674E-03-1.21548E-04-5.57774E-15
 -1      1009 3.36668E-03-1.21873E-04-6.58611E-15
 -1      1010 3.65601E-03-1.21648E-04-7.67183E-15
 -1      1011 3.94465E-03-1.21020E-04-8.83658E-15
 -1      1012 4.23254E-03-1.20077E-04-1.00770E-14
 -1      1013 4.51963E-03-1.18872E-04-1.13894E-14
 -1      1014 4.80585E-03-1.17423E-04-1.27712E-14
 -1      1015 5.09109E-03-1.15729E-04-1.42245E-14
 -1      1016 5.37521E-03-1.13776E-04-1.57487E-14
 -1      1017 5.65798E-03-1.11552E-04-1.73440E-14
 -1      1018 5.93914E-03-1.09054E-04-1.90117E-14
 -1      1019 6.21832E-03-1.06302E-04-2.07501E-14
 -1      1020 6.49506E-03-1.03355E-04-2.25548E-14
 -1      1021 6.76882E-03-1.00326E-04-2.44231E-14
 -1      1022 7.03892E-03-9.73946E-05-2.63547E-14
 -1      1023 7.30455E-03-9.48154E-05-2.83467E-14
 -1      1024 7.56475E-03-9.29115E-05-3.03976E-14
 -1      1025 7.81828E-03-9.20476E-05-3.25054E-14
 -1      1026 8.06355E-03-9.25737E-05-3.46615E-14
 -1      1027 8.29835E-03-9.47899E-05-3.68653E-14
 -1      1028 2.49572E-03-1.18357E-04-3.80373E-15
 -1      1029 2.29972E-03 2.23923E-04-3.06563E-15
 -1      1030 5.03356E-03 1.52705E-04-1.36022E-14
 -1      1031 1.62776E-03 1.49414E-06-1.74906E-15
 -1      1032 1.71032E-03-1.63468E-04-1.92472E-15
 -1      1033 2.58936E-03 2.29551E-04-3.82233E-15
 -1      1034 1.38339E-02-1.18740E-04-7.21990E-14
 -1      1035 6.16383E-03 1.40634E-04-2.00257E-14
 -1      1036 5.88346E-03 1.44385E-04-1.83132E-14
 -1      1037 6.71833E-03 1.31409E-04-2.36393E-14
 -1      1038 6.99171E-03 1.25916E-04-2.55374E-14
 -1      1039 7.26197E-03 1.19876E-04-2.74998E-14
 -1      1040 7.52877E-03 1.13361E-04-2.95234E-14
 -1      1041 7.79184E-03 1.06480E-04-3.16008E-14
 -1      1042 8.05110E-03 9.93912E-05-3.37302E-14
 -1      1043 8.30686E-03 9.23748E-05-3.59054E-14
 -1      1044 8.56027E-03 8.61504E-05-3.81301E-14
 -1      1045 5.31809E-03 1.50366E-04-1.50998E-14
 -1      1046 8.53506E-03-5.81378E-05-3.94465E-14
 -1      1047 4.74805E-03 1.54678E-04-1.21769E-14
 -1      1048 3.45693E-03 2.34933E-04-6.58407E-15
 -1      1049 2.20528E-03-1.14852E-04-3.04129E-15
 -1      1050 5.60146E-03 1.47611E-04-1.66708E-14
 -1      1051 6.44224E-03 1.36316E-04-2.18021E-14
 -1      1052 1.92275E-03 1.56526E-04-2.25653E-15
 -1      1053 3.88660E-03 1.58601E-04-8.33650E-15
 -1      1054 8.46242E-03-9.55185E-05-3.85257E-14
 -1      1055 8.61043E-03 2.26898E-05-3.93861E-14
 -1      1056 2.72877E-03 1.56689E-04-4.30332E-15
 -1      1057 1.87740E-03-3.65620E-05-2.26838E-15
 -1      1058 4.17451E-03 1.57633E-04-9.54152E-15
 -1      1059 1.93621E-03-8.83894E-05-2.40652E-15
 -1      1060 4.46167E-03 1.56317E-04-1.08228E-14
 -1      1061 3.01898E-03 1.58436E-04-5.19154E-15
 -1      1062 2.63862E-03-4.51812E-05-4.18764E-15
 -1      1063 1.94808E-03 6.92221E-05-2.37672E-15
 -1      1064 3.22003E-03-4.59695E-05-6.03275E-15
 -1      1065 3.50998E-03-4.59388E-05-7.07445E-15
 -1      1066 3.79924E-03-4.57288E-05-8.19548E-15
 -1      1067 4.08772E-03-4.53798E-05-9.39254E-15
 -1      1068 4.37536E-03-4.49207E-05-1.06655E-14
 -1      1069 4.66208E-03-4.43678E-05-1.20094E-14
 -1      1070 4.94780E-03-4.37281E-05-1.34224E-14
 -1      1071 5.23237E-03-4.30048E-05-1.49084E-14
 -1      1072 5.51560E-03-4.22022E-05-1.64635E-14
 -1      1073 5.79723E-03-4.13321E-05-1.80926E-14
 -1      1074 6.07692E-03-4.04204E-05-1.97953E-14
 -1      1075 6.35425E-03-3.95163E-05-2.15648E-14
 -1      1076 6.62868E-03-3.87014E-05-2.33968E-14
 -1      1077 6.89959E-03-3.81002E-05-2.52925E-14
 -1      1078 7.16620E-03-3.78886E-05-2.72506E-14
 -1      1079 7.42758E-03-3.82987E-05-2.92667E-14
 -1      1080 7.68255E-03-3.96160E-05-3.13380E-14
 -1      1081 7.92956E-03-4.21641E-05-3.34674E-14
 -1      1082 8.16634E-03-4.62672E-05-3.56428E-14
 -1      1083 5.45822E-03 7.80714E-05-1.59845E-14
 -1      1084 6.57487E-03 6.93782E-05-2.28383E-14
 -1      1085 2.43839E-03 1.53552E-04-3.49767E-15
 -1      1086 2.14567E-03-6.06588E-05-2.88679E-15
 -1      1087 7.38137E-03 5.77600E-05-2.86439E-14
 -1      1088 6.02081E-03 7.44728E-05-1.92767E-14
 -1      1089 7.11661E-03 6.22724E-05-2.66465E-14
 -1      1090 6.84756E-03 6.61139E-05-2.47105E-14
 -1      1091 7.64110E-03 5.24556E-05-3.06982E-14
 -1      1092 7.89496E-03 4.61992E-05-3.28079E-14
 -1      1093 8.14195E-03 3.87915E-05-3.49653E-14
 -1      1094 8.38061E-03 2.99415E-05-3.71688E-14
 -1      1095 5.17458E-03 7.94431E-05-1.44480E-14
 -1      1096 6.29912E-03 7.21421E-05-2.10258E-14
 -1      1097 8.38022E-03-5.47096E-05-3.77743E-14
 -1      1098 4.88971E-03 8.05868E-05-1.29835E-14
 -1      1099 4.60377E-03 8.15330E-05-1.15907E-14
 -1      1100 2.18024E-03 1.56247E-04-2.84394E-15
 -1      1101 8.47815E-03-1.85237E-05-3.85824E-14
 -1      1102 5.74039E-03 7.64309E-05-1.75941E-14
 -1      1103 3.59802E-03 1.59155E-04-7.20842E-15
 -1      1104 2.39195E-03-5.33947E-05-3.50802E-15
 -1      1105 2.92950E-03-4.57473E-05-5.06991E-15
 -1      1106 4.31688E-03 8.22983E-05-1.02687E-14
 -1      1107 2.16876E-03 9.91974E-06-2.91751E-15
 -1      1108 4.02912E-03 8.28826E-05-9.01967E-15
 -1      1109 2.57997E-03 8.11870E-05-3.94633E-15
 -1      1110 3.30877E-03 1.59163E-04-6.16004E-15
 -1      1111 2.87077E-03 8.25012E-05-4.80052E-15
 -1      1112 3.74054E-03 8.32587E-05-7.84626E-15
 -1      1113 3.65461E-03 2.99856E-05-7.56527E-15
 -1      1114 2.30243E-03 8.07295E-05-3.20694E-15
 -1      1115 3.36495E-03 2.99514E-05-6.48934E-15
 -1      1116 3.11788E-03 5.64682E-05-5.61468E-15
 -1      1117 2.35890E-03 7.71203E-06-3.39607E-15
 -1      1118 0.00000E+00 0.00000E+00 0.00000E+00
 -1      1119 0.00000E+00 0.00000E+00 0.00000E+00
 -1      1120 0.00000E+00 0.00000E+00 0.00000E+00
 -1      1121 0.00000E+00 0.00000E+00 0.00000E+00
 -1      1122 0.00000E+00 0.00000E+00 0.00000E+00
 -1      1123 0.00000E+00 0.00000E+00 0.00000E+00
 -1      1124 0.00000E+00 0.00000E+00 0.00000E+00
 -1      1125 0.00000E+00 0.00000E+00 0.00000E+00
 -1      1126 0.00000E+00 0.00000E+00 0.00000E+00
 -1      1127 0.00000E+00 0.00000E+00 0.00000E+00
 -1      1128 0.00000E+00 0.00000E+00 0.00000E+00
 -1      1129 0.00000E+00 0.00000E+00 0.00000E+00
 -1      1130 0.00000E+00 0.00000E+00 0.00000E+00
 -1      1131 0.00000E+00 0.00000E+00 0.00000E+00
 -1      1132 0.00000E+00 0.00000E+00 0.00000E+00
 -1      1133 0.00000E+00 0.00000E+00 0.00000E+00
 -1      1134 0.00000E+00 0.00000E+00 0.00000E+00
 -1      1135 2.11667E-04-1.48339E-04 9.08019E-18
 -1      1136 5.51626E-04-3.37541E-04-3.67138E-17
 -1      1137 8.33428E-04-4.59051E-04-1.74841E-16
 -1      1138 1.10298E-03-5.40745E-04-4.19383E-16
 -1      1139 1.36836E-03-5.98003E-04-7.65677E-16
 -1      1140 1.63312E-03-6.38708E-04-1.21184E-15
 -1      1141 1.89912E-03-6.67503E-04-1.75671E-15
 -1      1142 2.16720E-03-6.87503E-04-2.39877E-15
 -1      1143 2.43765E-03-7.00984E-04-3.13714E-15
 -1      1144 2.71047E-03-7.09658E-04-3.96888E-15
 -1      1145 2.98550E-03-7.14812E-04-4.89075E-15
 -1      1146 3.26249E-03-7.17407E-04-5.89658E-15
 -1      1147 3.54118E-03-7.18141E-04-6.98313E-15
 -1      1148 3.82133E-03-7.17508E-04-8.15232E-15
 -1      1149 4.10271E-03-7.15837E-04-9.39654E-15
 -1      1150 4.38516E-03-7.13330E-04-1.07137E-14
 -1      1151 4.66857E-03-7.10092E-04-1.20989E-14
 -1      1152 4.95290E-03-7.06158E-04-1.35519E-14
 -1      1153 5.23823E-03-7.01514E-04-1.50739E-14
 -1      1154 5.52471E-03-6.96124E-04-1.66652E-14
 -1      1155 5.81263E-03-6.89963E-04-1.83246E-14
 -1      1156 6.10241E-03-6.83044E-04-2.00524E-14
 -1      1157 6.39466E-03-6.75468E-04-2.18503E-14
 -1      1158 6.69017E-03-6.67490E-04-2.37161E-14
 -1      1159 6.98995E-03-6.59598E-04-2.56542E-14
 -1      1160 7.29526E-03-6.52632E-04-2.76574E-14
 -1      1161 7.60755E-03-6.47941E-04-2.97203E-14
 -1      1162 7.92841E-03-6.47579E-04-3.18421E-14
 -1      1163 8.25938E-03-6.54526E-04-3.40290E-14
 -1      1164 8.60156E-03-6.72882E-04-3.62727E-14
 -1      1165 8.95497E-03-7.07876E-04-3.85595E-14
 -1      1166 9.31767E-03-7.65382E-04-4.08939E-14
 -1      1167 9.68460E-03-8.50473E-04-4.32734E-14
 -1      1168 1.00469E-02-9.64485E-04-4.56973E-14
 -1      1169 1.03928E-02-1.10083E-03-4.81706E-14
 -1      1170 1.07109E-02-1.24150E-03-5.06836E-14
 -1      1171 1.09966E-02-1.35834E-03-5.32195E-14
 -1      1172 1.12573E-02-1.42224E-03-5.57867E-14
 -1      1173 1.15117E-02-1.41720E-03-5.83859E-14
 -1      1174 1.17810E-02-1.34931E-03-6.10261E-14
 -1      1175 1.20783E-02-1.24301E-03-6.37183E-14
 -1      1176 1.24036E-02-1.12781E-03-6.64480E-14
 -1      1177 1.27474E-02-1.02602E-03-6.92116E-14
 -1      1178 1.30970E-02-9.47957E-04-7.20182E-14
 -1      1179 1.34416E-02-8.93832E-04-7.48581E-14
 -1      1180 1.37745E-02-8.57867E-04-7.77378E-14
 -1      1181 1.40925E-02-8.31850E-04-8.06596E-14
 -1      1182 1.43959E-02-8.07340E-04-8.36193E-14
 -1      1183 1.46877E-02-7.77184E-04-8.66133E-14
 -1      1184 1.49662E-02-7.39518E-04-8.95753E-14
 -1      1185 2.28427E-04 1.60718E-04 2.41099E-17
 -1      1186 5.53801E-04 3.42174E-04 1.67916E-17
 -1      1187 8.34360E-04 4.61221E-04-6.86300E-17
 -1      1188 1.10388E-03 5.42437E-04-2.42279E-16
 -1      1189 1.36926E-03 5.99685E-04-5.05591E-16
 -1      1190 1.63407E-03 6.40476E-04-8.59339E-16
 -1      1191 1.90013E-03 6.69377E-04-1.30463E-15
 -1      1192 2.16825E-03 6.89496E-04-1.83817E-15
 -1      1193 2.43873E-03 7.03105E-04-2.46202E-15
 -1      1194 2.71157E-03 7.11911E-04-3.17414E-15
 -1      1195 2.98661E-03 7.17201E-04-3.97703E-15
 -1      1196 3.26361E-03 7.19932E-04-4.86383E-15
 -1      1197 3.54231E-03 7.20805E-04-5.83557E-15
 -1      1198 3.82247E-03 7.20312E-04-6.89351E-15
 -1      1199 4.10387E-03 7.18786E-04-8.03200E-15
 -1      1200 4.38634E-03 7.16431E-04-9.25422E-15
 -1      1201 4.66977E-03 7.13359E-04-1.05558E-14
 -1      1202 4.95414E-03 7.09612E-04-1.19340E-14
 -1      1203 5.23950E-03 7.05189E-04-1.33876E-14
 -1      1204 5.52601E-03 7.00076E-04-1.49160E-14
 -1      1205 5.81393E-03 6.94274E-04-1.65183E-14
 -1      1206 6.10366E-03 6.87836E-04-1.81942E-14
 -1      1207 6.39574E-03 6.80917E-04-1.99463E-14
 -1      1208 6.69085E-03 6.73830E-04-2.17629E-14
 -1      1209 6.98983E-03 6.67128E-04-2.36335E-14
 -1      1210 7.29362E-03 6.61698E-04-2.55582E-14
 -1      1211 7.60323E-03 6.58870E-04-2.75298E-14
 -1      1212 7.91959E-03 6.60527E-04-2.95568E-14
 -1      1213 8.24330E-03 6.69183E-04-3.16358E-14
 -1      1214 8.57435E-03 6.87942E-04-3.37579E-14
 -1      1215 8.91155E-03 7.20240E-04-3.59327E-14
 -1      1216 9.25211E-03 7.69151E-04-3.81676E-14
 -1      1217 9.59116E-03 8.36107E-04-4.04494E-14
 -1      1218 9.92197E-03 9.19040E-04-4.27743E-14
 -1      1219 1.02371E-02 1.01045E-03-4.51497E-14
 -1      1220 1.05310E-02 1.09668E-03-4.75806E-14
 -1      1221 1.08029E-02 1.15994E-03-5.00671E-14
 -1      1222 1.10588E-02 1.18374E-03-5.26204E-14
 -1      1223 1.13107E-02 1.15953E-03-5.52301E-14
 -1      1224 1.15715E-02 1.09059E-03-5.79010E-14
 -1      1225 1.18499E-02 9.90326E-04-6.06222E-14
 -1      1226 1.21479E-02 8.76265E-04-6.33885E-14
 -1      1227 1.24612E-02 7.63556E-04-6.61955E-14
 -1      1228 1.27825E-02 6.61340E-04-6.90584E-14
 -1      1229 1.31042E-02 5.72401E-04-7.19683E-14
 -1      1230 1.34203E-02 4.94743E-04-7.49124E-14
 -1      1231 1.37276E-02 4.23625E-04-7.78903E-14
 -1      1232 1.40252E-02 3.53300E-04-8.09015E-14
 -1      1233 1.43149E-02 2.78630E-04-8.39233E-14
 -1      1234 1.45933E-02 1.99592E-04-8.68735E-14
 -1      1235 1.47701E-02 1.17374E-04-8.83854E-14
 -1      1236 1.48557E-02 3.29993E-05-8.85841E-14
 -1      1237 1.49479E-02-4.71448E-05-8.87552E-14
 -1      1238 1.50451E-02-1.18882E-04-8.88757E-14
 -1      1239 1.51431E-02-1.79231E-04-8.89920E-14
 -1      1240 1.52352E-02-2.26253E-04-8.91272E-14
 -1      1241 1.53159E-02-2.60518E-04-8.92730E-14
 -1      1242 1.53795E-02-2.84008E-04-8.94099E-14
 -1      1243 1.54201E-02-3.00095E-04-8.95667E-14
 -1      1244 1.54349E-02-3.13942E-04-8.97221E-14
 -1      1245 1.54240E-02-3.31299E-04-8.98863E-14
 -1      1246 1.53911E-02-3.57184E-04-9.00994E-14
 -1      1247 1.53419E-02-3.95498E-04-9.03288E-14
 -1      1248 1.52832E-02-4.48568E-04-9.05219E-14
 -1      1249 1.52231E-02-5.15755E-04-9.06805E-14
 -1      1250 1.51685E-02-5.94024E-04-9.08291E-14
 -1      1251 1.51225E-02-6.77509E-04-9.09668E-14
 -1      1252 1.34878E-02-8.78715E-05-6.12227E-14
 -1      1253 1.33669E-02 6.70867E-05-6.08581E-14
 -1      1254 1.31414E-02 2.26870E-04-6.02355E-14
 -1      1255 1.28299E-02 3.87685E-04-5.93874E-14
 -1      1256 1.24620E-02 5.35714E-04-5.83832E-14
 -1      1257 1.20365E-02 6.62146E-04-5.71988E-14
 -1      1258 1.15885E-02 7.45300E-04-5.59248E-14
 -1      1259 1.11409E-02 7.69068E-04-5.46361E-14
 -1      1260 1.06856E-02 7.34742E-04-5.33544E-14
 -1      1261 1.02524E-02 6.46656E-04-5.21903E-14
 -1      1262 9.84390E-03 5.17177E-04-5.11572E-14
 -1      1263 9.48953E-03 3.65405E-04-5.03171E-14
 -1      1264 9.21563E-03 2.07997E-04-4.97134E-14
 -1      1265 9.04078E-03 5.19974E-05-4.93879E-14
 -1      1266 8.98244E-03-9.78158E-05-4.93457E-14
 -1      1267 9.04117E-03-2.51989E-04-4.95618E-14
 -1      1268 9.21830E-03-4.15687E-04-5.00476E-14
 -1      1269 9.48201E-03-5.76867E-04-5.07460E-14
 -1      1270 9.81297E-03-7.34084E-04-5.16232E-14
 -1      1271 1.02147E-02-8.82983E-04-5.27041E-14
 -1      1272 1.06483E-02-9.97112E-04-5.39046E-14
 -1      1273 1.10974E-02-1.05781E-03-5.51705E-14
 -1      1274 1.15619E-02-1.05578E-03-5.64815E-14
 -1      1275 1.20239E-02-9.90090E-04-5.77482E-14
 -1      1276 1.24465E-02-8.76934E-04-5.88563E-14
 -1      1277 1.28161E-02-7.36954E-04-5.97711E-14
 -1      1278 1.31328E-02-5.79534E-04-6.05085E-14
 -1      1279 1.33706E-02-4.12831E-04-6.10382E-14
 -1      1280 1.34937E-02-2.46477E-04-6.12931E-14
 -1      1281 1.66696E-04-1.10350E-04-5.63785E-18
 -1      1282 1.12537E-04-5.69866E-05-2.22397E-17
 -1      1283 1.17618E-04-6.75927E-05-1.76047E-17
 -1      1284 1.08422E-04-4.35069E-05-2.96123E-17
 -1      1285 1.10283E-04-4.96205E-05-2.73897E-17
 -1      1286 2.26322E-04-1.07650E-04-6.48082E-17
 -1      1287 1.06840E-04-3.36222E-05-3.36374E-17
 -1      1288 1.07688E-04-3.83465E-05-3.25396E-17
 -1      1289 2.19107E-04-8.24862E-05-7.80083E-17
 -1      1290 1.06060E-04-2.53681E-05-3.57109E-17
 -1      1291 1.06490E-04-2.93994E-05-3.52230E-17
 -1      1292 2.15859E-04-6.33018E-05-8.53267E-17
 -1      1293 1.05664E-04-1.81038E-05-3.66731E-17
 -1      1294 1.05892E-04-2.16736E-05-3.65241E-17
 -1      1295 2.14210E-04-4.72173E-05-8.91079E-17
 -1      1296 1.05444E-04-1.12472E-05-3.68764E-17
 -1      1297 1.05566E-04-1.46347E-05-3.68764E-17
 -1      1298 2.13304E-04-3.27736E-05-9.06529E-17
 -1      1299 1.05345E-04-4.69232E-06-3.65918E-17
 -1      1300 1.05397E-04-7.94784E-06-3.67273E-17
 -1      1301 2.12808E-04-1.92023E-05-9.07206E-17
 -1      1302 1.05333E-04 1.74454E-06-3.61310E-17
 -1      1303 1.05331E-04-1.47107E-06-3.62801E-17
 -1      1304 2.12595E-04-6.16388E-06-8.99346E-17
 -1      1305 1.05405E-04 8.23091E-06-3.53856E-17
 -1      1306 1.05349E-04 4.96899E-06-3.56160E-17
 -1      1307 2.12603E-04 6.71375E-06-8.84844E-17
 -1      1308 1.05582E-04 1.49423E-05-3.40711E-17
 -1      1309 1.05455E-04 1.15405E-05-3.44776E-17
 -1      1310 2.12833E-04 1.97779E-05-8.61941E-17
 -1      1311 1.05913E-04 2.19644E-05-3.19840E-17
 -1      1312 1.05679E-04 1.83718E-05-3.26074E-17
 -1      1313 2.13341E-04 3.32875E-05-8.24671E-17
 -1      1314 1.06536E-04 2.98332E-05-2.90160E-17
 -1      1315 1.06097E-04 2.57555E-05-2.99917E-17
 -1      1316 2.14279E-04 4.78209E-05-7.71274E-17
 -1      1317 1.07724E-04 3.89326E-05-2.46520E-17
 -1      1318 1.06873E-04 3.41389E-05-2.63597E-17
 -1      1319 2.15978E-04 6.42370E-05-6.96058E-17
 -1      1320 1.10261E-04 5.03582E-05-1.76996E-17
 -1      1321 1.08424E-04 4.41752E-05-2.06947E-17
 -1      1322 2.19200E-04 8.37351E-05-5.84249E-17
 -1      1323 1.16934E-04 6.76280E-05-6.92534E-18
 -1      1324 1.12184E-04 5.77851E-05-1.21566E-17
 -1      1325 2.26310E-04 1.09468E-04-4.18909E-17
 -1      1326 1.57577E-04 1.09866E-04 9.74427E-18
 -1      1327 1.35658E-04 8.60989E-05-4.74338E-19
 -1      1328 2.56030E-04 1.52111E-04-2.22668E-17
 -1      1329 3.35078E-04 2.20754E-04 5.54298E-18
 -1      1330 4.21528E-04-2.61762E-04-4.57262E-17
 -1      1331 5.74617E-04-3.36832E-04-9.26586E-17
 -1      1332 7.21795E-04-3.97442E-04-1.67563E-16
 -1      1333 8.64952E-04-4.46744E-04-2.68096E-16
 -1      1334 6.12046E-04-3.30933E-04-1.56464E-16
 -1      1335 1.00496E-03-4.87823E-04-3.93023E-16
 -1      1336 1.14279E-03-5.21817E-04-5.43348E-16
 -1      1337 9.05258E-04-4.31645E-04-3.63912E-16
 -1      1338 1.27927E-03-5.50596E-04-7.18230E-16
 -1      1339 1.41490E-03-5.74635E-04-9.18360E-16
 -1      1340 1.18766E-03-5.01078E-04-6.69359E-16
 -1      1341 1.55012E-03-5.94998E-04-1.14279E-15
 -1      1342 1.68519E-03-6.12018E-04-1.39170E-15
 -1      1343 1.46456E-03-5.49857E-04-1.07248E-15
 -1      1344 1.82034E-03-6.26323E-04-1.66475E-15
 -1      1345 1.95570E-03-6.38205E-04-1.96171E-15
 -1      1346 1.73920E-03-5.84149E-04-1.57223E-15
 -1      1347 2.09138E-03-6.48065E-04-2.28290E-15
 -1      1348 2.22742E-03-6.56151E-04-2.62840E-15
 -1      1349 2.01346E-03-6.07929E-04-2.16762E-15
 -1      1350 2.36389E-03-6.62738E-04-2.99720E-15
 -1      1351 2.50078E-03-6.68029E-04-3.38885E-15
 -1      1352 2.28831E-03-6.24004E-04-2.85758E-15
 -1      1353 2.63812E-03-6.72216E-04-3.80409E-15
 -1      1354 2.77589E-03-6.75461E-04-4.24140E-15
 -1      1355 2.56424E-03-6.34436E-04-3.64022E-15
 -1      1356 2.91410E-03-6.77901E-04-4.70017E-15
 -1      1357 3.05271E-03-6.79662E-04-5.18140E-15
 -1      1358 2.84143E-03-6.40760E-04-4.51235E-15
 -1      1359 3.19172E-03-6.80838E-04-5.68271E-15
 -1      1360 3.33110E-03-6.81527E-04-6.20401E-15
 -1      1361 3.11992E-03-6.44116E-04-5.47022E-15
 -1      1362 3.47083E-03-6.81790E-04-6.74653E-15
 -1      1363 3.61089E-03-6.81699E-04-7.30933E-15
 -1      1364 3.39963E-03-6.45336E-04-6.51116E-15
 -1      1365 3.75125E-03-6.81294E-04-7.89161E-15
 -1      1366 3.89190E-03-6.80625E-04-8.49365E-15
 -1      1367 3.68048E-03-6.45012E-04-7.63311E-15
 -1      1368 4.03282E-03-6.79714E-04-9.11464E-15
 -1      1369 4.17399E-03-6.78596E-04-9.75329E-15
 -1      1370 3.96234E-03-6.43546E-04-8.83389E-15
 -1      1371 4.31539E-03-6.77276E-04-1.04101E-14
 -1      1372 4.45703E-03-6.75778E-04-1.10850E-14
 -1      1373 4.24512E-03-6.41190E-04-1.01088E-14
 -1      1374 4.59889E-03-6.74098E-04-1.17763E-14
 -1      1375 4.74098E-03-6.72249E-04-1.24838E-14
 -1      1376 4.52875E-03-6.38081E-04-1.14544E-14
 -1      1377 4.88330E-03-6.70219E-04-1.32083E-14
 -1      1378 5.02585E-03-6.68019E-04-1.39506E-14
 -1      1379 4.81322E-03-6.34269E-04-1.28669E-14
 -1      1380 5.16865E-03-6.65626E-04-1.47109E-14
 -1      1381 5.31172E-03-6.63053E-04-1.54877E-14
 -1      1382 5.09856E-03-6.29740E-04-1.43492E-14
 -1      1383 5.45509E-03-6.60274E-04-1.62817E-14
 -1      1384 5.59879E-03-6.57303E-04-1.70930E-14
 -1      1385 5.38489E-03-6.24446E-04-1.58998E-14
 -1      1386 5.74286E-03-6.54114E-04-1.79214E-14
 -1      1387 5.88734E-03-6.50730E-04-1.87665E-14
 -1      1388 5.67241E-03-6.18323E-04-1.75198E-14
 -1      1389 6.03231E-03-6.47129E-04-1.96298E-14
 -1      1390 6.17782E-03-6.43348E-04-2.05108E-14
 -1      1391 5.96141E-03-6.11328E-04-1.92088E-14
 -1      1392 6.32396E-03-6.39374E-04-2.14084E-14
 -1      1393 6.47080E-03-6.35267E-04-2.23234E-14
 -1      1394 6.25231E-03-6.03474E-04-2.09676E-14
 -1      1395 6.61846E-03-6.31031E-04-2.32569E-14
 -1      1396 6.76704E-03-6.26763E-04-2.42064E-14
 -1      1397 6.54564E-03-5.94888E-04-2.27969E-14
 -1      1398 6.91666E-03-6.22496E-04-2.51724E-14
 -1      1399 7.06746E-03-6.18374E-04-2.61567E-14
 -1      1400 6.84208E-03-5.85880E-04-2.46950E-14
 -1      1401 7.21958E-03-6.14481E-04-2.71570E-14
 -1      1402 7.37317E-03-6.11025E-04-2.81714E-14
 -1      1403 7.14247E-03-5.77049E-04-2.66574E-14
 -1      1404 7.52839E-03-6.08167E-04-2.92017E-14
 -1      1405 7.68541E-03-6.06200E-04-3.02464E-14
 -1      1406 7.44775E-03-5.69421E-04-2.86845E-14
 -1      1407 7.84439E-03-6.05400E-04-3.13063E-14
 -1      1408 8.00548E-03-6.06159E-04-3.23819E-14
 -1      1409 7.75896E-03-5.64642E-04-3.07723E-14
 -1      1410 8.16881E-03-6.08916E-04-3.34741E-14
 -1      1411 8.33448E-03-6.14175E-04-3.45799E-14
 -1      1412 8.07715E-03-5.65203E-04-3.29209E-14
 -1      1413 8.50255E-03-6.22579E-04-3.56993E-14
 -1      1414 8.67301E-03-6.34729E-04-3.68293E-14
 -1      1415 8.40315E-03-5.74698E-04-3.51281E-14
 -1      1416 8.84578E-03-6.51480E-04-3.79716E-14
 -1      1417 9.02063E-03-6.73469E-04-3.91248E-14
 -1      1418 8.73735E-03-5.97995E-04-3.73845E-14
 -1      1419 9.19725E-03-7.01666E-04-4.02902E-14
 -1      1420 9.37513E-03-7.36578E-04-4.14694E-14
 -1      1421 9.07930E-03-6.41121E-04-3.96894E-14
 -1      1422 9.55365E-03-7.79001E-04-4.26563E-14
 -1      1423 9.73193E-03-8.28995E-04-4.38536E-14
 -1      1424 9.42719E-03-7.10430E-04-4.20392E-14
 -1      1425 9.90905E-03-8.86629E-04-4.50649E-14
 -1      1426 1.00839E-02-9.51014E-04-4.62864E-14
 -1      1427 9.77742E-03-8.10466E-04-4.44334E-14
 -1      1428 1.02553E-02-1.02079E-03-4.75186E-14
 -1      1429 1.04222E-02-1.09366E-03-4.87623E-14
 -1      1430 1.01244E-02-9.40076E-04-4.68719E-14
 -1      1431 1.05838E-02-1.16644E-03-5.00140E-14
 -1      1432 1.07397E-02-1.23547E-03-5.12726E-14
 -1      1433 1.04614E-02-1.08752E-03-4.93490E-14
 -1      1434 1.08898E-02-1.29639E-03-5.25389E-14
 -1      1435 1.10350E-02-1.34536E-03-5.38136E-14
 -1      1436 1.07828E-02-1.22780E-03-5.18618E-14
 -1      1437 1.11762E-02-1.37871E-03-5.50974E-14
 -1      1438 1.13153E-02-1.39431E-03-5.63903E-14
 -1      1439 1.10881E-02-1.32757E-03-5.44093E-14
 -1      1440 1.14542E-02-1.39135E-03-5.76901E-14
 -1      1441 1.15948E-02-1.37064E-03-5.89976E-14
 -1      1442 1.13841E-02-1.35927E-03-5.69919E-14
 -1      1443 1.17388E-02-1.33472E-03-6.03190E-14
 -1      1444 1.18874E-02-1.28684E-03-6.16534E-14
 -1      1445 1.16823E-02-1.31680E-03-5.96124E-14
 -1      1446 1.20411E-02-1.23129E-03-6.29962E-14
 -1      1447 1.21998E-02-1.17190E-03-6.43535E-14
 -1      1448 1.19923E-02-1.21916E-03-6.22778E-14
 -1      1449 1.23631E-02-1.11248E-03-6.57200E-14
 -1      1450 1.25299E-02-1.05588E-03-6.70914E-14
 -1      1451 1.23166E-02-1.09869E-03-6.49892E-14
 -1      1452 1.26993E-02-1.00417E-03-6.84737E-14
 -1      1453 1.28701E-02-9.58678E-04-6.98680E-14
 -1      1454 1.26513E-02-9.84599E-04-6.77390E-14
 -1      1455 1.30411E-02-9.19737E-04-7.12714E-14
 -1      1456 1.32114E-02-8.87457E-04-7.26815E-14
 -1      1457 1.29896E-02-8.93585E-04-7.05235E-14
 -1      1458 1.33801E-02-8.61079E-04-7.41023E-14
 -1      1459 1.35466E-02-8.40004E-04-7.55295E-14
 -1      1460 1.33250E-02-8.29685E-04-7.33456E-14
 -1      1461 1.37104E-02-8.23004E-04-7.69692E-14
 -1      1462 1.38712E-02-8.09178E-04-7.84181E-14
 -1      1463 1.36530E-02-7.88622E-04-7.62023E-14
 -1      1464 1.40290E-02-7.97224E-04-7.98792E-14
 -1      1465 1.41837E-02-7.86179E-04-8.13507E-14
 -1      1466 1.39711E-02-7.62244E-04-7.91004E-14
 -1      1467 1.43354E-02-7.74885E-04-8.28286E-14
 -1      1468 1.44846E-02-7.62457E-04-8.43146E-14
 -1      1469 1.42788E-02-7.41431E-04-8.20362E-14
 -1      1470 1.46314E-02-7.48090E-04-8.58117E-14
 -1      1471 1.47764E-02-7.31178E-04-8.73197E-14
 -1      1472 1.45770E-02-7.17759E-04-8.50103E-14
 -1      1473 1.49867E-02-6.98218E-04-8.95150E-14
 -1      1474 1.49345E-02-6.71914E-04-8.86999E-14
 -1      1475 6.43058E-04 3.72050E-04-4.24872E-17
 -1      1476 4.92939E-04 3.03717E-04-7.50810E-18
 -1      1477 4.44868E-04 2.65921E-04-2.80673E-17
 -1      1478 9.28621E-04 4.72031E-04-1.77403E-16
 -1      1479 7.87770E-04 4.26532E-04-9.90419E-17
 -1      1480 7.44711E-04 3.90763E-04-1.24914E-16
 -1      1481 1.20348E-03 5.41462E-04-3.99732E-16
 -1      1482 1.06683E-03 5.09778E-04-2.77474E-16
 -1      1483 1.03073E-03 4.76219E-04-3.07927E-16
 -1      1484 1.47399E-03 5.90658E-04-7.11115E-16
 -1      1485 1.33896E-03 5.68201E-04-5.44175E-16
 -1      1486 1.30862E-03 5.36050E-04-5.78273E-16
 -1      1487 1.74346E-03 6.25538E-04-1.11212E-15
 -1      1488 1.60868E-03 6.09647E-04-9.00159E-16
 -1      1489 1.58280E-03 5.78332E-04-9.36724E-16
 -1      1490 2.01360E-03 6.49962E-04-1.60313E-15
 -1      1491 1.87837E-03 6.38885E-04-1.34616E-15
 -1      1492 1.85591E-03 6.08036E-04-1.38409E-15
 -1      1493 2.28520E-03 6.66668E-04-2.18204E-15
 -1      1494 2.14918E-03 6.59150E-04-1.88188E-15
 -1      1495 2.12936E-03 6.28537E-04-1.92064E-15
 -1      1496 2.55858E-03 6.77687E-04-2.85052E-15
 -1      1497 2.42166E-03 6.72789E-04-2.50512E-15
 -1      1498 2.40385E-03 6.42275E-04-2.54511E-15
 -1      1499 2.83380E-03 6.84541E-04-3.60667E-15
 -1      1500 2.69596E-03 6.81559E-04-3.21760E-15
 -1      1501 2.67968E-03 6.51059E-04-3.25643E-15
 -1      1502 3.11077E-03 6.88369E-04-4.45165E-15
 -1      1503 2.97207E-03 6.86777E-04-4.01860E-15
 -1      1504 2.95694E-03 6.56244E-04-4.05665E-15
 -1      1505 3.38932E-03 6.90009E-04-5.37977E-15
 -1      1506 3.24985E-03 6.89421E-04-4.90469E-15
 -1      1507 3.23558E-03 6.58831E-04-4.94220E-15
 -1      1508 3.66926E-03 6.90060E-04-6.39388E-15
 -1      1509 3.52913E-03 6.90204E-04-5.87605E-15
 -1      1510 3.51549E-03 6.59545E-04-5.91274E-15
 -1      1511 3.95043E-03 6.88936E-04-7.49032E-15
 -1      1512 3.80971E-03 6.89626E-04-6.93191E-15
 -1      1513 3.79656E-03 6.58896E-04-6.96707E-15
 -1      1514 4.23266E-03 6.86902E-04-8.66874E-15
 -1      1515 4.09142E-03 6.88020E-04-8.06932E-15
 -1      1516 4.07864E-03 6.57224E-04-8.10242E-15
 -1      1517 4.51586E-03 6.84110E-04-9.92775E-15
 -1      1518 4.37415E-03 6.85593E-04-9.28843E-15
 -1      1519 4.36165E-03 6.54733E-04-9.31960E-15
 -1      1520 4.79996E-03 6.80630E-04-1.12652E-14
 -1      1521 4.65780E-03 6.82452E-04-1.05868E-14
 -1      1522 4.64553E-03 6.51529E-04-1.06151E-14
 -1      1523 5.08500E-03 6.76472E-04-1.26781E-14
 -1      1524 4.94236E-03 6.78633E-04-1.19624E-14
 -1      1525 4.93028E-03 6.47646E-04-1.19878E-14
 -1      1526 5.37107E-03 6.71617E-04-1.41671E-14
 -1      1527 5.22790E-03 6.74129E-04-1.34132E-14
 -1      1528 5.21595E-03 6.43067E-04-1.34360E-14
 -1      1529 5.65838E-03 6.66042E-04-1.57292E-14
 -1      1530 5.51456E-03 6.68913E-04-1.49385E-14
 -1      1531 5.50269E-03 6.37760E-04-1.49586E-14
 -1      1532 5.94722E-03 6.59752E-04-1.73652E-14
 -1      1533 5.80259E-03 6.62974E-04-1.65378E-14
 -1      1534 5.79072E-03 6.31697E-04-1.65550E-14
 -1      1535 6.23802E-03 6.52827E-04-1.90782E-14
 -1      1536 6.09235E-03 6.56348E-04-1.82125E-14
 -1      1537 6.08037E-03 6.24902E-04-1.82268E-14
 -1      1538 6.53131E-03 6.45469E-04-2.08571E-14
 -1      1539 6.38431E-03 6.49167E-04-1.99595E-14
 -1      1540 6.37206E-03 6.17488E-04-1.99707E-14
 -1      1541 6.82777E-03 6.38076E-04-2.26978E-14
 -1      1542 6.67910E-03 6.41723E-04-2.17709E-14
 -1      1543 6.66632E-03 6.09724E-04-2.17777E-14
 -1      1544 7.12818E-03 6.31326E-04-2.45944E-14
 -1      1545 6.97743E-03 6.34543E-04-2.36392E-14
 -1      1546 6.96379E-03 6.02113E-04-2.36420E-14
 -1      1547 7.43339E-03 6.26286E-04-2.65428E-14
 -1      1548 7.28013E-03 6.28486E-04-2.55612E-14
 -1      1549 7.26517E-03 5.95487E-04-2.55635E-14
 -1      1550 7.74420E-03 6.24530E-04-2.85387E-14
 -1      1551 7.58804E-03 6.24858E-04-2.75351E-14
 -1      1552 7.57119E-03 5.91128E-04-2.75363E-14
 -1      1553 8.06127E-03 6.28245E-04-3.05931E-14
 -1      1554 7.90192E-03 6.25533E-04-2.95592E-14
 -1      1555 7.88249E-03 5.90894E-04-2.95615E-14
 -1      1556 8.38483E-03 6.40286E-04-3.26938E-14
 -1      1557 8.22223E-03 6.33034E-04-3.16379E-14
 -1      1558 8.19950E-03 5.97311E-04-3.16369E-14
 -1      1559 8.71438E-03 6.64063E-04-3.48405E-14
 -1      1560 8.54891E-03 6.50525E-04-3.37618E-14
 -1      1561 8.52216E-03 6.13580E-04-3.37614E-14
 -1      1562 9.04828E-03 7.03124E-04-3.70452E-14
 -1      1563 8.88092E-03 6.81563E-04-3.59349E-14
 -1      1564 8.84973E-03 6.43359E-04-3.59364E-14
 -1      1565 9.38343E-03 7.60213E-04-3.93035E-14
 -1      1566 9.21594E-03 7.29445E-04-3.81683E-14
 -1      1567 9.18042E-03 6.90132E-04-3.81671E-14
 -1      1568 9.71519E-03 8.35658E-04-4.16053E-14
 -1      1569 9.55008E-03 7.95930E-04-4.04489E-14
 -1      1570 9.51120E-03 7.55956E-04-4.04466E-14
 -1      1571 1.00379E-02 9.25270E-04-4.39576E-14
 -1      1572 9.87806E-03 8.79332E-04-4.27751E-14
 -1      1573 9.83793E-03 8.39519E-04-4.27731E-14
 -1      1574 1.03462E-02 1.01859E-03-4.63594E-14
 -1      1575 1.01941E-02 9.72451E-04-4.51514E-14
 -1      1576 1.01560E-02 9.33951E-04-4.51496E-14
 -1      1577 1.06373E-02 1.09913E-03-4.88144E-14
 -1      1578 1.04940E-02 1.06160E-03-4.75815E-14
 -1      1579 1.04615E-02 1.02563E-03-4.75795E-14
 -1      1580 1.09131E-02 1.14805E-03-5.13362E-14
 -1      1581 1.07768E-02 1.12847E-03-5.00669E-14
 -1      1582 1.07537E-02 1.09582E-03-5.00647E-14
 -1      1583 1.11804E-02 1.15099E-03-5.39082E-14
 -1      1584 1.10472E-02 1.15558E-03-5.26151E-14
 -1      1585 1.10355E-02 1.12613E-03-5.26080E-14
 -1      1586 1.14490E-02 1.10444E-03-5.65440E-14
 -1      1587 1.13139E-02 1.13344E-03-5.52189E-14
 -1      1588 1.13139E-02 1.10614E-03-5.52051E-14
 -1      1589 1.17276E-02 1.01728E-03-5.92334E-14
 -1      1590 1.15866E-02 1.06490E-03-5.78823E-14
 -1      1591 1.15967E-02 1.03825E-03-5.78628E-14
 -1      1592 1.20207E-02 9.06476E-04-6.19735E-14
 -1      1593 1.18722E-02 9.63674E-04-6.05974E-14
 -1      1594 1.18894E-02 9.36395E-04-6.05717E-14
 -1      1595 1.23274E-02 7.89831E-04-6.47546E-14
 -1      1596 1.21725E-02 8.47989E-04-6.33585E-14
 -1      1597 1.21933E-02 8.19440E-04-6.33280E-14
 -1      1598 1.26431E-02 6.80341E-04-6.75862E-14
 -1      1599 1.24845E-02 7.33736E-04-6.61645E-14
 -1      1600 1.25060E-02 7.03926E-04-6.61302E-14
 -1      1601 1.29620E-02 5.84140E-04-7.04680E-14
 -1      1602 1.28026E-02 6.30523E-04-6.90214E-14
 -1      1603 1.28228E-02 5.99876E-04-6.89823E-14
 -1      1604 1.32784E-02 5.01389E-04-7.33887E-14
 -1      1605 1.31208E-02 5.41293E-04-7.19241E-14
 -1      1606 1.31392E-02 5.10387E-04-7.18781E-14
 -1      1607 1.35888E-02 4.28347E-04-7.63445E-14
 -1      1608 1.34346E-02 4.63994E-04-7.48638E-14
 -1      1609 1.34513E-02 4.33384E-04-7.48100E-14
 -1      1610 1.38912E-02 3.59372E-04-7.93336E-14
 -1      1611 1.37410E-02 3.93713E-04-7.78348E-14
 -1      1612 1.37570E-02 3.63831E-04-7.77766E-14
 -1      1613 1.41858E-02 2.88536E-04-8.23429E-14
 -1      1614 1.40394E-02 3.24485E-04-8.08352E-14
 -1      1615 1.40556E-02 2.95593E-04-8.07710E-14
 -1      1616 1.44746E-02 2.11363E-04-8.53607E-14
 -1      1617 1.43307E-02 2.50852E-04-8.38514E-14
 -1      1618 1.43477E-02 2.22987E-04-8.37800E-14
 -1      1619 1.46343E-02 1.57534E-04-8.69574E-14
 -1      1620 1.47546E-02 5.09050E-05-8.73130E-14
 -1      1621 1.47100E-02 9.14852E-05-8.72209E-14
 -1      1622 1.48494E-02-2.59819E-05-8.74720E-14
 -1      1623 1.48012E-02 1.16287E-05-8.73985E-14
 -1      1624 1.46545E-02 6.75067E-05-8.60419E-14
 -1      1625 1.49486E-02-9.49665E-05-8.76031E-14
 -1      1626 1.48987E-02-6.16062E-05-8.75403E-14
 -1      1627 1.47517E-02-7.65175E-06-8.61995E-14
 -1      1628 1.50475E-02-1.54080E-04-8.77362E-14
 -1      1629 1.49985E-02-1.25842E-04-8.76673E-14
 -1      1630 1.48526E-02-7.55046E-05-8.63418E-14
 -1      1631 1.51382E-02-2.01681E-04-8.78774E-14
 -1      1632 1.50940E-02-1.79190E-04-8.78046E-14
 -1      1633 1.49510E-02-1.34285E-04-8.64817E-14
 -1      1634 1.52173E-02-2.39843E-04-8.80226E-14
 -1      1635 1.51798E-02-2.21973E-04-8.79532E-14
 -1      1636 1.50413E-02-1.84136E-04-8.66289E-14
 -1      1637 1.52767E-02-2.69609E-04-8.81699E-14
 -1      1638 1.52498E-02-2.55600E-04-8.80922E-14
 -1      1639 1.51173E-02-2.26015E-04-8.67767E-14
 -1      1640 1.53115E-02-2.94365E-04-8.83315E-14
 -1      1641 1.52973E-02-2.82363E-04-8.82504E-14
 -1      1642 1.51717E-02-2.61397E-04-8.69314E-14
 -1      1643 1.53194E-02-3.18482E-04-8.84918E-14
 -1      1644 1.53188E-02-3.06218E-04-8.84126E-14
 -1      1645 1.52001E-02-2.93377E-04-8.70972E-14
 -1      1646 1.53015E-02-3.46580E-04-8.86698E-14
 -1      1647 1.53135E-02-3.31764E-04-8.85766E-14
 -1      1648 1.52010E-02-3.25759E-04-8.72647E-14
 -1      1649 1.52628E-02-3.81994E-04-8.88679E-14
 -1      1650 1.52844E-02-3.63124E-04-8.87671E-14
 -1      1651 1.51765E-02-3.62039E-04-8.74413E-14
 -1      1652 1.52084E-02-4.28664E-04-8.90741E-14
 -1      1653 1.52371E-02-4.03881E-04-8.89748E-14
 -1      1654 1.51318E-02-4.05558E-04-8.76325E-14
 -1      1655 1.51469E-02-4.87131E-04-8.92512E-14
 -1      1656 1.51781E-02-4.56424E-04-8.91680E-14
 -1      1657 1.50733E-02-4.58731E-04-8.78177E-14
 -1      1658 1.50860E-02-5.56637E-04-8.94039E-14
 -1      1659 1.51159E-02-5.20625E-04-8.93308E-14
 -1      1660 1.50096E-02-5.21776E-04-8.79821E-14
 -1      1661 1.49957E-02-6.33170E-04-8.90898E-14
 -1      1662 1.50219E-02-5.93574E-04-8.90177E-14
 -1      1663 1.49129E-02-5.91871E-04-8.76730E-14
 -1      1664 1.47849E-02-6.64927E-04-8.69008E-14
 -1      1665 1.34794E-02-9.03372E-05-6.16776E-14
 -1      1666 1.35163E-02-1.39567E-04-6.17929E-14
 -1      1667 1.33063E-02 2.87168E-05-6.12212E-14
 -1      1668 1.34012E-02-2.87700E-05-6.14655E-14
 -1      1669 1.30118E-02 1.69754E-04-6.05429E-14
 -1      1670 1.31592E-02 9.64297E-05-6.09208E-14
 -1      1671 1.26592E-02 3.54412E-04-5.95153E-14
 -1      1672 1.28307E-02 2.71492E-04-5.99834E-14
 -1      1673 1.22701E-02 5.34314E-04-5.83825E-14
 -1      1674 1.24519E-02 4.51643E-04-5.89221E-14
 -1      1675 1.18360E-02 6.99405E-04-5.70698E-14
 -1      1676 1.20307E-02 6.24732E-04-5.77187E-14
 -1      1677 1.14517E-02 7.96052E-04-5.56641E-14
 -1      1678 1.16282E-02 7.61426E-04-5.62880E-14
 -1      1679 1.10573E-02 8.14706E-04-5.42462E-14
 -1      1680 1.12383E-02 8.18956E-04-5.49039E-14
 -1      1681 1.06519E-02 7.38671E-04-5.28904E-14
 -1      1682 1.08378E-02 7.82494E-04-5.35073E-14
 -1      1683 1.02517E-02 6.00514E-04-5.16732E-14
 -1      1684 1.04359E-02 6.70806E-04-5.22130E-14
 -1      1685 9.84251E-03 4.23188E-04-5.05939E-14
 -1      1686 1.00322E-02 5.08904E-04-5.10749E-14
 -1      1687 9.47862E-03 2.50618E-04-4.97546E-14
 -1      1688 9.63801E-03 3.27236E-04-5.01059E-14
 -1      1689 9.18735E-03 9.30623E-05-4.91089E-14
 -1      1690 9.31416E-03 1.58213E-04-4.93473E-14
 -1      1691 9.00758E-03-1.92219E-05-4.88937E-14
 -1      1692 9.07245E-03 3.19659E-05-4.89805E-14
 -1      1693 8.96920E-03-1.20788E-04-4.89085E-14
 -1      1694 8.96967E-03-7.48205E-05-4.88669E-14
 -1      1695 9.07347E-03-2.32674E-04-4.92085E-14
 -1      1696 9.00678E-03-1.78469E-04-4.90352E-14
 -1      1697 9.31683E-03-3.63399E-04-4.97370E-14
 -1      1698 9.19027E-03-2.96018E-04-4.94311E-14
 -1      1699 9.63001E-03-5.28226E-04-5.05519E-14
 -1      1700 9.48025E-03-4.52592E-04-5.01729E-14
 -1      1701 9.99926E-03-7.18036E-04-5.15815E-14
 -1      1702 9.81869E-03-6.29532E-04-5.10895E-14
 -1      1703 1.04156E-02-9.03409E-04-5.27809E-14
 -1      1704 1.02240E-02-8.18270E-04-5.21970E-14
 -1      1705 1.08127E-02-1.04474E-03-5.41022E-14
 -1      1706 1.06303E-02-9.87766E-04-5.34939E-14
 -1      1707 1.12127E-02-1.11213E-03-5.54910E-14
 -1      1708 1.10296E-02-1.09239E-03-5.48408E-14
 -1      1709 1.16145E-02-1.08499E-03-5.69225E-14
 -1      1710 1.14297E-02-1.11082E-03-5.62694E-14
 -1      1711 1.20345E-02-9.65623E-04-5.82788E-14
 -1      1712 1.18415E-02-1.02984E-03-5.76658E-14
 -1      1713 1.24371E-02-8.03614E-04-5.94191E-14
 -1      1714 1.22580E-02-8.81340E-04-5.89185E-14
 -1      1715 1.28151E-02-6.27544E-04-6.03773E-14
 -1      1716 1.26431E-02-7.09562E-04-5.99600E-14
 -1      1717 1.31530E-02-4.60625E-04-6.11356E-14
 -1      1718 1.30041E-02-5.35554E-04-6.08139E-14
 -1      1719 1.34065E-02-3.09638E-04-6.17204E-14
 -1      1720 1.33013E-02-3.71520E-04-6.15186E-14
 -1      1721 1.35209E-02-1.97443E-04-6.18741E-14
 -1      1722 1.34882E-02-2.47549E-04-6.18294E-14
 -1      1723 1.24937E-02 3.61225E-04-5.95340E-14
 -1      1724 1.28778E-02 1.62160E-04-6.06924E-14
 -1      1725 1.46522E-02 1.30319E-04-8.68857E-14
 -1      1726 1.45497E-02 1.45359E-04-8.56219E-14
 -1      1727 1.34424E-02-9.30254E-05-6.20720E-14
 -1      1728 1.32112E-02 9.42478E-06-6.15572E-14
 -1      1729 1.35293E-02-1.71981E-04-6.23672E-14
 -1      1730 1.20767E-02 5.64563E-04-5.82698E-14
 -1      1731 1.16908E-02 7.39688E-04-5.68139E-14
 -1      1732 1.13244E-02 8.33387E-04-5.52685E-14
 -1      1733 1.09717E-02 8.21882E-04-5.37680E-14
 -1      1734 1.05940E-02 7.09415E-04-5.23531E-14
 -1      1735 1.01995E-02 5.31857E-04-5.10807E-14
 -1      1736 9.79519E-03 3.32091E-04-5.00002E-14
 -1      1737 9.42621E-03 1.49644E-04-4.91105E-14
 -1      1738 9.13887E-03 2.18119E-05-4.85794E-14
 -1      1739 8.98088E-03-6.18622E-05-4.84253E-14
 -1      1740 8.98026E-03-1.33277E-04-4.85234E-14
 -1      1741 9.13988E-03-2.20219E-04-4.88689E-14
 -1      1742 9.42820E-03-3.47343E-04-4.95225E-14
 -1      1743 9.78207E-03-5.29114E-04-5.04917E-14
 -1      1744 1.01798E-02-7.39244E-04-5.16420E-14
 -1      1745 1.05785E-02-9.42954E-04-5.29686E-14
 -1      1746 1.09567E-02-1.08906E-03-5.44200E-14
 -1      1747 1.13194E-02-1.13908E-03-5.59367E-14
 -1      1748 1.16874E-02-1.07264E-03-5.74640E-14
 -1      1749 1.20814E-02-9.14723E-04-5.88545E-14
 -1      1750 1.24803E-02-7.20462E-04-6.00432E-14
 -1      1751 1.28658E-02-5.29350E-04-6.10283E-14
 -1      1752 1.32087E-02-3.62415E-04-6.18518E-14
 -1      1753 1.34493E-02-2.48656E-04-6.23435E-14
 -1      1754 2.85231E-04-1.76248E-04-4.04001E-17
 -1      1755 3.32189E-04-1.16806E-04-1.23843E-16
 -1      1756 3.36323E-04-1.33051E-04-1.16714E-16
 -1      1757 3.42199E-04-1.52038E-04-1.07987E-16
 -1      1758 3.51749E-04-1.74038E-04-9.55589E-17
 -1      1759 4.58321E-04-1.88116E-04-1.69773E-16
 -1      1760 3.24575E-04-6.54043E-05-1.36935E-16
 -1      1761 3.25706E-04-7.67052E-05-1.35146E-16
 -1      1762 3.23089E-04-4.39060E-05-1.38615E-16
 -1      1763 3.23739E-04-5.43992E-05-1.38127E-16
 -1      1764 4.36528E-04-7.93110E-05-2.02881E-16
 -1      1765 3.22311E-04-2.37805E-05-1.38371E-16
 -1      1766 3.22640E-04-3.36978E-05-1.38724E-16
 -1      1767 4.34538E-04-5.13340E-05-2.04426E-16
 -1      1768 3.22019E-04-4.33802E-06-1.36935E-16
 -1      1769 3.22115E-04-1.39944E-05-1.37856E-16
 -1      1770 4.33525E-04-2.49320E-05-2.03708E-16
 -1      1771 3.22140E-04 1.49881E-05-1.34278E-16
 -1      1772 3.22027E-04 5.32158E-06-1.35756E-16
 -1      1773 4.33229E-04 7.58659E-07-2.01106E-16
 -1      1774 3.22701E-04 3.47448E-05-1.30280E-16
 -1      1775 3.22353E-04 2.47951E-05-1.32530E-16
 -1      1776 4.33582E-04 2.64785E-05-1.96728E-16
 -1      1777 3.23822E-04 5.51883E-05-1.24236E-16
 -1      1778 3.23163E-04 4.48228E-05-1.27678E-16
 -1      1779 4.34651E-04 5.27428E-05-1.90210E-16
 -1      1780 3.25869E-04 7.78434E-05-1.15888E-16
 -1      1781 3.24677E-04 6.62609E-05-1.20563E-16
 -1      1782 4.36694E-04 8.06294E-05-1.81306E-16
 -1      1783 3.29547E-04 1.03683E-04-1.03650E-16
 -1      1784 3.27404E-04 9.03322E-05-1.10480E-16
 -1      1785 4.40327E-04 1.11603E-04-1.68526E-16
 -1      1786 3.36570E-04 1.35139E-04-8.55978E-17
 -1      1787 3.32393E-04 1.18642E-04-9.57215E-17
 -1      1788 4.46781E-04 1.47373E-04-1.50026E-16
 -1      1789 3.52287E-04 1.77629E-04-5.90348E-17
 -1      1790 3.42796E-04 1.54786E-04-7.38613E-17
 -1      1791 4.59301E-04 1.91492E-04-1.23369E-16
 -1      1792 4.07683E-04 2.33709E-04-3.98309E-17
 -1      1793 3.78074E-04 2.02687E-04-5.22585E-17
 -1      1794 4.95834E-04 2.44028E-04-9.92181E-17
 -1      1795 5.58523E-04 3.02536E-04-7.92552E-17
 -1      1796 3.40008E-04-1.90931E-04-7.00666E-17
 -1      1797 8.53526E-04 4.07163E-04-2.22438E-16
 -1      1798 7.07132E-04 3.59416E-04-1.40404E-16
 -1      1799 6.73370E-04 3.28849E-04-1.53089E-16
 -1      1800 4.58935E-04-2.36749E-04-1.24507E-16
 -1      1801 8.07189E-04-3.74159E-04-3.32105E-16
 -1      1802 9.52445E-04-4.15345E-04-4.63483E-16
 -1      1803 1.09527E-03-4.50032E-04-6.18768E-16
 -1      1804 1.23694E-03-4.78931E-04-7.98230E-16
 -1      1805 1.00387E-03-3.97960E-04-5.66780E-16
 -1      1806 1.37733E-03-5.03416E-04-1.00138E-15
 -1      1807 1.51700E-03-5.23782E-04-1.22869E-15
 -1      1808 1.28955E-03-4.55933E-04-9.29812E-16
 -1      1809 1.65615E-03-5.40951E-04-1.47971E-15
 -1      1810 1.79497E-03-5.55157E-04-1.75425E-15
 -1      1811 1.57193E-03-4.96868E-04-1.38669E-15
 -1      1812 1.93367E-03-5.67010E-04-2.05235E-15
 -1      1813 2.07230E-03-5.76712E-04-2.37400E-15
 -1      1814 1.85252E-03-5.25376E-04-1.93746E-15
 -1      1815 2.21103E-03-5.84680E-04-2.71884E-15
 -1      1816 2.34984E-03-5.91084E-04-3.08671E-15
 -1      1817 2.13239E-03-5.44790E-04-2.58092E-15
 -1      1818 2.48886E-03-5.96217E-04-3.47719E-15
 -1      1819 2.62805E-03-6.00217E-04-3.89029E-15
 -1      1820 2.41222E-03-5.57556E-04-3.31569E-15
 -1      1821 2.76748E-03-6.03294E-04-4.32589E-15
 -1      1822 2.90713E-03-6.05556E-04-4.78221E-15
 -1      1823 2.69241E-03-5.65486E-04-4.14020E-15
 -1      1824 3.04704E-03-6.07153E-04-5.26021E-15
 -1      1825 3.18716E-03-6.08169E-04-5.75864E-15
 -1      1826 2.97317E-03-5.69930E-04-5.05166E-15
 -1      1827 3.32754E-03-6.08706E-04-6.27767E-15
 -1      1828 3.46813E-03-6.08828E-04-6.81765E-15
 -1      1829 3.25461E-03-5.71878E-04-6.04643E-15
 -1      1830 3.60896E-03-6.08601E-04-7.37720E-15
 -1      1831 3.74999E-03-6.08073E-04-7.95649E-15
 -1      1832 3.53673E-03-5.72041E-04-7.12277E-15
 -1      1833 3.89123E-03-6.07283E-04-8.55492E-15
 -1      1834 4.03267E-03-6.06264E-04-9.17258E-15
 -1      1835 3.81953E-03-5.70910E-04-8.27853E-15
 -1      1836 4.17430E-03-6.05036E-04-9.80914E-15
 -1      1837 4.31611E-03-6.03619E-04-1.04628E-14
 -1      1838 4.10297E-03-5.68804E-04-9.51064E-15
 -1      1839 4.45812E-03-6.02018E-04-1.11336E-14
 -1      1840 4.60030E-03-6.00246E-04-1.18218E-14
 -1      1841 4.38703E-03-5.65905E-04-1.08151E-14
 -1      1842 4.74267E-03-5.98293E-04-1.25280E-14
 -1      1843 4.88524E-03-5.96169E-04-1.32500E-14
 -1      1844 4.67172E-03-5.62295E-04-1.21889E-14
 -1      1845 5.02800E-03-5.93855E-04-1.39890E-14
 -1      1846 5.17098E-03-5.91358E-04-1.47462E-14
 -1      1847 4.95705E-03-5.57977E-04-1.36313E-14
 -1      1848 5.31419E-03-5.88653E-04-1.55204E-14
 -1      1849 5.45766E-03-5.85747E-04-1.63115E-14
 -1      1850 5.24309E-03-5.52904E-04-1.51422E-14
 -1      1851 5.60140E-03-5.82614E-04-1.71196E-14
 -1      1852 5.74546E-03-5.79265E-04-1.79454E-14
 -1      1853 5.52998E-03-5.46999E-04-1.67220E-14
 -1      1854 5.88986E-03-5.75676E-04-1.87895E-14
 -1      1855 6.03467E-03-5.71866E-04-1.96506E-14
 -1      1856 5.81787E-03-5.40186E-04-1.83713E-14
 -1      1857 6.17990E-03-5.67821E-04-2.05298E-14
 -1      1858 6.32565E-03-5.63573E-04-2.14254E-14
 -1      1859 6.10702E-03-5.32421E-04-2.00927E-14
 -1      1860 6.47194E-03-5.59125E-04-2.23383E-14
 -1      1861 6.61889E-03-5.54532E-04-2.32696E-14
 -1      1862 6.39775E-03-5.23739E-04-2.18822E-14
 -1      1863 6.76652E-03-5.49827E-04-2.42173E-14
 -1      1864 6.91498E-03-5.45096E-04-2.51808E-14
 -1      1865 6.69047E-03-5.14316E-04-2.37409E-14
 -1      1866 7.06429E-03-5.40421E-04-2.61600E-14
 -1      1867 7.21463E-03-5.35933E-04-2.71567E-14
 -1      1868 6.98566E-03-5.04552E-04-2.56656E-14
 -1      1869 7.36601E-03-5.31789E-04-2.81685E-14
 -1      1870 7.51864E-03-5.28181E-04-2.91961E-14
 -1      1871 7.28392E-03-4.95190E-04-2.76548E-14
 -1      1872 7.67252E-03-5.25374E-04-3.02403E-14
 -1      1873 7.82789E-03-5.23643E-04-3.12971E-14
 -1      1874 7.58591E-03-4.87476E-04-2.97082E-14
 -1      1875 7.98473E-03-5.23403E-04-3.23696E-14
 -1      1876 8.14325E-03-5.25035E-04-3.34578E-14
 -1      1877 7.89239E-03-4.83365E-04-3.18213E-14
 -1      1878 8.30347E-03-5.29141E-04-3.45594E-14
 -1      1879 8.46550E-03-5.36235E-04-3.56737E-14
 -1      1880 8.20420E-03-4.85769E-04-3.39924E-14
 -1      1881 8.62943E-03-5.47115E-04-3.68001E-14
 -1      1882 8.79514E-03-5.62436E-04-3.79378E-14
 -1      1883 8.52226E-03-4.98800E-04-3.62174E-14
 -1      1884 8.96290E-03-5.83131E-04-3.90883E-14
 -1      1885 9.13218E-03-6.09953E-04-4.02502E-14
 -1      1886 8.84748E-03-5.27900E-04-3.84899E-14
 -1      1887 9.30347E-03-6.43765E-04-4.14241E-14
 -1      1888 9.47569E-03-6.85236E-04-4.26081E-14
 -1      1889 9.18066E-03-5.79616E-04-4.08093E-14
 -1      1890 9.64954E-03-7.34742E-04-4.38023E-14
 -1      1891 9.82327E-03-7.92440E-04-4.50093E-14
 -1      1892 9.52205E-03-6.60515E-04-4.31742E-14
 -1      1893 9.99767E-03-8.57623E-04-4.62262E-14
 -1      1894 1.01705E-02-9.29144E-04-4.74517E-14
 -1      1895 9.87034E-03-7.74573E-04-4.55819E-14
 -1      1896 1.03422E-02-1.00464E-03-4.86880E-14
 -1      1897 1.05109E-02-1.08099E-03-4.99329E-14
 -1      1898 1.02213E-02-9.18315E-04-4.80287E-14
 -1      1899 1.06764E-02-1.15413E-03-5.11855E-14
 -1      1900 1.08385E-02-1.21927E-03-5.24483E-14
 -1      1901 1.05676E-02-1.07461E-03-5.05141E-14
 -1      1902 1.09963E-02-1.27196E-03-5.37212E-14
 -1      1903 1.11524E-02-1.30784E-03-5.50036E-14
 -1      1904 1.09015E-02-1.21020E-03-5.30359E-14
 -1      1905 1.13053E-02-1.32437E-03-5.62948E-14
 -1      1906 1.14597E-02-1.32056E-03-5.75948E-14
 -1      1907 1.12223E-02-1.28539E-03-5.55971E-14
 -1      1908 1.16140E-02-1.29741E-03-5.89064E-14
 -1      1909 1.17719E-02-1.25798E-03-6.02270E-14
 -1      1910 1.15396E-02-1.27647E-03-5.81996E-14
 -1      1911 1.19323E-02-1.20613E-03-6.15607E-14
 -1      1912 1.20961E-02-1.14676E-03-6.29051E-14
 -1      1913 1.18652E-02-1.19283E-03-6.08430E-14
 -1      1914 1.22628E-02-1.08425E-03-6.42601E-14
 -1      1915 1.24311E-02-1.02253E-03-6.56273E-14
 -1      1916 1.22031E-02-1.06956E-03-6.35328E-14
 -1      1917 1.26011E-02-9.64698E-04-6.70019E-14
 -1      1918 1.27706E-02-9.12580E-04-6.83847E-14
 -1      1919 1.25480E-02-9.44353E-04-6.62651E-14
 -1      1920 1.29403E-02-8.67441E-04-6.97785E-14
 -1      1921 1.31081E-02-8.29458E-04-7.11804E-14
 -1      1922 1.28915E-02-8.40940E-04-6.90329E-14
 -1      1923 1.32749E-02-7.98450E-04-7.25922E-14
 -1      1924 1.34391E-02-7.73732E-04-7.40100E-14
 -1      1925 1.32278E-02-7.67071E-04-7.18372E-14
 -1      1926 1.36015E-02-7.54306E-04-7.54357E-14
 -1      1927 1.37613E-02-7.39190E-04-7.68729E-14
 -1      1928 1.35544E-02-7.19948E-04-7.46723E-14
 -1      1929 1.39188E-02-7.27079E-04-7.83201E-14
 -1      1930 1.40738E-02-7.16960E-04-7.97792E-14
 -1      1931 1.38710E-02-6.91782E-04-7.75437E-14
 -1      1932 1.42265E-02-7.07551E-04-8.12469E-14
 -1      1933 1.43771E-02-6.97885E-04-8.27228E-14
 -1      1934 1.41782E-02-6.73316E-04-8.04558E-14
 -1      1935 1.45091E-02-6.89851E-04-8.40559E-14
 -1      1936 1.46559E-02-6.76979E-04-8.55516E-14
 -1      1937 1.47202E-02-6.40271E-04-8.59358E-14
 -1      1938 1.44605E-02-6.58300E-04-8.32553E-14
 -1      1939 1.13855E-03 4.80133E-04-4.50635E-16
 -1      1940 9.96797E-04 4.46880E-04-3.25613E-16
 -1      1941 9.64420E-04 4.17427E-04-3.40548E-16
 -1      1942 1.41764E-03 5.31609E-04-7.65935E-16
 -1      1943 1.27850E-03 5.08165E-04-5.97192E-16
 -1      1944 1.24887E-03 4.80031E-04-6.13320E-16
 -1      1945 1.69398E-03 5.67882E-04-1.16886E-15
 -1      1946 1.55597E-03 5.51402E-04-9.56388E-16
 -1      1947 1.52911E-03 5.24234E-04-9.72990E-16
 -1      1948 1.96950E-03 5.93125E-04-1.66033E-15
 -1      1949 1.83175E-03 5.81713E-04-1.40358E-15
 -1      1950 1.80732E-03 5.55185E-04-1.42021E-15
 -1      1951 2.24528E-03 6.10283E-04-2.24012E-15
 -1      1952 2.10731E-03 6.02590E-04-1.93943E-15
 -1      1953 2.08489E-03 5.76470E-04-1.95537E-15
 -1      1954 2.52187E-03 6.21519E-04-2.90683E-15
 -1      1955 2.38345E-03 6.16548E-04-2.56299E-15
 -1      1956 2.36266E-03 5.90679E-04-2.57761E-15
 -1      1957 2.79954E-03 6.28446E-04-3.66055E-15
 -1      1958 2.66057E-03 6.25452E-04-3.27250E-15
 -1      1959 2.64106E-03 5.99729E-04-3.28627E-15
 -1      1960 3.07836E-03 6.32259E-04-4.50155E-15
 -1      1961 2.93881E-03 6.30691E-04-4.07005E-15
 -1      1962 2.92032E-03 6.05044E-04-4.08155E-15
 -1      1963 3.35831E-03 6.33835E-04-5.42743E-15
 -1      1964 3.21820E-03 6.33290E-04-4.95392E-15
 -1      1965 3.20050E-03 6.07675E-04-4.96289E-15
 -1      1966 3.63931E-03 6.33800E-04-6.43776E-15
 -1      1967 3.49869E-03 6.33994E-04-5.92197E-15
 -1      1968 3.48160E-03 6.08385E-04-5.92884E-15
 -1      1969 3.92128E-03 6.32582E-04-7.53010E-15
 -1      1970 3.78018E-03 6.33322E-04-6.97390E-15
 -1      1971 3.76356E-03 6.07704E-04-6.97778E-15
 -1      1972 4.20412E-03 6.30453E-04-8.70332E-15
 -1      1973 4.06260E-03 6.31621E-04-8.10620E-15
 -1      1974 4.04633E-03 6.05987E-04-8.10806E-15
 -1      1975 4.48778E-03 6.27570E-04-9.95670E-15
 -1      1976 4.34585E-03 6.29101E-04-9.32067E-15
 -1      1977 4.32985E-03 6.03449E-04-9.31888E-15
 -1      1978 4.77224E-03 6.23996E-04-1.12876E-14
 -1      1979 4.62992E-03 6.25867E-04-1.06124E-14
 -1      1980 4.61411E-03 6.00196E-04-1.06078E-14
 -1      1981 5.05754E-03 6.19736E-04-1.26940E-14
 -1      1982 4.91479E-03 6.21951E-04-1.19814E-14
 -1      1983 4.89910E-03 5.96261E-04-1.19732E-14
 -1      1984 5.34376E-03 6.14756E-04-1.41760E-14
 -1      1985 5.20052E-03 6.17335E-04-1.34254E-14
 -1      1986 5.18489E-03 5.91621E-04-1.34134E-14
 -1      1987 5.63106E-03 6.09014E-04-1.57322E-14
 -1      1988 5.48726E-03 6.11977E-04-1.49451E-14
 -1      1989 5.47159E-03 5.86230E-04-1.49291E-14
 -1      1990 5.91970E-03 6.02493E-04-1.73631E-14
 -1      1991 5.77520E-03 6.05844E-04-1.65387E-14
 -1      1992 5.75938E-03 5.80046E-04-1.65201E-14
 -1      1993 6.21001E-03 5.95240E-04-1.90681E-14
 -1      1994 6.06462E-03 5.98944E-04-1.82058E-14
 -1      1995 6.04852E-03 5.73066E-04-1.81845E-14
 -1      1996 6.50241E-03 5.87419E-04-2.08391E-14
 -1      1997 6.35591E-03 5.91376E-04-1.99459E-14
 -1      1998 6.33934E-03 5.65375E-04-1.99189E-14
 -1      1999 6.79742E-03 5.79382E-04-2.26717E-14
 -1      2000 6.64954E-03 5.83388E-04-2.17487E-14
 -1      2001 6.63225E-03 5.57199E-04-2.17188E-14
 -1      2002 7.09563E-03 5.71753E-04-2.45623E-14
 -1      2003 6.94607E-03 5.75456E-04-2.36089E-14
 -1      2004 6.92775E-03 5.48988E-04-2.35761E-14
 -1      2005 7.39770E-03 5.65541E-04-2.65070E-14
 -1      2006 7.24613E-03 5.68384E-04-2.55271E-14
 -1      2007 7.22639E-03 5.41513E-04-2.54903E-14
 -1      2008 7.70425E-03 5.62265E-04-2.85038E-14
 -1      2009 7.55036E-03 5.63419E-04-2.74998E-14
 -1      2010 7.52876E-03 5.35981E-04-2.74601E-14
 -1      2011 8.01582E-03 5.64073E-04-3.05533E-14
 -1      2012 7.85937E-03 5.62383E-04-2.95232E-14
 -1      2013 7.83543E-03 5.34168E-04-2.94828E-14
 -1      2014 8.33268E-03 5.73820E-04-3.26525E-14
 -1      2015 8.17358E-03 5.67774E-04-3.15962E-14
 -1      2016 8.14687E-03 5.38533E-04-3.15555E-14
 -1      2017 8.65469E-03 5.95003E-04-3.48012E-14
 -1      2018 8.49308E-03 5.82789E-04-3.37207E-14
 -1      2019 8.46332E-03 5.52249E-04-3.36771E-14
 -1      2020 8.98098E-03 6.31403E-04-3.70025E-14
 -1      2021 8.81742E-03 6.11136E-04-3.58946E-14
 -1      2022 8.78464E-03 5.79056E-04-3.58513E-14
 -1      2023 9.30979E-03 6.86220E-04-3.92566E-14
 -1      2024 9.14530E-03 6.56450E-04-3.81228E-14
 -1      2025 9.11008E-03 6.22727E-04-3.80790E-14
 -1      2026 9.63825E-03 7.60504E-04-4.15582E-14
 -1      2027 9.47441E-03 7.21087E-04-4.04017E-14
 -1      2028 9.43799E-03 6.85941E-04-4.03552E-14
 -1      2029 9.96253E-03 8.50961E-04-4.39099E-14
 -1      2030 9.80133E-03 8.04220E-04-4.27278E-14
 -1      2031 9.76564E-03 7.68388E-04-4.26808E-14
 -1      2032 1.02785E-02 9.47785E-04-4.63119E-14
 -1      2033 1.01219E-02 8.99472E-04-4.51052E-14
 -1      2034 1.00893E-02 8.64316E-04-4.50570E-14
 -1      2035 1.05833E-02 1.03435E-03-4.87647E-14
 -1      2036 1.04324E-02 9.93509E-04-4.75321E-14
 -1      2037 1.04049E-02 9.60740E-04-4.74836E-14
 -1      2038 1.08770E-02 1.09046E-03-5.12773E-14
 -1      2039 1.07312E-02 1.06725E-03-5.00125E-14
 -1      2040 1.07101E-02 1.03826E-03-4.99620E-14
 -1      2041 1.11638E-02 1.09955E-03-5.38413E-14
 -1      2042 1.10206E-02 1.10130E-03-5.25534E-14
 -1      2043 1.10060E-02 1.07633E-03-5.24959E-14
 -1      2044 1.14508E-02 1.05641E-03-5.64641E-14
 -1      2045 1.13066E-02 1.08411E-03-5.51449E-14
 -1      2046 1.12983E-02 1.06199E-03-5.50844E-14
 -1      2047 1.17442E-02 9.69581E-04-5.91414E-14
 -1      2048 1.15962E-02 1.01742E-03-5.77961E-14
 -1      2049 1.15937E-02 9.96373E-04-5.77296E-14
 -1      2050 1.20472E-02 8.56997E-04-6.18712E-14
 -1      2051 1.18944E-02 9.15332E-04-6.05001E-14
 -1      2052 1.18971E-02 8.93828E-04-6.04278E-14
 -1      2053 1.23587E-02 7.37883E-04-6.46435E-14
 -1      2054 1.22021E-02 7.97366E-04-6.32520E-14
 -1      2055 1.22090E-02 7.74719E-04-6.31746E-14
 -1      2056 1.26752E-02 6.26321E-04-6.74680E-14
 -1      2057 1.25167E-02 6.80721E-04-6.60501E-14
 -1      2058 1.25264E-02 6.56976E-04-6.59680E-14
 -1      2059 1.29922E-02 5.28998E-04-7.03368E-14
 -1      2060 1.28340E-02 5.75842E-04-6.88977E-14
 -1      2061 1.28451E-02 5.51412E-04-6.88105E-14
 -1      2062 1.33063E-02 4.46202E-04-7.32432E-14
 -1      2063 1.31499E-02 4.86001E-04-7.17857E-14
 -1      2064 1.31614E-02 4.61388E-04-7.16922E-14
 -1      2065 1.36148E-02 3.74083E-04-7.61869E-14
 -1      2066 1.34614E-02 4.09146E-04-7.47099E-14
 -1      2067 1.34727E-02 3.84819E-04-7.46104E-14
 -1      2068 1.39168E-02 3.06772E-04-7.91647E-14
 -1      2069 1.37667E-02 3.40192E-04-7.76722E-14
 -1      2070 1.37778E-02 3.16556E-04-7.75650E-14
 -1      2071 1.42122E-02 2.38022E-04-8.21620E-14
 -1      2072 1.40653E-02 2.72891E-04-8.06620E-14
 -1      2073 1.40763E-02 2.50266E-04-8.05513E-14
 -1      2074 1.44539E-02 1.73785E-04-8.46436E-14
 -1      2075 1.43092E-02 2.11672E-04-8.31368E-14
 -1      2076 1.43203E-02 1.90020E-04-8.30244E-14
 -1      2077 1.45129E-02 1.35786E-04-8.49762E-14
 -1      2078 1.47567E-02-6.07495E-05-8.50881E-14
 -1      2079 1.47055E-02-2.77167E-05-8.50124E-14
 -1      2080 1.46543E-02 7.21503E-06-8.49362E-14
 -1      2081 1.46038E-02 4.37275E-05-8.48600E-14
 -1      2082 1.45571E-02 1.87315E-05-8.36799E-14
 -1      2083 1.45808E-02 6.94117E-05-8.49624E-14
 -1      2084 1.45331E-02 1.08445E-04-8.48777E-14
 -1      2085 1.44371E-02 1.35532E-04-8.39009E-14
 -1      2086 1.44816E-02 8.16097E-05-8.37014E-14
 -1      2087 1.48543E-02-1.20119E-04-8.52325E-14
 -1      2088 1.48063E-02-9.14033E-05-8.51588E-14
 -1      2089 1.46598E-02-4.95957E-05-8.38349E-14
 -1      2090 1.49438E-02-1.72655E-04-8.53847E-14
 -1      2091 1.49007E-02-1.47331E-04-8.53072E-14
 -1      2092 1.47582E-02-1.11071E-04-8.39858E-14
 -1      2093 1.50162E-02-2.17992E-04-8.55350E-14
 -1      2094 1.49825E-02-1.96063E-04-8.54615E-14
 -1      2095 1.48457E-02-1.65871E-04-8.41403E-14
 -1      2096 1.50652E-02-2.58034E-04-8.56979E-14
 -1      2097 1.50439E-02-2.38408E-04-8.56140E-14
 -1      2098 1.49142E-02-2.14180E-04-8.42987E-14
 -1      2099 1.50869E-02-2.95722E-04-8.58673E-14
 -1      2100 1.50796E-02-2.76838E-04-8.57815E-14
 -1      2101 1.49575E-02-2.57948E-04-8.44650E-14
 -1      2102 1.50805E-02-3.34552E-04-8.60368E-14
 -1      2103 1.50872E-02-3.14654E-04-8.59526E-14
 -1      2104 1.49721E-02-3.00141E-04-8.46369E-14
 -1      2105 1.50496E-02-3.77085E-04-8.62120E-14
 -1      2106 1.50678E-02-3.55009E-04-8.61239E-14
 -1      2107 1.49584E-02-3.43769E-04-8.48074E-14
 -1      2108 1.49988E-02-4.27322E-04-8.63939E-14
 -1      2109 1.50262E-02-4.01158E-04-8.63034E-14
 -1      2110 1.49203E-02-3.92181E-04-8.49769E-14
 -1      2111 1.49366E-02-4.85972E-04-8.65620E-14
 -1      2112 1.49687E-02-4.55553E-04-8.64801E-14
 -1      2113 1.48641E-02-4.47938E-04-8.51476E-14
 -1      2114 1.48712E-02-5.53244E-04-8.67153E-14
 -1      2115 1.49038E-02-5.18603E-04-8.66408E-14
 -1      2116 1.47983E-02-5.11571E-04-8.53049E-14
 -1      2117 1.31325E-02-1.35278E-05-6.20967E-14
 -1      2118 1.32767E-02-6.35088E-05-6.24007E-14
 -1      2119 1.35311E-02-1.64718E-04-6.30752E-14
 -1      2120 1.35361E-02-1.82846E-04-6.31600E-14
 -1      2121 1.33877E-02-1.01958E-04-6.26117E-14
 -1      2122 1.34720E-02-1.30864E-04-6.28251E-14
 -1      2123 1.33312E-02-1.02502E-04-6.31522E-14
 -1      2124 1.27424E-02 1.74802E-04-6.08270E-14
 -1      2125 1.29232E-02 8.48603E-05-6.13908E-14
 -1      2126 1.23493E-02 3.78958E-04-5.96375E-14
 -1      2127 1.25369E-02 2.76286E-04-6.02382E-14
 -1      2128 3.27127E-04-8.90111E-05-1.32517E-16
 -1      2129 3.29239E-04-1.02155E-04-1.28749E-16
 -1      2130 4.46318E-04-1.45143E-04-1.87865E-16
 -1      2131 4.39993E-04-1.09976E-04-1.97826E-16
 -1      2132 1.15567E-02 7.88541E-04-5.64775E-14
 -1      2133 1.17152E-02 7.15793E-04-5.72653E-14
 -1      2134 1.12511E-02 8.60874E-04-5.49509E-14
 -1      2135 1.13994E-02 8.36211E-04-5.57140E-14
 -1      2136 1.14624E-02 8.21223E-04-5.61585E-14
 -1      2137 1.08961E-02 8.16486E-04-5.31955E-14
 -1      2138 1.10499E-02 8.53455E-04-5.39339E-14
 -1      2139 1.05467E-02 6.71662E-04-5.17686E-14
 -1      2140 1.07142E-02 7.51645E-04-5.24440E-14
 -1      2141 1.01516E-02 4.63408E-04-5.04315E-14
 -1      2142 1.03388E-02 5.66272E-04-5.10249E-14
 -1      2143 9.74896E-03 2.45518E-04-4.92169E-14
 -1      2144 9.93765E-03 3.42198E-04-4.96984E-14
 -1      2145 9.39976E-03 8.70520E-05-4.84142E-14
 -1      2146 9.56850E-03 1.61543E-04-4.88158E-14
 -1      2147 9.68655E-03 1.90825E-04-4.85163E-14
 -1      2148 9.08013E-03-3.60657E-05-4.77011E-14
 -1      2149 9.19313E-03-1.42292E-06-4.78268E-14
 -1      2150 8.95991E-03-8.19764E-05-4.78885E-14
 -1      2151 8.99979E-03-6.05995E-05-4.79159E-14
 -1      2152 8.99908E-03-1.30449E-04-4.80347E-14
 -1      2153 8.95914E-03-1.08667E-04-4.79100E-14
 -1      2154 9.20005E-03-2.00294E-04-4.83761E-14
 -1      2155 9.08334E-03-1.62547E-04-4.81577E-14
 -1      2156 9.53925E-03-3.48837E-04-4.93144E-14
 -1      2157 9.37567E-03-2.75671E-04-4.88827E-14
 -1      2158 9.92204E-03-5.45250E-04-5.03890E-14
 -1      2159 9.74109E-03-4.47081E-04-4.98553E-14
 -1      2160 1.03196E-02-7.67149E-04-5.16077E-14
 -1      2161 1.01278E-02-6.56369E-04-5.09947E-14
 -1      2162 1.07138E-02-9.91101E-04-5.31594E-14
 -1      2163 1.05423E-02-8.94919E-04-5.24469E-14
 -1      2164 1.10528E-02-1.12623E-03-5.46993E-14
 -1      2165 1.08950E-02-1.07195E-03-5.39604E-14
 -1      2166 1.13866E-02-1.15503E-03-5.63656E-14
 -1      2167 1.12360E-02-1.15882E-03-5.55849E-14
 -1      2168 1.17480E-02-1.04787E-03-5.80958E-14
 -1      2169 1.15848E-02-1.11314E-03-5.73455E-14
 -1      2170 1.21285E-02-8.53647E-04-5.96036E-14
 -1      2171 1.19522E-02-9.50906E-04-5.89554E-14
 -1      2172 1.25227E-02-6.41536E-04-6.08021E-14
 -1      2173 1.23399E-02-7.42519E-04-6.02520E-14
 -1      2174 1.29193E-02-4.46209E-04-6.18055E-14
 -1      2175 1.27383E-02-5.33213E-04-6.13626E-14
 -1      2176 1.32485E-02-3.05534E-04-6.25699E-14
 -1      2177 1.30931E-02-3.69822E-04-6.21860E-14
 -1      2178 1.29890E-02-3.90688E-04-6.25184E-14
 -1      2179 1.34904E-02-2.13933E-04-6.29925E-14
 -1      2180 1.34065E-02-2.43965E-04-6.28866E-14
 -1      2181 1.19616E-02 5.90809E-04-5.82888E-14
 -1      2182 1.21532E-02 4.85824E-04-5.89606E-14
 -1      2183 1.22342E-02 4.14064E-04-5.96577E-14
 -1      2184 6.07852E-04-2.98168E-04-2.01811E-16
 -1      2185 1.17060E-02 7.11816E-04-5.76113E-14
 -1      2186 1.18176E-02 6.55650E-04-5.79521E-14
 -1      2187 1.19171E-02 5.88919E-04-5.86396E-14
 -1      2188 6.63572E-04-2.92462E-04-2.69709E-16
 -1      2189 1.35101E-02-1.57704E-04-6.36148E-14
 -1      2190 1.30249E-02 1.23357E-05-6.22294E-14
 -1      2191 1.48043E-02-5.86796E-04-8.63334E-14
 -1      2192 1.35248E-02-1.92624E-04-6.37002E-14
 -1      2193 1.26147E-02 2.06251E-04-6.09294E-14
 -1      2194 1.33290E-02-2.60161E-04-6.32165E-14
 -1      2195 1.32439E-02-2.80860E-04-6.35466E-14
 -1      2196 1.33970E-02-2.33346E-04-6.38640E-14
 -1      2197 1.26145E-02-5.69390E-04-6.15710E-14
 -1      2198 1.22142E-02-7.89430E-04-6.03525E-14
 -1      2199 1.18394E-02-1.00135E-03-5.88365E-14
 -1      2200 1.14824E-02-1.14590E-03-5.69899E-14
 -1      2201 1.11510E-02-1.15410E-03-5.51213E-14
 -1      2202 1.08218E-02-1.03656E-03-5.34345E-14
 -1      2203 1.04515E-02-8.25041E-04-5.17957E-14
 -1      2204 1.00506E-02-5.84441E-04-5.03554E-14
 -1      2205 9.65760E-03-3.77817E-04-4.92129E-14
 -1      2206 9.28328E-03-2.14872E-04-4.81700E-14
 -1      2207 9.03363E-03-1.31294E-04-4.75450E-14
 -1      2208 8.95043E-03-9.36049E-05-4.74012E-14
 -1      2209 9.29602E-03 2.60370E-05-4.75343E-14
 -1      2210 1.00610E-02 3.88710E-04-4.96438E-14
 -1      2211 1.04610E-02 6.16617E-04-5.11147E-14
 -1      2212 1.11486E-02 8.69771E-04-5.43738E-14
 -1      2213 1.08148E-02 7.90435E-04-5.26075E-14
 -1      2214 9.03109E-03-5.67092E-05-4.71657E-14
 -1      2215 1.01654E-03 3.99871E-04-4.38668E-16
 -1      2216 8.72082E-04 3.63483E-04-3.19094E-16
 -1      2217 5.47821E-04-5.53227E-05-2.90119E-16
 -1      2218 5.48853E-04-7.20450E-05-2.89956E-16
 -1      2219 5.50266E-04-8.93722E-05-2.89075E-16
 -1      2220 5.52131E-04-1.07352E-04-2.87029E-16
 -1      2221 6.65326E-04-9.55272E-05-3.92129E-16
 -1      2222 5.46444E-04 8.86159E-06-2.84088E-16
 -1      2223 5.46425E-04-6.98370E-06-2.86636E-16
 -1      2224 5.47196E-04 4.08882E-05-2.77488E-16
 -1      2225 5.46698E-04 2.48060E-05-2.81228E-16
 -1      2226 6.61393E-04 1.99404E-05-3.83049E-16
 -1      2227 5.49014E-04 7.35237E-05-2.67947E-16
 -1      2228 5.47956E-04 5.70247E-05-2.73138E-16
 -1      2229 6.62713E-04 5.78136E-05-3.73508E-16
 -1      2230 5.52395E-04 1.09007E-04-2.54747E-16
 -1      2231 5.50477E-04 9.09274E-05-2.61889E-16
 -1      2232 6.65563E-04 9.72976E-05-3.60036E-16
 -1      2233 5.58260E-04 1.48348E-04-2.35990E-16
 -1      2234 5.54949E-04 1.28121E-04-2.46195E-16
 -1      2235 6.70638E-04 1.40080E-04-3.41456E-16
 -1      2236 5.68573E-04 1.93947E-04-2.09712E-16
 -1      2237 5.62742E-04 1.70229E-04-2.24091E-16
 -1      2238 6.79269E-04 1.87629E-04-3.15801E-16
 -1      2239 1.34835E-02-1.56006E-04-6.42193E-14
 -1      2240 1.35435E-02-1.70761E-04-6.44718E-14
 -1      2241 1.30197E-03 4.56809E-04-7.41432E-16
 -1      2242 1.15966E-03 4.30871E-04-5.79235E-16
 -1      2243 1.07172E-03 3.81395E-04-5.41966E-16
 -1      2244 9.15142E-04-3.46443E-04-5.13627E-16
 -1      2245 1.05921E-03-3.79740E-04-6.73940E-16
 -1      2246 1.20249E-03-4.08132E-04-8.57224E-16
 -1      2247 1.34528E-03-4.32014E-04-1.06398E-15
 -1      2248 1.11691E-03-3.60494E-04-7.84637E-16
 -1      2249 1.48744E-03-4.52227E-04-1.29404E-15
 -1      2250 1.62920E-03-4.69050E-04-1.54718E-15
 -1      2251 1.40326E-03-4.07342E-04-1.20145E-15
 -1      2252 1.77061E-03-4.83156E-04-1.82325E-15
 -1      2253 1.91178E-03-4.94765E-04-2.12226E-15
 -1      2254 1.68835E-03-4.40543E-04-1.70952E-15
 -1      2255 2.05279E-03-5.04368E-04-2.44379E-15
 -1      2256 2.19370E-03-5.12140E-04-2.78851E-15
 -1      2257 1.97253E-03-4.63526E-04-2.30805E-15
 -1      2258 2.33458E-03-5.18439E-04-3.15573E-15
 -1      2259 2.47545E-03-5.23406E-04-3.54499E-15
 -1      2260 2.25614E-03-4.78928E-04-2.99671E-15
 -1      2261 2.61638E-03-5.27300E-04-3.95629E-15
 -1      2262 2.75736E-03-5.30235E-04-4.38979E-15
 -1      2263 2.53954E-03-4.88766E-04-3.77443E-15
 -1      2264 2.89845E-03-5.32398E-04-4.84446E-15
 -1      2265 3.03961E-03-5.33877E-04-5.32019E-15
 -1      2266 2.82294E-03-4.94569E-04-4.63894E-15
 -1      2267 3.18091E-03-5.34803E-04-5.81630E-15
 -1      2268 3.32231E-03-5.35242E-04-6.33277E-15
 -1      2269 3.10650E-03-4.97478E-04-5.58799E-15
 -1      2270 3.46384E-03-5.35285E-04-6.86994E-15
 -1      2271 3.60548E-03-5.34979E-04-7.42722E-15
 -1      2272 3.39032E-03-4.98324E-04-6.61876E-15
 -1      2273 3.74725E-03-5.34384E-04-8.00335E-15
 -1      2274 3.88913E-03-5.33531E-04-8.59902E-15
 -1      2275 3.67442E-03-4.97693E-04-7.72985E-15
 -1      2276 4.03114E-03-5.32454E-04-9.21341E-15
 -1      2277 4.17326E-03-5.31175E-04-9.84672E-15
 -1      2278 3.95884E-03-4.95977E-04-8.91858E-15
 -1      2279 4.31551E-03-5.29708E-04-1.04984E-14
 -1      2280 4.45788E-03-5.28065E-04-1.11660E-14
 -1      2281 4.24358E-03-4.93417E-04-1.01818E-14
 -1      2282 4.60037E-03-5.26246E-04-1.18510E-14
 -1      2283 4.74298E-03-5.24256E-04-1.25550E-14
 -1      2284 4.52866E-03-4.90135E-04-1.15155E-14
 -1      2285 4.88573E-03-5.22084E-04-1.32749E-14
 -1      2286 5.02861E-03-5.19733E-04-1.40112E-14
 -1      2287 4.81409E-03-4.86165E-04-1.29189E-14
 -1      2288 5.17164E-03-5.17183E-04-1.47653E-14
 -1      2289 5.31484E-03-5.14435E-04-1.55372E-14
 -1      2290 5.09992E-03-4.81477E-04-1.43909E-14
 -1      2291 5.45821E-03-5.11467E-04-1.63266E-14
 -1      2292 5.60177E-03-5.08279E-04-1.71319E-14
 -1      2293 5.38620E-03-4.75999E-04-1.59314E-14
 -1      2294 5.74554E-03-5.04850E-04-1.79559E-14
 -1      2295 5.88955E-03-5.01186E-04-1.87979E-14
 -1      2296 5.67301E-03-4.69643E-04-1.75423E-14
 -1      2297 6.03381E-03-4.97272E-04-1.96567E-14
 -1      2298 6.17839E-03-4.93122E-04-2.05334E-14
 -1      2299 5.96046E-03-4.62335E-04-1.92232E-14
 -1      2300 6.32326E-03-4.88734E-04-2.14288E-14
 -1      2301 6.46853E-03-4.84139E-04-2.23396E-14
 -1      2302 6.24870E-03-4.54051E-04-2.09756E-14
 -1      2303 6.61417E-03-4.79358E-04-2.32674E-14
 -1      2304 6.76030E-03-4.74444E-04-2.42126E-14
 -1      2305 6.53790E-03-4.44867E-04-2.27962E-14
 -1      2306 6.90688E-03-4.69459E-04-2.51738E-14
 -1      2307 7.05407E-03-4.64487E-04-2.61509E-14
 -1      2308 6.82829E-03-4.35023E-04-2.46837E-14
 -1      2309 7.20183E-03-4.59650E-04-2.71450E-14
 -1      2310 7.35033E-03-4.55081E-04-2.81548E-14
 -1      2311 7.12015E-03-4.25016E-04-2.66370E-14
 -1      2312 7.49953E-03-4.50986E-04-2.91793E-14
 -1      2313 7.64963E-03-4.47567E-04-3.02207E-14
 -1      2314 7.41383E-03-4.15720E-04-2.86533E-14
 -1      2315 7.80060E-03-4.45143E-04-3.12752E-14
 -1      2316 7.95266E-03-4.44016E-04-3.23442E-14
 -1      2317 7.70982E-03-4.08546E-04-3.07306E-14
 -1      2318 8.10584E-03-4.44646E-04-3.34285E-14
 -1      2319 8.26033E-03-4.47474E-04-3.45258E-14
 -1      2320 8.00880E-03-4.05635E-04-3.28666E-14
 -1      2321 8.41627E-03-4.53111E-04-3.56359E-14
 -1      2322 8.57381E-03-4.62194E-04-3.67587E-14
 -1      2323 8.31183E-03-4.10090E-04-3.50571E-14
 -1      2324 8.73328E-03-4.75453E-04-3.78942E-14
 -1      2325 8.89468E-03-4.93772E-04-3.90397E-14
 -1      2326 8.62052E-03-4.26211E-04-3.72993E-14
 -1      2327 9.05862E-03-5.17894E-04-4.01970E-14
 -1      2328 9.22480E-03-5.48947E-04-4.13671E-14
 -1      2329 8.93727E-03-4.59673E-04-3.95874E-14
 -1      2330 9.39415E-03-5.87461E-04-4.25463E-14
 -1      2331 9.56578E-03-6.34576E-04-4.37370E-14
 -1      2332 9.26527E-03-5.17492E-04-4.19204E-14
 -1      2333 9.74083E-03-6.90237E-04-4.49405E-14
 -1      2334 9.91746E-03-7.54931E-04-4.61521E-14
 -1      2335 9.60761E-03-6.07211E-04-4.42988E-14
 -1      2336 1.00967E-02-8.27542E-04-4.73724E-14
 -1      2337 1.02755E-02-9.06284E-04-4.86038E-14
 -1      2338 9.96505E-03-7.34276E-04-4.67181E-14
 -1      2339 1.04543E-02-9.88387E-04-4.98443E-14
 -1      2340 1.06302E-02-1.06864E-03-5.10918E-14
 -1      2341 1.03322E-02-8.95022E-04-4.91755E-14
 -1      2342 1.08023E-02-1.14277E-03-5.23517E-14
 -1      2343 1.09711E-02-1.20273E-03-5.36217E-14
 -1      2344 1.06957E-02-1.06561E-03-5.16698E-14
 -1      2345 1.11346E-02-1.24448E-03-5.49016E-14
 -1      2346 1.12980E-02-1.26275E-03-5.61925E-14
 -1      2347 1.10428E-02-1.19680E-03-5.42067E-14
 -1      2348 1.14593E-02-1.25656E-03-5.74898E-14
 -1      2349 1.16245E-02-1.22819E-03-5.88006E-14
 -1      2350 1.13770E-02-1.23592E-03-5.67833E-14
 -1      2351 1.17918E-02-1.18045E-03-6.01251E-14
 -1      2352 1.19638E-02-1.12090E-03-6.14600E-14
 -1      2353 1.17162E-02-1.17073E-03-5.94033E-14
 -1      2354 1.21389E-02-1.05387E-03-6.28055E-14
 -1      2355 1.23156E-02-9.86360E-04-6.41616E-14
 -1      2356 1.20719E-02-1.03989E-03-6.20757E-14
 -1      2357 1.24934E-02-9.21835E-04-6.55264E-14
 -1      2358 1.26692E-02-8.63193E-04-6.69020E-14
 -1      2359 1.24370E-02-8.98460E-04-6.47889E-14
 -1      2360 1.28439E-02-8.12248E-04-6.82861E-14
 -1      2361 1.30151E-02-7.69112E-04-6.96800E-14
 -1      2362 1.27969E-02-7.81586E-04-6.75405E-14
 -1      2363 1.31839E-02-7.34134E-04-7.10803E-14
 -1      2364 1.33489E-02-7.06177E-04-7.24904E-14
 -1      2365 1.31423E-02-6.99377E-04-7.03250E-14
 -1      2366 1.35113E-02-6.84701E-04-7.39085E-14
 -1      2367 1.36705E-02-6.68301E-04-7.53320E-14
 -1      2368 1.34716E-02-6.48255E-04-7.31429E-14
 -1      2369 1.38273E-02-6.55999E-04-7.67677E-14
 -1      2370 1.39815E-02-6.46520E-04-7.82134E-14
 -1      2371 1.37871E-02-6.19537E-04-7.59939E-14
 -1      2372 1.41335E-02-6.38749E-04-7.96667E-14
 -1      2373 1.42835E-02-6.31563E-04-8.11320E-14
 -1      2374 1.40921E-02-6.03716E-04-7.88810E-14
 -1      2375 1.33141E-02-1.08429E-04-6.37925E-14
 -1      2376 1.34110E-02-1.34795E-04-6.40061E-14
 -1      2377 1.34763E-02-1.53532E-04-6.48615E-14
 -1      2378 1.86507E-03 5.25238E-04-1.60634E-15
 -1      2379 1.72486E-03 5.12520E-04-1.35754E-15
 -1      2380 2.14510E-03 5.44422E-04-2.16924E-15
 -1      2381 2.00514E-03 5.35812E-04-1.87688E-15
 -1      2382 1.92443E-03 4.94607E-04-1.79606E-15
 -1      2383 2.42510E-03 5.57057E-04-2.81838E-15
 -1      2384 2.28509E-03 5.51453E-04-2.48297E-15
 -1      2385 2.20649E-03 5.11759E-04-2.38657E-15
 -1      2386 2.70546E-03 5.64931E-04-3.55324E-15
 -1      2387 2.56523E-03 5.61509E-04-3.17499E-15
 -1      2388 2.48839E-03 5.22902E-04-3.06206E-15
 -1      2389 2.98637E-03 5.69372E-04-4.37474E-15
 -1      2390 2.84585E-03 5.67520E-04-3.95300E-15
 -1      2391 2.77045E-03 5.29682E-04-3.82302E-15
 -1      2392 3.26793E-03 5.71358E-04-5.28137E-15
 -1      2393 3.12708E-03 5.70627E-04-4.81765E-15
 -1      2394 3.05283E-03 5.33327E-04-4.67046E-15
 -1      2395 3.55017E-03 5.71586E-04-6.27142E-15
 -1      2396 3.40897E-03 5.71659E-04-5.76600E-15
 -1      2397 3.33563E-03 5.34734E-04-5.60192E-15
 -1      2398 3.83306E-03 5.70541E-04-7.34360E-15
 -1      2399 3.69154E-03 5.71200E-04-6.79719E-15
 -1      2400 3.61889E-03 5.34541E-04-6.61609E-15
 -1      2401 4.11658E-03 5.68535E-04-8.49603E-15
 -1      2402 3.97474E-03 5.69643E-04-7.90991E-15
 -1      2403 3.90263E-03 5.33182E-04-7.71067E-15
 -1      2404 4.40070E-03 5.65752E-04-9.72920E-15
 -1      2405 4.25857E-03 5.67232E-04-9.10243E-15
 -1      2406 4.18682E-03 5.30932E-04-8.88589E-15
 -1      2407 4.68544E-03 5.62272E-04-1.10386E-14
 -1      2408 4.54300E-03 5.64095E-04-1.03742E-14
 -1      2409 4.47148E-03 5.27940E-04-1.01406E-14
 -1      2410 4.97081E-03 5.58107E-04-1.24238E-14
 -1      2411 4.82804E-03 5.60274E-04-1.17222E-14
 -1      2412 4.75662E-03 5.24266E-04-1.14712E-14
 -1      2413 5.25688E-03 5.53219E-04-1.38851E-14
 -1      2414 5.11375E-03 5.55753E-04-1.31454E-14
 -1      2415 5.04228E-03 5.19901E-04-1.28770E-14
 -1      2416 5.54376E-03 5.47555E-04-1.54204E-14
 -1      2417 5.40020E-03 5.50484E-04-1.46426E-14
 -1      2418 5.32851E-03 5.14798E-04-1.43583E-14
 -1      2419 5.83162E-03 5.41069E-04-1.70307E-14
 -1      2420 5.68755E-03 5.44412E-04-1.62164E-14
 -1      2421 5.61543E-03 5.08896E-04-1.59134E-14
 -1      2422 6.12069E-03 5.33766E-04-1.87138E-14
 -1      2423 5.97598E-03 5.37512E-04-1.78634E-14
 -1      2424 5.90317E-03 5.02150E-04-1.75425E-14
 -1      2425 6.41126E-03 5.25745E-04-2.04639E-14
 -1      2426 6.26575E-03 5.29830E-04-1.95805E-14
 -1      2427 6.19192E-03 4.94574E-04-1.92431E-14
 -1      2428 6.70368E-03 5.17267E-04-2.22794E-14
 -1      2429 6.55720E-03 5.21537E-04-2.13647E-14
 -1      2430 6.48194E-03 4.86288E-04-2.10114E-14
 -1      2431 6.99838E-03 5.08831E-04-2.41524E-14
 -1      2432 6.85070E-03 5.13000E-04-2.32076E-14
 -1      2433 6.77351E-03 4.77583E-04-2.28409E-14
 -1      2434 7.29586E-03 5.01278E-04-2.60799E-14
 -1      2435 7.14672E-03 5.04878E-04-2.51087E-14
 -1      2436 7.06702E-03 4.69005E-04-2.47277E-14
 -1      2437 7.59663E-03 4.95916E-04-2.80660E-14
 -1      2438 7.44578E-03 4.98227E-04-2.70676E-14
 -1      2439 7.36289E-03 4.61462E-04-2.66729E-14
 -1      2440 7.90127E-03 4.94644E-04-3.01019E-14
 -1      2441 7.74842E-03 4.94635E-04-2.90769E-14
 -1      2442 7.66166E-03 4.56341E-04-2.86724E-14
 -1      2443 8.21031E-03 5.00066E-04-3.21883E-14
 -1      2444 8.05521E-03 4.96342E-04-3.11388E-14
 -1      2445 7.96394E-03 4.55641E-04-3.07224E-14
 -1      2446 8.52423E-03 5.15510E-04-3.43270E-14
 -1      2447 8.36667E-03 5.06318E-04-3.32520E-14
 -1      2448 8.27047E-03 4.62076E-04-3.28245E-14
 -1      2449 8.84326E-03 5.44848E-04-3.65167E-14
 -1      2450 8.68317E-03 5.28203E-04-3.54146E-14
 -1      2451 8.58205E-03 4.79095E-04-3.49782E-14
 -1      2452 9.16722E-03 5.91914E-04-3.87584E-14
 -1      2453 9.00479E-03 5.65954E-04-3.76309E-14
 -1      2454 8.89950E-03 5.10695E-04-3.71834E-14
 -1      2455 9.49510E-03 6.59282E-04-4.10500E-14
 -1      2456 9.33096E-03 6.22987E-04-3.98978E-14
 -1      2457 9.22327E-03 5.60834E-04-3.94406E-14
 -1      2458 9.82455E-03 7.46179E-04-4.33912E-14
 -1      2459 9.66004E-03 7.00514E-04-4.22148E-14
 -1      2460 9.55290E-03 6.32143E-04-4.17473E-14
 -1      2461 1.01517E-02 8.45829E-04-4.57803E-14
 -1      2462 9.98887E-03 7.95171E-04-4.45784E-14
 -1      2463 9.88611E-03 7.23649E-04-4.41015E-14
 -1      2464 1.04720E-02 9.43229E-04-4.82219E-14
 -1      2465 1.03130E-02 8.96035E-04-4.69961E-14
 -1      2466 1.02184E-02 8.27312E-04-4.65063E-14
 -1      2467 1.07824E-02 1.01688E-03-5.07155E-14
 -1      2468 1.06283E-02 9.84583E-04-4.94612E-14
 -1      2469 1.05438E-02 9.26061E-04-4.89626E-14
 -1      2470 1.10842E-02 1.04486E-03-5.32619E-14
 -1      2471 1.09336E-02 1.03766E-03-5.19813E-14
 -1      2472 1.08587E-02 9.95136E-04-5.14680E-14
 -1      2473 1.13839E-02 1.01594E-03-5.58608E-14
 -1      2474 1.12334E-02 1.03751E-03-5.45556E-14
 -1      2475 1.11656E-02 1.01114E-03-5.40268E-14
 -1      2476 1.16890E-02 9.35758E-04-5.85175E-14
 -1      2477 1.15352E-02 9.81257E-04-5.71831E-14
 -1      2478 1.14728E-02 9.65760E-04-5.66372E-14
 -1      2479 1.20026E-02 8.23132E-04-6.12253E-14
 -1      2480 1.18447E-02 8.82035E-04-5.98643E-14
 -1      2481 1.17878E-02 8.70287E-04-5.93040E-14
 -1      2482 1.23232E-02 7.00357E-04-6.39788E-14
 -1      2483 1.21625E-02 7.61765E-04-6.25968E-14
 -1      2484 1.21119E-02 7.48436E-04-6.20196E-14
 -1      2485 1.26462E-02 5.84353E-04-6.67818E-14
 -1      2486 1.24849E-02 6.40807E-04-6.53738E-14
 -1      2487 1.24410E-02 6.23770E-04-6.47830E-14
 -1      2488 1.29671E-02 4.83487E-04-6.96273E-14
 -1      2489 1.28073E-02 5.31836E-04-6.81990E-14
 -1      2490 1.27689E-02 5.11210E-04-6.75908E-14
 -1      2491 1.32830E-02 3.98805E-04-7.25142E-14
 -1      2492 1.31260E-02 4.39264E-04-7.10680E-14
 -1      2493 1.30913E-02 4.16174E-04-7.04429E-14
 -1      2494 1.35924E-02 3.26716E-04-7.54373E-14
 -1      2495 1.34387E-02 3.61501E-04-7.39715E-14
 -1      2496 1.34063E-02 3.37374E-04-7.33347E-14
 -1      2497 1.38950E-02 2.61362E-04-7.83969E-14
 -1      2498 1.37446E-02 2.93579E-04-7.69118E-14
 -1      2499 1.37135E-02 2.69898E-04-7.62620E-14
 -1      2500 1.41911E-02 1.96232E-04-8.13781E-14
 -1      2501 1.40438E-02 2.29162E-04-7.98840E-14
 -1      2502 1.40134E-02 2.07391E-04-7.92202E-14
 -1      2503 1.43405E-02 1.61680E-04-8.29273E-14
 -1      2504 1.46620E-02-1.06046E-04-8.27437E-14
 -1      2505 1.46136E-02-7.49478E-05-8.26648E-14
 -1      2506 1.47475E-02-1.63004E-04-8.29024E-14
 -1      2507 1.47069E-02-1.35334E-04-8.28224E-14
 -1      2508 1.45659E-02-1.04430E-04-8.15062E-14
 -1      2509 1.44598E-02 2.71519E-05-8.24265E-14
 -1      2510 1.44072E-02 6.44988E-05-8.23441E-14
 -1      2511 1.45634E-02-4.24079E-05-8.25855E-14
 -1      2512 1.45121E-02-8.55774E-06-8.25067E-14
 -1      2513 1.43620E-02 3.28799E-05-8.11784E-14
 -1      2514 1.44674E-02-3.88824E-05-8.13432E-14
 -1      2515 1.48119E-02-2.13750E-04-8.30644E-14
 -1      2516 1.47828E-02-1.88972E-04-8.29831E-14
 -1      2517 1.46494E-02-1.63169E-04-8.16691E-14
 -1      2518 1.48492E-02-2.60391E-04-8.32357E-14
 -1      2519 1.48342E-02-2.37294E-04-8.31498E-14
 -1      2520 1.47095E-02-2.15658E-04-8.18367E-14
 -1      2521 1.48562E-02-3.06114E-04-8.34070E-14
 -1      2522 1.48565E-02-2.83030E-04-8.33213E-14
 -1      2523 1.47401E-02-2.64361E-04-8.20066E-14
 -1      2524 1.48348E-02-3.53541E-04-8.35713E-14
 -1      2525 1.48488E-02-3.29221E-04-8.34907E-14
 -1      2526 1.47391E-02-3.12460E-04-8.21754E-14
 -1      2527 1.47892E-02-4.07181E-04-8.37384E-14
 -1      2528 1.48146E-02-3.79476E-04-8.36541E-14
 -1      2529 1.47091E-02-3.63995E-04-8.23380E-14
 -1      2530 1.47273E-02-4.67933E-04-8.39016E-14
 -1      2531 1.47598E-02-4.36587E-04-8.38223E-14
 -1      2532 1.46560E-02-4.22175E-04-8.25015E-14
 -1      2533 1.46582E-02-5.36220E-04-8.40500E-14
 -1      2534 1.46931E-02-5.01156E-04-8.39759E-14
 -1      2535 1.45885E-02-4.87779E-04-8.26565E-14
 -1      2536 1.46768E-02-5.96677E-04-8.49873E-14
 -1      2537 1.35501E-02-1.87772E-04-6.44516E-14
 -1      2538 1.35038E-02-2.00790E-04-6.42868E-14
 -1      2539 1.58436E-03 4.97112E-04-1.13067E-15
 -1      2540 1.44344E-03 4.78802E-04-9.25312E-16
 -1      2541 1.64172E-03 4.69251E-04-1.29219E-15
 -1      2542 1.29029E-02 4.83964E-05-6.23712E-14
 -1      2543 1.31032E-02-3.38155E-05-6.30827E-14
 -1      2544 5.88483E-04-2.38027E-04-2.47483E-16
 -1      2545 7.81274E-04-3.04891E-04-3.92305E-16
 -1      2546 8.40731E-04-2.93663E-04-4.76642E-16
 -1      2547 5.78956E-04-2.10236E-04-2.61239E-16
 -1      2548 1.27118E-02-5.06978E-04-6.24394E-14
 -1      2549 1.25214E-02-6.08118E-04-6.18709E-14
 -1      2550 9.99548E-03 3.41729E-04-4.88305E-14
 -1      2551 1.01882E-02 4.52074E-04-4.95580E-14
 -1      2552 5.46637E-04-2.29109E-05-2.88547E-16
 -1      2553 5.47093E-04-3.89587E-05-2.89699E-16
 -1      2554 6.62564E-04-5.58386E-05-3.92630E-16
 -1      2555 6.61340E-04-1.77132E-05-3.89445E-16
 -1      2556 1.07292E-02 7.55679E-04-5.19105E-14
 -1      2557 1.08723E-02 8.20719E-04-5.26601E-14
 -1      2558 1.13910E-02 8.48910E-04-5.58413E-14
 -1      2559 1.15147E-02 8.02410E-04-5.66087E-14
 -1      2560 8.97035E-03-7.45470E-05-4.66041E-14
 -1      2561 9.03000E-03-5.93428E-05-4.63901E-14
 -1      2562 1.10646E-02 8.70688E-04-5.37847E-14
 -1      2563 1.12246E-02 8.77953E-04-5.48031E-14
 -1      2564 1.03689E-02 5.56282E-04-5.02937E-14
 -1      2565 1.05428E-02 6.59440E-04-5.10323E-14
 -1      2566 1.02711E-02 5.08550E-04-4.94755E-14
 -1      2567 9.59919E-03 1.42886E-04-4.77256E-14
 -1      2568 9.75987E-03 2.18893E-04-4.81208E-14
 -1      2569 9.18630E-03-1.29528E-05-4.65637E-14
 -1      2570 9.37839E-03 5.08350E-05-4.71450E-14
 -1      2571 9.44362E-03 8.58137E-05-4.67545E-14
 -1      2572 8.94425E-03-9.56657E-05-4.66462E-14
 -1      2573 8.94002E-03-8.80751E-05-4.66250E-14
 -1      2574 8.92763E-03-8.08342E-05-4.58530E-14
 -1      2575 9.06003E-03-1.27072E-04-4.68885E-14
 -1      2576 8.98511E-03-1.10332E-04-4.67673E-14
 -1      2577 8.94614E-03-9.79667E-05-4.59936E-14
 -1      2578 9.37693E-03-2.33650E-04-4.78653E-14
 -1      2579 9.21053E-03-1.74897E-04-4.73633E-14
 -1      2580 9.75678E-03-4.04964E-04-4.89480E-14
 -1      2581 9.57237E-03-3.16654E-04-4.84126E-14
 -1      2582 1.01151E-02-6.05462E-04-5.01474E-14
 -1      2583 9.93402E-03-4.99878E-04-4.95457E-14
 -1      2584 9.81980E-03-4.35746E-04-4.87423E-14
 -1      2585 1.05653E-02-8.84915E-04-5.19028E-14
 -1      2586 1.03750E-02-7.62095E-04-5.10661E-14
 -1      2587 1.09112E-02-1.08014E-03-5.37283E-14
 -1      2588 1.07614E-02-1.00037E-03-5.29279E-14
 -1      2589 1.12087E-02-1.17295E-03-5.54448E-14
 -1      2590 1.10638E-02-1.13929E-03-5.45576E-14
 -1      2591 1.15581E-02-1.13168E-03-5.76070E-14
 -1      2592 1.13989E-02-1.17229E-03-5.66222E-14
 -1      2593 1.19215E-02-9.57669E-04-5.96212E-14
 -1      2594 1.17551E-02-1.05092E-03-5.87554E-14
 -1      2595 1.23146E-02-7.24286E-04-6.11860E-14
 -1      2596 1.21372E-02-8.32017E-04-6.05283E-14
 -1      2597 1.30721E-02-3.44408E-04-6.33807E-14
 -1      2598 1.29130E-02-4.11142E-04-6.29962E-14
 -1      2599 1.25198E-02 2.36600E-04-6.11406E-14
 -1      2600 1.27040E-02 1.41365E-04-6.17351E-14
 -1      2601 1.21396E-02 4.55083E-04-5.97372E-14
 -1      2602 1.23093E-02 3.52659E-04-6.04203E-14
 -1      2603 7.57847E-04 3.34273E-04-2.34120E-16
 -1      2604 6.11442E-04 2.84904E-04-1.52751E-16
 -1      2605 5.84723E-04 2.58136E-04-1.60042E-16
 -1      2606 8.13676E-04 3.22951E-04-3.10773E-16
 -1      2607 1.09648E-02 8.54554E-04-5.30809E-14
 -1      2608 6.70256E-04-1.37997E-04-3.87047E-16
 -1      2609 5.54615E-04-1.26252E-04-2.83627E-16
 -1      2610 5.57762E-04-1.46241E-04-2.78911E-16
 -1      2611 1.35742E-02-1.78966E-04-6.56623E-14
 -1      2612 1.35692E-02-1.81714E-04-6.50571E-14
 -1      2613 1.35794E-02-1.89493E-04-6.56443E-14
 -1      2614 1.31292E-02-4.41932E-05-6.40746E-14
 -1      2615 1.32223E-02-8.03919E-05-6.39329E-14
 -1      2616 1.33262E-02-1.09248E-04-6.47874E-14
 -1      2617 5.72230E-04 2.27942E-04-1.81279E-16
 -1      2618 1.16177E-02 7.56859E-04-5.72918E-14
 -1      2619 1.28247E-02-4.57171E-04-6.32968E-14
 -1      2620 1.20163E-02 5.30335E-04-5.93945E-14
 -1      2621 1.35153E-02-2.08270E-04-6.53651E-14
 -1      2622 1.34616E-02-2.15312E-04-6.46127E-14
 -1      2623 1.34089E-02-2.32756E-04-6.49412E-14
 -1      2624 6.89513E-04 2.51302E-04-2.66836E-16
 -1      2625 1.43105E-02 1.43135E-04-8.22515E-14
 -1      2626 5.71832E-04-1.85262E-04-2.71498E-16
 -1      2627 1.43338E-02 1.15404E-04-8.21538E-14
 -1      2628 1.45137E-02-6.21386E-04-8.34586E-14
 -1      2629 1.46029E-02-5.69412E-04-8.38507E-14
 -1      2630 1.44957E-02-5.56436E-04-8.25302E-14
 -1      2631 1.43832E-02-6.27351E-04-8.21309E-14
 -1      2632 1.24228E-02 2.88387E-04-6.12202E-14
 -1      2633 1.31774E-02-3.06689E-04-6.40248E-14
 -1      2634 1.35772E-03 4.32792E-04-8.74260E-16
 -1      2635 1.28138E-02 8.62732E-05-6.25831E-14
 -1      2636 1.24371E-02-6.61851E-04-6.20472E-14
 -1      2637 9.87960E-03 2.89591E-04-4.80363E-14
 -1      2638 1.20388E-02-8.99888E-04-6.04443E-14
 -1      2639 1.16602E-02-1.10184E-03-5.83826E-14
 -1      2640 1.13021E-02-1.18259E-03-5.60516E-14
 -1      2641 1.09882E-02-1.11520E-03-5.40464E-14
 -1      2642 1.02376E-02-6.79461E-04-5.02534E-14
 -1      2643 9.08080E-03-4.10729E-05-4.60047E-14
 -1      2644 9.13369E-03-1.62407E-05-4.56193E-14
 -1      2645 8.99633E-03-5.49562E-05-4.54482E-14
 -1      2646 1.12936E-02 8.72963E-04-5.52451E-14
 -1      2647 1.42338E-02 1.22486E-04-8.09040E-14
 -1      2648 1.06150E-02 7.05713E-04-5.10826E-14
 -1      2649 9.12230E-03-1.45197E-04-4.65867E-14
 -1      2650 9.46266E-03-2.66857E-04-4.76034E-14
 -1      2651 1.06588E-02-9.43814E-04-5.21923E-14
 -1      2652 1.43406E-02-5.94641E-04-8.13322E-14
 -1      2653 7.80259E-04 7.73704E-05-4.83879E-16
 -1      2654 7.79004E-04 5.54989E-05-4.91022E-16
 -1      2655 7.78162E-04 3.35762E-05-4.97134E-16
 -1      2656 7.77741E-04 1.19014E-05-5.02148E-16
 -1      2657 8.96587E-04 4.97031E-05-6.25788E-16
 -1      2658 7.91558E-04 1.73198E-04-4.40999E-16
 -1      2659 7.87566E-04 1.47778E-04-4.54498E-16
 -1      2660 8.03392E-04 2.28402E-04-4.07362E-16
 -1      2661 7.96785E-04 2.00009E-04-4.25563E-16
 -1      2662 9.14857E-04 2.07901E-04-5.52875E-16
 -1      2663 1.43984E-02-5.59198E-04-8.15331E-14
 -1      2664 1.44563E-02-5.25387E-04-8.17293E-14
 -1      2665 1.43006E-02-5.61491E-04-8.05383E-14
 -1      2666 1.12976E-03 3.62035E-04-6.50928E-16
 -1      2667 9.86167E-04 3.32966E-04-5.02094E-16
 -1      2668 8.03056E-04 2.78309E-04-3.54968E-16
 -1      2669 1.32009E-03-3.62887E-04-1.10926E-15
 -1      2670 1.46331E-03-3.81847E-04-1.34186E-15
 -1      2671 1.60635E-03-3.97894E-04-1.59662E-15
 -1      2672 1.74928E-03-4.11278E-04-1.87380E-15
 -1      2673 1.52493E-03-3.55496E-04-1.48467E-15
 -1      2674 1.89205E-03-4.22455E-04-2.17353E-15
 -1      2675 2.03470E-03-4.31611E-04-2.49524E-15
 -1      2676 1.81163E-03-3.81346E-04-2.04031E-15
 -1      2677 2.17724E-03-4.39117E-04-2.83959E-15
 -1      2678 2.31970E-03-4.45124E-04-3.20603E-15
 -1      2679 2.09809E-03-3.99128E-04-2.68424E-15
 -1      2680 2.46211E-03-4.49918E-04-3.59418E-15
 -1      2681 2.60448E-03-4.53619E-04-4.00404E-15
 -1      2682 2.38427E-03-4.10834E-04-3.41579E-15
 -1      2683 2.74683E-03-4.56442E-04-4.43577E-15
 -1      2684 2.88916E-03-4.58478E-04-4.88850E-15
 -1      2685 2.67022E-03-4.18063E-04-4.23435E-15
 -1      2686 3.03151E-03-4.59885E-04-5.36173E-15
 -1      2687 3.17386E-03-4.60732E-04-5.85541E-15
 -1      2688 2.95601E-03-4.22048E-04-5.13774E-15
 -1      2689 3.31625E-03-4.61130E-04-6.36954E-15
 -1      2690 3.45866E-03-4.61129E-04-6.90436E-15
 -1      2691 3.24170E-03-4.23712E-04-6.12294E-15
 -1      2692 3.60110E-03-4.60805E-04-7.45895E-15
 -1      2693 3.74358E-03-4.60192E-04-8.03289E-15
 -1      2694 3.52734E-03-4.23720E-04-7.18951E-15
 -1      2695 3.88610E-03-4.59338E-04-8.62583E-15
 -1      2696 4.02866E-03-4.58265E-04-9.23785E-15
 -1      2697 3.81297E-03-4.22532E-04-8.33528E-15
 -1      2698 4.17127E-03-4.56999E-04-9.86808E-15
 -1      2699 4.31392E-03-4.55552E-04-1.05161E-14
 -1      2700 4.09862E-03-4.20443E-04-9.55711E-15
 -1      2701 4.45662E-03-4.53933E-04-1.11818E-14
 -1      2702 4.59937E-03-4.52148E-04-1.18645E-14
 -1      2703 4.38430E-03-4.17625E-04-1.08495E-14
 -1      2704 4.74218E-03-4.50193E-04-1.25653E-14
 -1      2705 4.88504E-03-4.48067E-04-1.32829E-14
 -1      2706 4.67003E-03-4.14146E-04-1.22135E-14
 -1      2707 5.02796E-03-4.45760E-04-1.40177E-14
 -1      2708 5.17095E-03-4.43266E-04-1.47694E-14
 -1      2709 4.95583E-03-4.10005E-04-1.36460E-14
 -1      2710 5.31401E-03-4.40571E-04-1.55394E-14
 -1      2711 5.45714E-03-4.37668E-04-1.63263E-14
 -1      2712 5.24169E-03-4.05148E-04-1.51492E-14
 -1      2713 5.60035E-03-4.34540E-04-1.71304E-14
 -1      2714 5.74366E-03-4.31184E-04-1.79526E-14
 -1      2715 5.52765E-03-3.99496E-04-1.67209E-14
 -1      2716 5.88705E-03-4.27587E-04-1.87920E-14
 -1      2717 6.03056E-03-4.23749E-04-1.96491E-14
 -1      2718 5.81369E-03-3.92965E-04-1.83631E-14
 -1      2719 6.17418E-03-4.19669E-04-2.05243E-14
 -1      2720 6.31794E-03-4.15354E-04-2.14176E-14
 -1      2721 6.09984E-03-3.85500E-04-2.00760E-14
 -1      2722 6.46182E-03-4.10823E-04-2.23274E-14
 -1      2723 6.60588E-03-4.06098E-04-2.32527E-14
 -1      2724 6.38609E-03-3.77109E-04-2.18587E-14
 -1      2725 6.75008E-03-4.01227E-04-2.41957E-14
 -1      2726 6.89451E-03-3.96254E-04-2.51544E-14
 -1      2727 6.67245E-03-3.67917E-04-2.37095E-14
 -1      2728 7.03911E-03-3.91273E-04-2.61307E-14
 -1      2729 7.18400E-03-3.86360E-04-2.71221E-14
 -1      2730 6.95894E-03-3.58226E-04-2.56263E-14
 -1      2731 7.32911E-03-3.81670E-04-2.81289E-14
 -1      2732 7.47460E-03-3.77331E-04-2.91509E-14
 -1      2733 7.24563E-03-3.48603E-04-2.76057E-14
 -1      2734 7.62040E-03-3.73577E-04-3.01883E-14
 -1      2735 7.76672E-03-3.70610E-04-3.12409E-14
 -1      2736 7.53267E-03-3.39980E-04-2.96483E-14
 -1      2737 7.91353E-03-3.68760E-04-3.23062E-14
 -1      2738 8.06108E-03-3.68345E-04-3.33866E-14
 -1      2739 7.82042E-03-3.33785E-04-3.17488E-14
 -1      2740 8.20945E-03-3.69792E-04-3.44812E-14
 -1      2741 8.35893E-03-3.73603E-04-3.55872E-14
 -1      2742 8.10963E-03-3.32097E-04-3.39057E-14
 -1      2743 8.50978E-03-3.80284E-04-3.67067E-14
 -1      2744 8.66237E-03-3.90619E-04-3.78378E-14
 -1      2745 8.40177E-03-3.37846E-04-3.61165E-14
 -1      2746 8.81722E-03-4.05140E-04-3.89792E-14
 -1      2747 8.97473E-03-4.25063E-04-4.01323E-14
 -1      2748 8.69949E-03-3.55083E-04-3.83729E-14
 -1      2749 9.13582E-03-4.50849E-04-4.12970E-14
 -1      2750 9.30067E-03-4.84297E-04-4.24715E-14
 -1      2751 9.00714E-03-3.89421E-04-4.06750E-14
 -1      2752 9.47066E-03-5.25618E-04-4.36596E-14
 -1      2753 9.64510E-03-5.76994E-04-4.48583E-14
 -1      2754 9.33110E-03-4.48827E-04-4.30232E-14
 -1      2755 9.82571E-03-6.38160E-04-4.60656E-14
 -1      2756 1.00100E-02-7.10662E-04-4.72821E-14
 -1      2757 9.67830E-03-5.44042E-04-4.54139E-14
 -1      2758 1.02002E-02-7.93120E-04-4.85091E-14
 -1      2759 1.03899E-02-8.82954E-04-4.97446E-14
 -1      2760 1.00527E-02-6.85849E-04-4.78453E-14
 -1      2761 1.05795E-02-9.77294E-04-5.09910E-14
 -1      2762 1.07650E-02-1.06557E-03-5.22468E-14
 -1      2763 1.04454E-02-8.75295E-04-5.03141E-14
 -1      2764 1.12902E-02-1.22055E-03-5.60897E-14
 -1      2765 1.14618E-02-1.21090E-03-5.73860E-14
 -1      2766 1.16348E-02-1.16925E-03-5.86924E-14
 -1      2767 1.18145E-02-1.10897E-03-6.00168E-14
 -1      2768 1.19993E-02-1.03397E-03-6.13516E-14
 -1      2769 1.21867E-02-9.56683E-04-6.27003E-14
 -1      2770 1.19270E-02-1.03330E-03-6.06277E-14
 -1      2771 1.23757E-02-8.81521E-04-6.40574E-14
 -1      2772 1.25620E-02-8.14094E-04-6.54233E-14
 -1      2773 1.23149E-02-8.66394E-04-6.33230E-14
 -1      2774 1.27460E-02-7.56379E-04-6.68026E-14
 -1      2775 1.29239E-02-7.08112E-04-6.81874E-14
 -1      2776 1.26961E-02-7.29729E-04-6.60639E-14
 -1      2777 1.30976E-02-6.69798E-04-6.95808E-14
 -1      2778 1.32655E-02-6.39579E-04-7.09806E-14
 -1      2779 1.30551E-02-6.38108E-04-6.88364E-14
 -1      2780 1.34292E-02-6.17045E-04-7.23873E-14
 -1      2781 1.35885E-02-6.00205E-04-7.38041E-14
 -1      2782 1.33895E-02-5.84143E-04-7.16354E-14
 -1      2783 1.37445E-02-5.88315E-04-7.52291E-14
 -1      2784 1.38975E-02-5.79786E-04-7.66617E-14
 -1      2785 1.37045E-02-5.56025E-04-7.44652E-14
 -1      2786 1.40263E-02-5.72205E-04-7.78675E-14
 -1      2787 1.41751E-02-5.67341E-04-7.93180E-14
 -1      2788 1.42362E-02-5.31205E-04-7.95145E-14
 -1      2789 1.39850E-02-5.41335E-04-7.70940E-14
 -1      2790 1.23563E-02 3.33822E-04-6.13690E-14
 -1      2791 1.25417E-02 2.27592E-04-6.20961E-14
 -1      2792 2.26904E-03 4.78454E-04-2.60709E-15
 -1      2793 2.12723E-03 4.71667E-04-2.28765E-15
 -1      2794 1.98532E-03 4.63244E-04-1.99009E-15
 -1      2795 1.84329E-03 4.53023E-04-1.71341E-15
 -1      2796 2.04755E-03 4.31294E-04-2.18758E-15
 -1      2797 2.83606E-03 4.93970E-04-4.09663E-15
 -1      2798 2.69430E-03 4.91511E-04-3.69218E-15
 -1      2799 3.11973E-03 4.96900E-04-4.96905E-15
 -1      2800 2.97788E-03 4.95740E-04-4.52215E-15
 -1      2801 2.90230E-03 4.57886E-04-4.37320E-15
 -1      2802 3.40363E-03 4.97803E-04-5.92477E-15
 -1      2803 3.26165E-03 4.97569E-04-5.43643E-15
 -1      2804 3.18709E-03 4.60169E-04-5.26989E-15
 -1      2805 3.68781E-03 4.97254E-04-6.96219E-15
 -1      2806 3.54569E-03 4.97685E-04-6.43353E-15
 -1      2807 3.47196E-03 4.60629E-04-6.24996E-15
 -1      2808 3.97229E-03 4.95638E-04-8.08037E-15
 -1      2809 3.83002E-03 4.96563E-04-7.51146E-15
 -1      2810 3.75694E-03 4.59778E-04-7.31107E-15
 -1      2811 4.25708E-03 4.93193E-04-9.27840E-15
 -1      2812 4.11465E-03 4.94510E-04-8.66928E-15
 -1      2813 4.04208E-03 4.57955E-04-8.45239E-15
 -1      2814 4.54220E-03 4.90039E-04-1.05546E-14
 -1      2815 4.39960E-03 4.91699E-04-9.90711E-15
 -1      2816 4.32737E-03 4.55359E-04-9.67279E-15
 -1      2817 4.82765E-03 4.86213E-04-1.19048E-14
 -1      2818 4.68488E-03 4.88209E-04-1.12200E-14
 -1      2819 4.61285E-03 4.52086E-04-1.09698E-14
 -1      2820 5.11349E-03 4.81693E-04-1.33323E-14
 -1      2821 4.97052E-03 4.84041E-04-1.26094E-14
 -1      2822 4.89853E-03 4.48153E-04-1.23416E-14
 -1      2823 5.39977E-03 4.76421E-04-1.48326E-14
 -1      2824 5.25657E-03 4.79154E-04-1.40731E-14
 -1      2825 5.18443E-03 4.43524E-04-1.37883E-14
 -1      2826 5.68656E-03 4.70333E-04-1.64080E-14
 -1      2827 5.54309E-03 4.73481E-04-1.56109E-14
 -1      2828 5.47061E-03 4.38135E-04-1.53091E-14
 -1      2829 5.97398E-03 4.63389E-04-1.80555E-14
 -1      2830 5.83018E-03 4.66967E-04-1.72225E-14
 -1      2831 5.75712E-03 4.31921E-04-1.69033E-14
 -1      2832 6.26218E-03 4.55612E-04-1.97740E-14
 -1      2833 6.11797E-03 4.59599E-04-1.89073E-14
 -1      2834 6.04402E-03 4.24846E-04-1.85705E-14
 -1      2835 6.55136E-03 4.47142E-04-2.15579E-14
 -1      2836 6.40662E-03 4.51449E-04-2.06574E-14
 -1      2837 6.33143E-03 4.16945E-04-2.03058E-14
 -1      2838 6.84176E-03 4.38297E-04-2.34026E-14
 -1      2839 6.69637E-03 4.42738E-04-2.24728E-14
 -1      2840 6.61949E-03 4.08374E-04-2.21053E-14
 -1      2841 7.13369E-03 4.29663E-04-2.53045E-14
 -1      2842 6.98749E-03 4.33907E-04-2.43469E-14
 -1      2843 6.90839E-03 3.99475E-04-2.39648E-14
 -1      2844 7.42758E-03 4.22192E-04-2.72656E-14
 -1      2845 7.28035E-03 4.25710E-04-2.62775E-14
 -1      2846 7.19840E-03 3.90856E-04-2.58831E-14
 -1      2847 7.72398E-03 4.17327E-04-2.92790E-14
 -1      2848 7.57541E-03 4.19327E-04-2.82662E-14
 -1      2849 7.48996E-03 3.83497E-04-2.78582E-14
 -1      2850 8.02362E-03 4.17122E-04-3.13438E-14
 -1      2851 7.87333E-03 4.16490E-04-3.03051E-14
 -1      2852 7.78365E-03 3.78856E-04-2.98876E-14
 -1      2853 8.32750E-03 4.24357E-04-3.34633E-14
 -1      2854 8.17497E-03 4.19602E-04-3.23963E-14
 -1      2855 8.08041E-03 3.79005E-04-3.19688E-14
 -1      2856 8.63689E-03 4.42562E-04-3.56292E-14
 -1      2857 8.48146E-03 4.31821E-04-3.45389E-14
 -1      2858 8.38156E-03 3.86737E-04-3.41005E-14
 -1      2859 8.95323E-03 4.75879E-04-3.78524E-14
 -1      2860 8.79418E-03 4.57018E-04-3.67357E-14
 -1      2861 8.68893E-03 4.05656E-04-3.62848E-14
 -1      2862 9.27777E-03 5.28516E-04-4.01238E-14
 -1      2863 9.11457E-03 4.99478E-04-3.89815E-14
 -1      2864 9.00473E-03 4.40116E-04-3.85227E-14
 -1      2865 9.61063E-03 6.03481E-04-4.24460E-14
 -1      2866 9.44344E-03 5.63076E-04-4.12784E-14
 -1      2867 9.33101E-03 4.94822E-04-4.08092E-14
 -1      2868 9.94922E-03 6.99927E-04-4.48132E-14
 -1      2869 9.77969E-03 6.49361E-04-4.36234E-14
 -1      2870 9.66833E-03 5.73619E-04-4.31443E-14
 -1      2871 1.02886E-02 8.08737E-04-4.72326E-14
 -1      2872 1.01197E-02 7.53784E-04-4.60161E-14
 -1      2873 1.00142E-02 6.75780E-04-4.55276E-14
 -1      2874 1.06200E-02 9.10060E-04-4.97009E-14
 -1      2875 1.04556E-02 8.62268E-04-4.84607E-14
 -1      2876 1.03610E-02 7.91730E-04-4.79584E-14
 -1      2877 1.09394E-02 9.74707E-04-5.22201E-14
 -1      2878 1.07808E-02 9.49228E-04-5.09553E-14
 -1      2879 1.06982E-02 8.96474E-04-5.04406E-14
 -1      2880 1.12508E-02 9.76607E-04-5.47911E-14
 -1      2881 1.10946E-02 9.84284E-04-5.34992E-14
 -1      2882 1.10218E-02 9.54711E-04-5.29720E-14
 -1      2883 1.15655E-02 9.11573E-04-5.74111E-14
 -1      2884 1.14064E-02 9.51438E-04-5.60936E-14
 -1      2885 1.13387E-02 9.38206E-04-5.55523E-14
 -1      2886 1.18911E-02 7.99370E-04-6.00882E-14
 -1      2887 1.17267E-02 8.59382E-04-5.87445E-14
 -1      2888 1.16635E-02 8.50667E-04-5.81845E-14
 -1      2889 1.22263E-02 6.68973E-04-6.28125E-14
 -1      2890 1.20581E-02 7.34463E-04-6.14443E-14
 -1      2891 1.20020E-02 7.21519E-04-6.08709E-14
 -1      2892 1.25632E-02 5.44383E-04-6.55836E-14
 -1      2893 1.23953E-02 6.04905E-04-6.41916E-14
 -1      2894 1.23480E-02 5.85279E-04-6.36028E-14
 -1      2895 1.28949E-02 4.37263E-04-6.83988E-14
 -1      2896 1.27302E-02 4.88408E-04-6.69862E-14
 -1      2897 1.26912E-02 4.63733E-04-6.63818E-14
 -1      2898 1.32177E-02 3.49416E-04-7.12559E-14
 -1      2899 1.30577E-02 3.91142E-04-6.98218E-14
 -1      2900 1.30247E-02 3.64070E-04-6.92043E-14
 -1      2901 1.35310E-02 2.77186E-04-7.41519E-14
 -1      2902 1.33756E-02 3.11741E-04-7.27006E-14
 -1      2903 1.33463E-02 2.84386E-04-7.20672E-14
 -1      2904 1.38355E-02 2.14555E-04-7.70821E-14
 -1      2905 1.36843E-02 2.45109E-04-7.56125E-14
 -1      2906 1.36567E-02 2.18995E-04-7.49670E-14
 -1      2907 1.41099E-02 1.53583E-04-7.97279E-14
 -1      2908 1.39621E-02 1.83106E-04-7.82471E-14
 -1      2909 1.39355E-02 1.59048E-04-7.75888E-14
 -1      2910 1.41856E-02 1.00111E-04-7.99248E-14
 -1      2911 6.88566E-04-2.04081E-04-3.74782E-16
 -1      2912 1.46075E-02-2.19450E-04-8.06109E-14
 -1      2913 1.45835E-02-1.93245E-04-8.05259E-14
 -1      2914 1.05131E-02 6.68372E-04-5.01897E-14
 -1      2915 1.06711E-02 7.55223E-04-5.10621E-14
 -1      2916 1.44704E-02-1.05768E-04-8.02736E-14
 -1      2917 1.44225E-02-7.28158E-05-8.01897E-14
 -1      2918 1.46308E-02-2.69517E-04-8.07815E-14
 -1      2919 1.46234E-02-2.44546E-04-8.06985E-14
 -1      2920 1.45059E-02-2.24256E-04-7.93913E-14
 -1      2921 1.45521E-02-1.65889E-04-8.04391E-14
 -1      2922 1.45140E-02-1.36703E-04-8.03557E-14
 -1      2923 1.43760E-02-1.09439E-04-7.90440E-14
 -1      2924 1.44556E-02-1.70329E-04-7.92167E-14
 -1      2925 1.46211E-02-3.19431E-04-8.09467E-14
 -1      2926 1.46299E-02-2.94018E-04-8.08651E-14
 -1      2927 1.45210E-02-2.74761E-04-7.95610E-14
 -1      2928 1.45816E-02-3.74892E-04-8.11077E-14
 -1      2929 1.46046E-02-3.46277E-04-8.10276E-14
 -1      2930 1.45011E-02-3.27218E-04-7.97236E-14
 -1      2931 1.45204E-02-4.37585E-04-8.12681E-14
 -1      2932 1.45531E-02-4.05208E-04-8.11884E-14
 -1      2933 1.44515E-02-3.86412E-04-7.98840E-14
 -1      2934 1.44937E-02-4.88632E-04-8.16575E-14
 -1      2935 1.70109E-03 4.40586E-04-1.45816E-15
 -1      2936 1.55864E-03 4.25731E-04-1.22463E-15
 -1      2937 1.76205E-03 4.11253E-04-1.62873E-15
 -1      2938 8.33581E-04-2.63994E-04-4.94871E-16
 -1      2939 9.65145E-04-2.98931E-04-6.32442E-16
 -1      2940 1.10818E-03-3.26718E-04-8.08625E-16
 -1      2941 8.14031E-04-2.12362E-04-5.08328E-16
 -1      2942 1.41598E-03 4.07923E-04-1.01205E-15
 -1      2943 1.27294E-03 3.86900E-04-8.20782E-16
 -1      2944 1.18963E-03 3.41581E-04-7.65365E-16
 -1      2945 1.47605E-03 3.82269E-04-1.15447E-15
 -1      2946 1.21742E-02-8.37278E-04-6.14809E-14
 -1      2947 1.19881E-02-9.52655E-04-6.05641E-14
 -1      2948 1.02084E-02 4.94582E-04-4.87278E-14
 -1      2949 1.03648E-02 5.85106E-04-4.94593E-14
 -1      2950 1.04274E-02 6.51066E-04-4.94347E-14
 -1      2951 8.94098E-03-9.90626E-05-4.53082E-14
 -1      2952 8.90463E-03-9.02865E-05-4.51888E-14
 -1      2953 2.55254E-03 4.88195E-04-3.30932E-15
 -1      2954 2.41081E-03 4.83920E-04-2.94791E-15
 -1      2955 2.33265E-03 4.44634E-04-2.83165E-15
 -1      2956 2.61752E-03 4.53046E-04-3.55995E-15
 -1      2957 1.27384E-02 1.26730E-04-6.28572E-14
 -1      2958 1.29165E-02 4.45714E-05-6.34996E-14
 -1      2959 7.84431E-04 1.23515E-04-4.65746E-16
 -1      2960 7.82055E-04 1.00070E-04-4.75545E-16
 -1      2961 8.99684E-04 9.94940E-05-6.08305E-16
 -1      2962 9.05397E-04 1.51652E-04-5.84670E-16
 -1      2963 9.74948E-03 2.42267E-04-4.70486E-14
 -1      2964 9.95668E-03 3.52013E-04-4.77504E-14
 -1      2965 7.81794E-04-9.80098E-05-5.12069E-16
 -1      2966 7.84092E-04-1.21371E-04-5.10646E-16
 -1      2967 1.29401E-02-4.18153E-04-6.43044E-14
 -1      2968 1.27623E-02-5.02706E-04-6.37419E-14
 -1      2969 1.12126E-02 8.89864E-04-5.46733E-14
 -1      2970 1.13567E-02 8.65974E-04-5.57135E-14
 -1      2971 9.18113E-03-1.65327E-04-4.62002E-14
 -1      2972 9.04141E-03-1.25961E-04-4.57291E-14
 -1      2973 8.90012E-03-8.09720E-05-4.52451E-14
 -1      2974 8.91984E-03-7.40673E-05-4.52240E-14
 -1      2975 9.32943E-03 6.06374E-05-4.57598E-14
 -1      2976 9.52294E-03 1.36769E-04-4.63336E-14
 -1      2977 1.34712E-02-1.48060E-04-6.56673E-14
 -1      2978 1.35332E-02-1.62682E-04-6.58838E-14
 -1      2979 1.08690E-02 8.36137E-04-5.23060E-14
 -1      2980 1.10346E-02 8.81193E-04-5.34291E-14
 -1      2981 9.53055E-03-3.01269E-04-4.72439E-14
 -1      2982 9.35673E-03-2.29488E-04-4.67029E-14
 -1      2983 1.07435E-02-1.00845E-03-5.23909E-14
 -1      2984 1.05720E-02-9.07337E-04-5.13678E-14
 -1      2985 9.89077E-03-4.84145E-04-4.84567E-14
 -1      2986 9.73381E-03-4.01412E-04-4.78637E-14
 -1      2987 1.03579E-02-7.68770E-04-5.03621E-14
 -1      2988 1.01368E-02-6.25854E-04-4.94491E-14
 -1      2989 1.00202E-02-5.81507E-04-4.85644E-14
 -1      2990 1.04535E-02-8.53762E-04-5.05559E-14
 -1      2991 1.14223E-02-1.18645E-03-5.69625E-14
 -1      2992 1.12588E-02-1.19223E-03-5.57802E-14
 -1      2993 1.17833E-02-1.06540E-03-5.94203E-14
 -1      2994 1.16111E-02-1.13934E-03-5.82661E-14
 -1      2995 1.18980E-02 6.06835E-04-5.90639E-14
 -1      2996 1.20973E-02 4.87278E-04-6.01656E-14
 -1      2997 1.25559E-02-6.09280E-04-6.29655E-14
 -1      2998 1.23744E-02-7.14495E-04-6.22730E-14
 -1      2999 1.32945E-02-2.71388E-04-6.48925E-14
 -1      3000 1.31478E-02-3.26787E-04-6.47228E-14
 -1      3001 1.15507E-02 7.99120E-04-5.70388E-14
 -1      3002 1.17144E-02 7.12876E-04-5.80470E-14
 -1      3003 1.18125E-02 6.71783E-04-5.88087E-14
 -1      3004 7.87151E-04-1.45544E-04-5.07691E-16
 -1      3005 7.91027E-04-1.70745E-04-5.02785E-16
 -1      3006 9.04944E-04-1.49138E-04-6.44965E-16
 -1      3007 1.35867E-02-1.73101E-04-6.64710E-14
 -1      3008 8.95567E-04 1.00903E-06-6.38270E-16
 -1      3009 7.77711E-04-9.72649E-06-5.06106E-16
 -1      3010 7.78073E-04-3.13843E-05-5.09331E-16
 -1      3011 1.22255E-02 4.20914E-04-6.10349E-14
 -1      3012 1.23529E-02 3.63076E-04-6.19085E-14
 -1      3013 1.21167E-02 5.03367E-04-6.06980E-14
 -1      3014 1.30548E-02-7.29214E-06-6.43495E-14
 -1      3015 1.31828E-02-4.53621E-05-6.52040E-14
 -1      3016 1.29927E-02 3.46198E-05-6.46254E-14
 -1      3017 1.23046E-02-7.83015E-04-6.23929E-14
 -1      3018 8.64830E-04 2.66631E-04-4.36961E-16
 -1      3019 1.36110E-02-1.95710E-04-6.65788E-14
 -1      3020 1.35712E-02-1.99632E-04-6.59733E-14
 -1      3021 1.35502E-02-2.11666E-04-6.62993E-14
 -1      3022 1.00572E-02 4.38071E-04-4.77338E-14
 -1      3023 1.16984E-03-3.07006E-04-9.21274E-16
 -1      3024 1.11075E-02-1.19444E-03-5.46978E-14
 -1      3025 1.11865E-02-1.19527E-03-5.52904E-14
 -1      3026 1.10573E-02-1.15434E-03-5.43936E-14
 -1      3027 1.09325E-02-1.14177E-03-5.34203E-14
 -1      3028 1.26659E-02 1.77510E-04-6.30080E-14
 -1      3029 1.09321E-02-1.10119E-03-5.35636E-14
 -1      3030 8.87308E-03-8.29216E-05-4.45644E-14
 -1      3031 1.42396E-02 6.04215E-05-8.00098E-14
 -1      3032 1.41160E-02 8.79585E-05-7.88420E-14
 -1      3033 1.42938E-02 2.19704E-05-8.00939E-14
 -1      3034 1.14594E-02 8.41230E-04-5.64594E-14
 -1      3035 1.07533E-02 8.09200E-04-5.14016E-14
 -1      3036 1.11077E-02 8.95665E-04-5.38862E-14
 -1      3037 1.33842E-02-2.54230E-04-6.56414E-14
 -1      3038 9.60179E-03 2.00630E-04-4.60517E-14
 -1      3039 1.43141E-02-5.00275E-04-7.99334E-14
 -1      3040 1.44478E-02-4.63715E-04-8.08497E-14
 -1      3041 1.43457E-02-4.45017E-04-7.95476E-14
 -1      3042 1.41914E-02-5.03450E-04-7.87171E-14
 -1      3043 1.30850E-02-3.72238E-04-6.51707E-14
 -1      3044 1.26936E-02-5.60675E-04-6.39685E-14
 -1      3045 1.15538E-02-1.17246E-03-5.79883E-14
 -1      3046 1.34114E-02-1.26049E-04-6.58074E-14
 -1      3047 1.08213E-02-1.07091E-03-5.27299E-14
 -1      3048 9.59878E-03-3.52424E-04-4.69608E-14
 -1      3049 9.20349E-03 2.22893E-05-4.52048E-14
 -1      3050 9.26437E-03 6.88262E-05-4.47897E-14
 -1      3051 9.09160E-03-2.81535E-06-4.46522E-14
 -1      3052 9.23750E-03-1.96491E-04-4.58453E-14
 -1      3053 8.93714E-03-6.09424E-05-4.48416E-14
 -1      3054 8.96280E-03-4.44925E-05-4.44596E-14
 -1      3055 8.88661E-03-6.24990E-05-4.42388E-14
 -1      3056 8.96801E-03-1.12539E-04-4.49259E-14
 -1      3057 1.43857E-02-4.45246E-05-8.01840E-14
 -1      3058 1.43332E-02-8.66726E-06-8.00992E-14
 -1      3059 1.42118E-02 1.51991E-05-7.89380E-14
 -1      3060 1.42907E-02-4.66481E-05-7.89520E-14
 -1      3061 7.78846E-04-5.31795E-05-5.11378E-16
 -1      3062 7.80059E-04-7.53756E-05-5.12164E-16
 -1      3063 8.99399E-04-9.71445E-05-6.48312E-16
 -1      3064 8.96456E-04-4.75542E-05-6.45751E-16
 -1      3065 9.82929E-04 2.75871E-04-5.68827E-16
 -1      3066 1.19224E-02-1.01342E-03-6.04439E-14
 -1      3067 1.04029E-03 2.43354E-04-6.76664E-16
 -1      3068 1.03369E-03 2.11623E-04-6.98023E-16
 -1      3069 9.89282E-03 3.88149E-04-4.65656E-14
 -1      3070 1.01144E-02 5.12639E-04-4.75311E-14
 -1      3071 1.73169E-03-3.40514E-04-1.90834E-15
 -1      3072 1.87536E-03-3.50701E-04-2.20824E-15
 -1      3073 2.01902E-03-3.59155E-04-2.53072E-15
 -1      3074 2.16267E-03-3.66038E-04-2.87436E-15
 -1      3075 1.94023E-03-3.19366E-04-2.37873E-15
 -1      3076 2.30628E-03-3.71623E-04-3.23943E-15
 -1      3077 2.44983E-03-3.76033E-04-3.62640E-15
 -1      3078 2.22828E-03-3.32404E-04-3.06550E-15
 -1      3079 2.59333E-03-3.79488E-04-4.03520E-15
 -1      3080 2.73677E-03-3.82084E-04-4.46527E-15
 -1      3081 2.51627E-03-3.40795E-04-3.83846E-15
 -1      3082 2.88016E-03-3.83989E-04-4.91534E-15
 -1      3083 3.02349E-03-3.85277E-04-5.38632E-15
 -1      3084 2.80406E-03-3.45758E-04-4.69594E-15
 -1      3085 3.16678E-03-3.86071E-04-5.87845E-15
 -1      3086 3.31002E-03-3.86424E-04-6.39037E-15
 -1      3087 3.09157E-03-3.48235E-04-5.63608E-15
 -1      3088 3.45323E-03-3.86425E-04-6.92250E-15
 -1      3089 3.59638E-03-3.86109E-04-7.47468E-15
 -1      3090 3.37881E-03-3.48933E-04-6.65807E-15
 -1      3091 3.73951E-03-3.85536E-04-8.04637E-15
 -1      3092 3.88261E-03-3.84729E-04-8.63693E-15
 -1      3093 3.66577E-03-3.48354E-04-7.75959E-15
 -1      3094 4.02567E-03-3.83725E-04-9.24602E-15
 -1      3095 4.16871E-03-3.82536E-04-9.87390E-15
 -1      3096 3.95247E-03-3.46838E-04-8.93839E-15
 -1      3097 4.31173E-03-3.81182E-04-1.05200E-14
 -1      3098 4.45471E-03-3.79667E-04-1.11833E-14
 -1      3099 4.23894E-03-3.44593E-04-1.01912E-14
 -1      3100 4.59768E-03-3.77997E-04-1.18630E-14
 -1      3101 4.74062E-03-3.76170E-04-1.25610E-14
 -1      3102 4.52516E-03-3.41726E-04-1.15156E-14
 -1      3103 4.88354E-03-3.74184E-04-1.32775E-14
 -1      3104 5.02644E-03-3.72030E-04-1.40097E-14
 -1      3105 4.81115E-03-3.38268E-04-1.29092E-14
 -1      3106 5.16930E-03-3.69702E-04-1.47593E-14
 -1      3107 5.31215E-03-3.67188E-04-1.55280E-14
 -1      3108 5.09688E-03-3.34191E-04-1.43732E-14
 -1      3109 5.45495E-03-3.64479E-04-1.63133E-14
 -1      3110 5.59772E-03-3.61564E-04-1.71158E-14
 -1      3111 5.38230E-03-3.29436E-04-1.59068E-14
 -1      3112 5.74045E-03-3.58435E-04-1.79361E-14
 -1      3113 5.88313E-03-3.55083E-04-1.87736E-14
 -1      3114 5.66737E-03-3.23926E-04-1.75104E-14
 -1      3115 6.02575E-03-3.51508E-04-1.96292E-14
 -1      3116 6.16832E-03-3.47703E-04-2.05022E-14
 -1      3117 5.95199E-03-3.17598E-04-1.91851E-14
 -1      3118 6.31080E-03-3.43685E-04-2.13930E-14
 -1      3119 6.45321E-03-3.39454E-04-2.23009E-14
 -1      3120 6.23603E-03-3.10425E-04-2.09296E-14
 -1      3121 6.59550E-03-3.35049E-04-2.32256E-14
 -1      3122 6.73772E-03-3.30482E-04-2.41659E-14
 -1      3123 6.51934E-03-3.02458E-04-2.27432E-14
 -1      3124 6.87979E-03-3.25826E-04-2.51230E-14
 -1      3125 7.02176E-03-3.21114E-04-2.60963E-14
 -1      3126 6.80175E-03-2.93864E-04-2.46225E-14
 -1      3127 7.16357E-03-3.16461E-04-2.70859E-14
 -1      3128 7.30529E-03-3.11928E-04-2.80906E-14
 -1      3129 7.08305E-03-2.84984E-04-2.65676E-14
 -1      3130 7.44684E-03-3.07689E-04-2.91090E-14
 -1      3131 7.58836E-03-3.03847E-04-3.01445E-14
 -1      3132 7.36308E-03-2.76392E-04-2.85734E-14
 -1      3133 7.72976E-03-3.00638E-04-3.11944E-14
 -1      3134 7.87125E-03-2.98235E-04-3.22568E-14
 -1      3135 7.64179E-03-2.68966E-04-3.06407E-14
 -1      3136 8.01280E-03-2.96937E-04-3.33326E-14
 -1      3137 8.15473E-03-2.97033E-04-3.44237E-14
 -1      3138 7.91936E-03-2.63956E-04-3.27633E-14
 -1      3139 8.29711E-03-2.98863E-04-3.55267E-14
 -1      3140 8.44044E-03-3.02931E-04-3.66417E-14
 -1      3141 8.19652E-03-2.63076E-04-3.49394E-14
 -1      3142 8.58497E-03-3.09575E-04-3.77682E-14
 -1      3143 8.73145E-03-3.19691E-04-3.89061E-14
 -1      3144 8.47498E-03-2.68663E-04-3.71643E-14
 -1      3145 8.88047E-03-3.33548E-04-4.00553E-14
 -1      3146 9.03303E-03-3.52779E-04-4.12151E-14
 -1      3147 8.75813E-03-2.84049E-04-3.94373E-14
 -1      3148 9.19035E-03-3.77511E-04-4.23876E-14
 -1      3149 9.35341E-03-4.10852E-04-4.35723E-14
 -1      3150 9.05207E-03-3.14467E-04-4.17547E-14
 -1      3151 9.52431E-03-4.52593E-04-4.47645E-14
 -1      3152 9.70280E-03-5.07318E-04-4.59684E-14
 -1      3153 9.36722E-03-3.69424E-04-4.41185E-14
 -1      3154 1.02512E-02-7.47156E-04-4.93164E-14
 -1      3155 1.26088E-02 2.28554E-04-6.32257E-14
 -1      3156 1.27845E-02 1.38953E-04-6.39933E-14
 -1      3157 1.32357E-02-3.35839E-04-6.62831E-14
 -1      3158 1.30569E-02-4.15229E-04-6.58595E-14
 -1      3159 1.26607E-02-6.90263E-04-6.53126E-14
 -1      3160 1.28474E-02-6.35475E-04-6.66927E-14
 -1      3161 1.30270E-02-5.94553E-04-6.80796E-14
 -1      3162 1.31979E-02-5.63282E-04-6.94740E-14
 -1      3163 1.30063E-02-5.46886E-04-6.73213E-14
 -1      3164 1.33623E-02-5.41659E-04-7.08745E-14
 -1      3165 1.35208E-02-5.26029E-04-7.22795E-14
 -1      3166 1.33413E-02-4.96137E-04-7.01099E-14
 -1      3167 1.36749E-02-5.16095E-04-7.36941E-14
 -1      3168 1.38255E-02-5.09611E-04-7.51184E-14
 -1      3169 1.36497E-02-4.74439E-04-7.29250E-14
 -1      3170 9.66346E-03-4.27298E-04-4.64434E-14
 -1      3171 9.49105E-03-3.38485E-04-4.58328E-14
 -1      3172 3.25493E-03 4.23136E-04-5.57443E-15
 -1      3173 3.11207E-03 4.22527E-04-5.10319E-15
 -1      3174 2.96918E-03 4.21427E-04-4.65231E-15
 -1      3175 2.82627E-03 4.19778E-04-4.22290E-15
 -1      3176 3.03666E-03 3.84668E-04-4.93537E-15
 -1      3177 3.82631E-03 4.22128E-04-7.66244E-15
 -1      3178 3.68348E-03 4.22802E-04-7.11001E-15
 -1      3179 4.11199E-03 4.20153E-04-8.82669E-15
 -1      3180 3.96915E-03 4.21240E-04-8.23522E-15
 -1      3181 3.89591E-03 3.84357E-04-8.01675E-15
 -1      3182 4.39769E-03 4.17460E-04-1.00689E-14
 -1      3183 4.25484E-03 4.18891E-04-9.43795E-15
 -1      3184 4.18204E-03 3.82282E-04-9.20298E-15
 -1      3185 4.68344E-03 4.14120E-04-1.13871E-14
 -1      3186 4.54056E-03 4.15870E-04-1.07190E-14
 -1      3187 4.46805E-03 3.79541E-04-1.04674E-14
 -1      3188 4.96923E-03 4.10133E-04-1.27803E-14
 -1      3189 4.82633E-03 4.12209E-04-1.20739E-14
 -1      3190 4.75396E-03 3.76185E-04-1.18072E-14
 -1      3191 5.25510E-03 4.05453E-04-1.42465E-14
 -1      3192 5.11215E-03 4.07883E-04-1.35041E-14
 -1      3193 5.03977E-03 3.72198E-04-1.32198E-14
 -1      3194 5.54104E-03 4.00011E-04-1.57877E-14
 -1      3195 5.39805E-03 4.02832E-04-1.50080E-14
 -1      3196 5.32547E-03 3.67527E-04-1.47071E-14
 -1      3197 5.82710E-03 3.93745E-04-1.74019E-14
 -1      3198 5.68405E-03 3.96985E-04-1.65863E-14
 -1      3199 5.61105E-03 3.62101E-04-1.62690E-14
 -1      3200 6.11330E-03 3.86623E-04-1.90871E-14
 -1      3201 5.97017E-03 3.90291E-04-1.82355E-14
 -1      3202 5.89650E-03 3.55860E-04-1.79022E-14
 -1      3203 6.39970E-03 3.78690E-04-2.08384E-14
 -1      3204 6.25646E-03 3.82752E-04-1.99550E-14
 -1      3205 6.18181E-03 3.48777E-04-1.96044E-14
 -1      3206 6.68637E-03 3.70114E-04-2.26543E-14
 -1      3207 6.54298E-03 3.74468E-04-2.17384E-14
 -1      3208 6.46697E-03 3.40905E-04-2.13729E-14
 -1      3209 6.97348E-03 3.61247E-04-2.45280E-14
 -1      3210 6.82985E-03 3.65690E-04-2.35836E-14
 -1      3211 6.75202E-03 3.32416E-04-2.32030E-14
 -1      3212 7.26127E-03 3.52708E-04-2.64627E-14
 -1      3213 7.11725E-03 3.56891E-04-2.54888E-14
 -1      3214 7.03707E-03 3.23662E-04-2.50932E-14
 -1      3215 7.55015E-03 3.45468E-04-2.84531E-14
 -1      3216 7.40552E-03 3.48852E-04-2.74503E-14
 -1      3217 7.32231E-03 3.15245E-04-2.70429E-14
 -1      3218 7.84081E-03 3.40966E-04-3.04968E-14
 -1      3219 7.69519E-03 3.42763E-04-2.94686E-14
 -1      3220 7.60820E-03 3.08100E-04-2.90492E-14
 -1      3221 8.13438E-03 3.41233E-04-3.25948E-14
 -1      3222 7.98714E-03 3.40339E-04-3.15387E-14
 -1      3223 7.89551E-03 3.03597E-04-3.11090E-14
 -1      3224 8.43255E-03 3.49035E-04-3.47404E-14
 -1      3225 8.28276E-03 3.43956E-04-3.36618E-14
 -1      3226 8.18556E-03 3.03675E-04-3.32216E-14
 -1      3227 8.73776E-03 3.68019E-04-3.69423E-14
 -1      3228 8.58413E-03 3.56796E-04-3.58350E-14
 -1      3229 8.48047E-03 3.11017E-04-3.53856E-14
 -1      3230 9.05310E-03 4.02828E-04-3.91928E-14
 -1      3231 8.89405E-03 3.83007E-04-3.80621E-14
 -1      3232 8.78335E-03 3.29330E-04-3.76005E-14
 -1      3233 9.38162E-03 4.58890E-04-4.14963E-14
 -1      3234 9.21575E-03 4.27704E-04-4.03378E-14
 -1      3235 9.09831E-03 3.63687E-04-3.98665E-14
 -1      3236 9.72500E-03 5.41466E-04-4.38457E-14
 -1      3237 9.55183E-03 4.96387E-04-4.26649E-14
 -1      3238 9.42953E-03 4.20785E-04-4.21836E-14
 -1      3239 1.00858E-02 6.08153E-04-4.65551E-14
 -1      3240 9.90377E-03 5.47038E-04-4.53491E-14
 -1      3241 1.07795E-02 8.85831E-04-5.11785E-14
 -1      3242 1.06095E-02 8.36320E-04-4.99260E-14
 -1      3243 1.10682E-02 9.20299E-04-5.34537E-14
 -1      3244 1.09007E-02 8.97826E-04-5.21802E-14
 -1      3245 1.13921E-02 8.92828E-04-5.60011E-14
 -1      3246 1.12256E-02 9.19996E-04-5.47022E-14
 -1      3247 1.21212E-02 6.35932E-04-6.16509E-14
 -1      3248 1.19438E-02 7.09223E-04-6.02986E-14
 -1      3249 1.24777E-02 4.96963E-04-6.43918E-14
 -1      3250 1.23005E-02 5.63817E-04-6.30144E-14
 -1      3251 1.22533E-02 5.42735E-04-6.24291E-14
 -1      3252 1.28251E-02 3.81874E-04-6.71800E-14
 -1      3253 1.26534E-02 4.36173E-04-6.57810E-14
 -1      3254 1.26169E-02 4.06467E-04-6.51805E-14
 -1      3255 1.31581E-02 2.91901E-04-7.00075E-14
 -1      3256 1.29938E-02 3.34191E-04-6.85887E-14
 -1      3257 1.29648E-02 3.01460E-04-6.79763E-14
 -1      3258 1.34765E-02 2.21372E-04-7.28768E-14
 -1      3259 1.33191E-02 2.54778E-04-7.14366E-14
 -1      3260 1.32941E-02 2.22660E-04-7.08106E-14
 -1      3261 1.37830E-02 1.63057E-04-7.57793E-14
 -1      3262 1.36311E-02 1.91228E-04-7.43228E-14
 -1      3263 1.36074E-02 1.61541E-04-7.36827E-14
 -1      3264 1.40137E-02 1.10541E-04-7.78856E-14
 -1      3265 1.38875E-02 1.39081E-04-7.67284E-14
 -1      3266 1.38641E-02 1.12036E-04-7.60776E-14
 -1      3267 1.40699E-02 6.85635E-05-7.79772E-14
 -1      3268 1.43185E-02-3.98871E-04-7.86629E-14
 -1      3269 1.43518E-02-3.65983E-04-7.85830E-14
 -1      3270 1.44053E-02-2.29929E-04-7.81735E-14
 -1      3271 1.43878E-02-2.03664E-04-7.80869E-14
 -1      3272 9.45600E-03 1.74055E-04-4.49186E-14
 -1      3273 9.65410E-03 2.65630E-04-4.56238E-14
 -1      3274 1.82454E-03 3.81196E-04-1.80307E-15
 -1      3275 1.68119E-03 3.69627E-04-1.54184E-15
 -1      3276 9.32154E-04-2.20518E-04-6.48516E-16
 -1      3277 1.14132E-03-2.54867E-04-9.18197E-16
 -1      3278 1.35245E-03-2.83654E-04-1.23623E-15
 -1      3279 1.11647E-03-2.05853E-04-9.08954E-16
 -1      3280 1.03227E-02 6.27392E-04-4.85829E-14
 -1      3281 1.04532E-02 6.98888E-04-4.93081E-14
 -1      3282 1.43793E-02-3.35558E-04-7.85039E-14
 -1      3283 1.43994E-02-3.07031E-04-7.84224E-14
 -1      3284 1.42544E-02-3.44761E-04-7.72921E-14
 -1      3285 9.26952E-03-2.28203E-04-4.52961E-14
 -1      3286 9.11651E-03-1.71934E-04-4.47989E-14
 -1      3287 3.54063E-03 4.23219E-04-6.57761E-15
 -1      3288 3.39779E-03 4.23352E-04-6.06565E-15
 -1      3289 3.32325E-03 3.85868E-04-5.88139E-15
 -1      3290 3.60965E-03 3.85635E-04-6.90854E-15
 -1      3291 1.44108E-02-2.80655E-04-7.83418E-14
 -1      3292 1.44128E-02-2.55128E-04-7.82588E-14
 -1      3293 1.43049E-02-2.35453E-04-7.69603E-14
 -1      3294 1.42994E-02-2.86860E-04-7.71286E-14
 -1      3295 2.11105E-03 3.98715E-04-2.38889E-15
 -1      3296 1.96782E-03 3.90835E-04-2.08572E-15
 -1      3297 1.88828E-03 3.50466E-04-1.98206E-15
 -1      3298 1.36273E-02-1.73042E-04-6.75973E-14
 -1      3299 1.36467E-02-1.86719E-04-6.73764E-14
 -1      3300 8.99168E-03-1.30643E-04-4.43848E-14
 -1      3301 8.89428E-03-1.05016E-04-4.39702E-14
 -1      3302 9.01018E-03-1.56081E-04-4.38427E-14
 -1      3303 1.14499E-03 3.10656E-04-7.42665E-16
 -1      3304 1.08235E-03 2.71721E-04-7.02563E-16
 -1      3305 1.20145E-03 2.73135E-04-8.68012E-16
 -1      3306 1.28815E-03 3.32628E-04-9.23835E-16
 -1      3307 1.34771E-02-2.39766E-04-6.64600E-14
 -1      3308 1.33831E-02-2.72959E-04-6.64100E-14
 -1      3309 1.47011E-03-3.06475E-04-1.42640E-15
 -1      3310 1.61367E-03-3.20180E-04-1.68698E-15
 -1      3311 1.67837E-03-2.91734E-04-1.83635E-15
 -1      3312 1.44327E-03-2.51790E-04-1.41525E-15
 -1      3313 1.15631E-02 8.35438E-04-5.73341E-14
 -1      3314 1.01667E-03 6.82353E-05-7.69065E-16
 -1      3315 1.01551E-03 4.12410E-05-7.77969E-16
 -1      3316 8.84218E-03-8.27677E-05-4.38552E-14
 -1      3317 8.84259E-03-7.43271E-05-4.39106E-14
 -1      3318 1.33568E-02-1.00589E-04-6.60866E-14
 -1      3319 1.35014E-02-1.36073E-04-6.69707E-14
 -1      3320 1.33045E-02-6.83503E-05-6.63659E-14
 -1      3321 1.28459E-02-5.28927E-04-6.53436E-14
 -1      3322 1.26650E-02-6.19682E-04-6.45593E-14
 -1      3323 1.17703E-02 7.15883E-04-5.87010E-14
 -1      3324 1.19320E-02 6.20563E-04-5.97251E-14
 -1      3325 1.01491E-03 1.44528E-05-7.85342E-16
 -1      3326 1.01488E-03-1.22368E-05-7.91400E-16
 -1      3327 1.13561E-03 3.01760E-05-9.46969E-16
 -1      3328 1.20569E-02 5.63222E-04-6.05924E-14
 -1      3329 1.35558E-02-2.28280E-04-6.70701E-14
 -1      3330 1.01510E-02 5.71961E-04-4.74043E-14
 -1      3331 1.29262E-02 8.39514E-05-6.48442E-14
 -1      3332 1.30620E-02 3.91616E-05-6.57013E-14
 -1      3333 1.28736E-02 1.34875E-04-6.50652E-14
 -1      3334 1.36629E-02-1.95514E-04-6.77058E-14
 -1      3335 8.83112E-03-9.34479E-05-4.33235E-14
 -1      3336 8.77759E-03-8.42667E-05-4.26762E-14
 -1      3337 8.82788E-03-1.07840E-04-4.27890E-14
 -1      3338 9.72454E-03 3.44916E-04-4.54257E-14
 -1      3339 9.84426E-03-5.33900E-04-4.71041E-14
 -1      3340 1.33544E-02-3.11819E-04-6.71035E-14
 -1      3341 1.00389E-02-6.17517E-04-4.83258E-14
 -1      3342 1.24859E-02 3.10284E-04-6.28876E-14
 -1      3343 1.26159E-02 2.67987E-04-6.38728E-14
 -1      3344 1.23774E-02 3.91789E-04-6.25479E-14
 -1      3345 1.30174E-02-4.77499E-04-6.64569E-14
 -1      3346 9.33604E-03-2.97195E-04-4.47861E-14
 -1      3347 1.39225E-02-4.65854E-04-7.55341E-14
 -1      3348 1.39522E-02-5.04013E-04-7.63135E-14
 -1      3349 1.40771E-02-4.99851E-04-7.75149E-14
 -1      3350 1.24640E-02-7.23042E-04-6.35587E-14
 -1      3351 1.22883E-02-8.32814E-04-6.27582E-14
 -1      3352 2.74988E-03 3.81463E-04-4.07159E-15
 -1      3353 2.68332E-03 4.17441E-04-3.81403E-15
 -1      3354 2.54033E-03 4.14335E-04-3.42624E-15
 -1      3355 1.04472E-02 7.68846E-04-4.88250E-14
 -1      3356 1.02692E-02 7.04577E-04-4.75962E-14
 -1      3357 1.08109E-02 8.50753E-04-5.16518E-14
 -1      3358 1.16413E-02 8.33497E-04-5.79861E-14
 -1      3359 1.17233E-02 7.52760E-04-5.84522E-14
 -1      3360 1.19310E-02 6.86236E-04-6.00899E-14
 -1      3361 1.18130E-02 7.68644E-04-5.93184E-14
 -1      3362 1.42355E-02-4.39152E-04-7.83403E-14
 -1      3363 1.41364E-02-4.17990E-04-7.70527E-14
 -1      3364 2.25420E-03 4.05148E-04-2.71354E-15
 -1      3365 2.17565E-03 3.65582E-04-2.59504E-15
 -1      3366 2.39729E-03 4.10273E-04-3.05962E-15
 -1      3367 1.42680E-02-1.82976E-04-7.67896E-14
 -1      3368 1.43609E-02-1.76331E-04-7.80012E-14
 -1      3369 1.43256E-02-1.46877E-04-7.79130E-14
 -1      3370 1.42830E-02-1.15277E-04-7.78261E-14
 -1      3371 1.42348E-02-8.10886E-05-7.77401E-14
 -1      3372 1.41923E-02-1.22533E-04-7.66157E-14
 -1      3373 1.01819E-03-9.30422E-05-8.00656E-16
 -1      3374 1.02055E-03-1.20780E-04-8.00710E-16
 -1      3375 1.41047E-02-5.76517E-05-7.65165E-14
 -1      3376 1.41968E-02-5.11699E-05-7.77303E-14
 -1      3377 1.41570E-02-1.97775E-05-7.77209E-14
 -1      3378 1.05205E-02 7.58375E-04-4.95504E-14
 -1      3379 1.06304E-02 7.80172E-04-5.04119E-14
 -1      3380 9.32733E-03 1.26389E-04-4.43715E-14
 -1      3381 9.37388E-03 1.87603E-04-4.39494E-14
 -1      3382 9.20494E-03 8.86908E-05-4.38247E-14
 -1      3383 1.21207E-02-9.22889E-04-6.17857E-14
 -1      3384 8.83490E-03-6.31890E-05-4.35352E-14
 -1      3385 8.83640E-03-5.05273E-05-4.31563E-14
 -1      3386 8.78599E-03-6.34322E-05-4.28323E-14
 -1      3387 1.02837E-03 1.81238E-04-7.16427E-16
 -1      3388 1.02422E-03 1.51900E-04-7.32582E-16
 -1      3389 1.15312E-03 2.11893E-04-8.60558E-16
 -1      3390 1.55628E-03 3.61563E-04-1.32555E-15
 -1      3391 1.41292E-03 3.45404E-04-1.10427E-15
 -1      3392 1.36912E-03 3.15182E-04-1.07405E-15
 -1      3393 1.61930E-03 3.33947E-04-1.47935E-15
 -1      3394 1.02093E-03 1.23349E-04-7.46568E-16
 -1      3395 1.01847E-03 9.55670E-05-7.58603E-16
 -1      3396 1.13826E-03 8.86588E-05-9.26017E-16
 -1      3397 1.14384E-03 1.48830E-04-8.97665E-16
 -1      3398 1.36076E-02-1.58663E-04-6.78765E-14
 -1      3399 1.36937E-02-1.74696E-04-6.87868E-14
 -1      3400 1.35802E-02-1.40086E-04-6.81574E-14
 -1      3401 9.00547E-03-1.65269E-05-4.40520E-14
 -1      3402 9.05003E-03 1.83692E-05-4.36417E-14
 -1      3403 8.92871E-03-2.39188E-05-4.34526E-14
 -1      3404 1.22814E-02-8.62455E-04-6.29442E-14
 -1      3405 1.06560E-03-1.46919E-04-8.57197E-16
 -1      3406 1.06957E-03-1.76734E-04-8.53728E-16
 -1      3407 1.27854E-03-2.00143E-04-1.16061E-15
 -1      3408 1.18555E-03-1.42510E-04-1.03273E-15
 -1      3409 2.15053E-03-2.93348E-04-2.89420E-15
 -1      3410 2.29489E-03-2.98204E-04-3.25805E-15
 -1      3411 2.43926E-03-3.02094E-04-3.64387E-15
 -1      3412 2.58358E-03-3.05110E-04-4.05146E-15
 -1      3413 2.36239E-03-2.63488E-04-3.45247E-15
 -1      3414 2.72786E-03-3.07415E-04-4.47883E-15
 -1      3415 2.87207E-03-3.09082E-04-4.92708E-15
 -1      3416 2.65168E-03-2.69036E-04-4.26448E-15
 -1      3417 3.01620E-03-3.10235E-04-5.39677E-15
 -1      3418 3.16024E-03-3.10928E-04-5.88635E-15
 -1      3419 2.94075E-03-2.72120E-04-5.16007E-15
 -1      3420 3.30419E-03-3.11255E-04-6.39622E-15
 -1      3421 3.44805E-03-3.11250E-04-6.92586E-15
 -1      3422 3.22945E-03-2.73419E-04-6.13692E-15
 -1      3423 3.59182E-03-3.10982E-04-7.47549E-15
 -1      3424 3.73550E-03-3.10474E-04-8.04485E-15
 -1      3425 3.51773E-03-2.73436E-04-7.19412E-15
 -1      3426 3.87908E-03-3.09770E-04-8.63254E-15
 -1      3427 4.02258E-03-3.08882E-04-9.23893E-15
 -1      3428 3.80555E-03-2.72523E-04-8.32926E-15
 -1      3429 4.16598E-03-3.07839E-04-9.86471E-15
 -1      3430 4.30929E-03-3.06643E-04-1.05090E-14
 -1      3431 4.09290E-03-2.70913E-04-9.54094E-15
 -1      3432 4.45252E-03-3.05311E-04-1.11694E-14
 -1      3433 4.59565E-03-3.03839E-04-1.18472E-14
 -1      3434 4.37978E-03-2.68736E-04-1.08253E-14
 -1      3435 4.73868E-03-3.02232E-04-1.25434E-14
 -1      3436 4.88161E-03-3.00482E-04-1.32573E-14
 -1      3437 4.66616E-03-2.66051E-04-1.21802E-14
 -1      3438 5.02444E-03-2.98590E-04-1.39878E-14
 -1      3439 5.16715E-03-2.96541E-04-1.47359E-14
 -1      3440 4.95202E-03-2.62860E-04-1.36045E-14
 -1      3441 5.30974E-03-2.94335E-04-1.55020E-14
 -1      3442 5.45219E-03-2.91956E-04-1.62862E-14
 -1      3443 5.23727E-03-2.59127E-04-1.50995E-14
 -1      3444 5.59449E-03-2.89402E-04-1.70874E-14
 -1      3445 5.73663E-03-2.86658E-04-1.79062E-14
 -1      3446 5.52182E-03-2.54796E-04-1.66657E-14
 -1      3447 5.87857E-03-2.83729E-04-1.87424E-14
 -1      3448 6.02031E-03-2.80598E-04-1.95962E-14
 -1      3449 5.80552E-03-2.49811E-04-1.83021E-14
 -1      3450 6.16181E-03-2.77282E-04-2.04675E-14
 -1      3451 6.30306E-03-2.73767E-04-2.13571E-14
 -1      3452 6.08815E-03-2.44136E-04-2.00085E-14
 -1      3453 6.44399E-03-2.70088E-04-2.22637E-14
 -1      3454 6.58462E-03-2.66235E-04-2.31858E-14
 -1      3455 6.36947E-03-2.37783E-04-2.17853E-14
 -1      3456 6.72487E-03-2.62268E-04-2.41240E-14
 -1      3457 6.86473E-03-2.58186E-04-2.50790E-14
 -1      3458 6.64915E-03-2.30838E-04-2.36281E-14
 -1      3459 7.00413E-03-2.54082E-04-2.60498E-14
 -1      3460 7.14308E-03-2.49967E-04-2.70372E-14
 -1      3461 6.92680E-03-2.23499E-04-2.55355E-14
 -1      3462 7.28147E-03-2.45975E-04-2.80396E-14
 -1      3463 7.41937E-03-2.42133E-04-2.90561E-14
 -1      3464 7.20202E-03-2.16110E-04-2.75057E-14
 -1      3465 7.55664E-03-2.38621E-04-3.00889E-14
 -1      3466 7.69340E-03-2.35490E-04-3.11360E-14
 -1      3467 7.47435E-03-2.09187E-04-2.95391E-14
 -1      3468 7.82953E-03-2.32963E-04-3.21949E-14
 -1      3469 7.96523E-03-2.31134E-04-3.32674E-14
 -1      3470 7.74344E-03-2.03440E-04-3.16287E-14
 -1      3471 8.10039E-03-2.30255E-04-3.43545E-14
 -1      3472 8.23540E-03-2.30505E-04-3.54535E-14
 -1      3473 8.00908E-03-1.99770E-04-3.37710E-14
 -1      3474 8.37018E-03-2.32129E-04-3.65629E-14
 -1      3475 8.50547E-03-2.35511E-04-3.76860E-14
 -1      3476 8.27155E-03-1.99272E-04-3.59646E-14
 -1      3477 8.64123E-03-2.40837E-04-3.88213E-14
 -1      3478 8.77883E-03-2.48999E-04-3.99670E-14
 -1      3479 8.53195E-03-2.03341E-04-3.82062E-14
 -1      3480 8.91821E-03-2.60008E-04-4.11244E-14
 -1      3481 9.06197E-03-2.75858E-04-4.22944E-14
 -1      3482 8.79328E-03-2.14147E-04-4.04956E-14
 -1      3483 9.18555E-03-2.69581E-04-4.35951E-14
 -1      3484 1.38995E-02-4.17880E-04-7.46605E-14
 -1      3485 1.40186E-02-4.17422E-04-7.58526E-14
 -1      3486 1.41077E-02-3.74639E-04-7.61702E-14
 -1      3487 1.24767E-02-7.84633E-04-6.43058E-14
 -1      3488 1.33299E-02-4.48677E-04-6.93456E-14
 -1      3489 1.34831E-02-4.37303E-04-7.07470E-14
 -1      3490 1.36233E-02-4.25506E-04-7.19917E-14
 -1      3491 1.37669E-02-4.23305E-04-7.34039E-14
 -1      3492 1.38695E-02-3.73201E-04-7.37162E-14
 -1      3493 1.36113E-02-3.81732E-04-7.12191E-14
 -1      3494 1.34946E-02-2.89138E-04-6.81948E-14
 -1      3495 1.33733E-02-3.43995E-04-6.80677E-14
 -1      3496 4.25222E-03 3.44367E-04-9.58250E-15
 -1      3497 4.10902E-03 3.45510E-04-8.96840E-15
 -1      3498 3.96575E-03 3.46487E-04-8.37344E-15
 -1      3499 3.82242E-03 3.47291E-04-7.79791E-15
 -1      3500 4.03581E-03 3.08570E-04-8.73265E-15
 -1      3501 4.82443E-03 3.38321E-04-1.22285E-14
 -1      3502 4.68147E-03 3.40053E-04-1.15392E-14
 -1      3503 5.11014E-03 3.34397E-04-1.36621E-14
 -1      3504 4.96732E-03 3.36440E-04-1.29362E-14
 -1      3505 4.89483E-03 3.00576E-04-1.26517E-14
 -1      3506 5.39557E-03 3.29806E-04-1.51692E-14
 -1      3507 5.25289E-03 3.32191E-04-1.44060E-14
 -1      3508 5.18035E-03 2.96779E-04-1.41056E-14
 -1      3509 5.68066E-03 3.24477E-04-1.67507E-14
 -1      3510 5.53815E-03 3.27240E-04-1.59507E-14
 -1      3511 5.46539E-03 2.92339E-04-1.56328E-14
 -1      3512 5.96536E-03 3.18349E-04-1.84022E-14
 -1      3513 5.82305E-03 3.21518E-04-1.75679E-14
 -1      3514 5.74987E-03 2.87187E-04-1.72332E-14
 -1      3515 6.24961E-03 3.11404E-04-2.01224E-14
 -1      3516 6.10753E-03 3.14981E-04-1.92535E-14
 -1      3517 6.03369E-03 2.81265E-04-1.89040E-14
 -1      3518 6.53335E-03 3.03695E-04-2.19064E-14
 -1      3519 6.39153E-03 3.07642E-04-2.10068E-14
 -1      3520 6.31672E-03 2.74556E-04-2.06411E-14
 -1      3521 6.81656E-03 2.95392E-04-2.37520E-14
 -1      3522 6.67501E-03 2.99607E-04-2.28229E-14
 -1      3523 6.59887E-03 2.67111E-04-2.24417E-14
 -1      3524 7.09929E-03 2.86829E-04-2.56604E-14
 -1      3525 6.95796E-03 2.91120E-04-2.46982E-14
 -1      3526 6.88003E-03 2.59086E-04-2.43039E-14
 -1      3527 7.38172E-03 2.78572E-04-2.76252E-14
 -1      3528 7.24050E-03 2.82623E-04-2.66350E-14
 -1      3529 7.16021E-03 2.50783E-04-2.62273E-14
 -1      3530 7.66428E-03 2.71483E-04-2.96473E-14
 -1      3531 7.52292E-03 2.74816E-04-2.86291E-14
 -1      3532 7.43955E-03 2.42704E-04-2.82098E-14
 -1      3533 7.94784E-03 2.66822E-04-3.17236E-14
 -1      3534 7.80584E-03 2.68746E-04-3.06790E-14
 -1      3535 7.71846E-03 2.35602E-04-3.02484E-14
 -1      3536 8.23388E-03 2.66377E-04-3.38510E-14
 -1      3537 8.09040E-03 2.65909E-04-3.27805E-14
 -1      3538 7.99783E-03 2.30573E-04-3.23396E-14
 -1      3539 8.52490E-03 2.72702E-04-3.60297E-14
 -1      3540 8.37855E-03 2.68433E-04-3.49338E-14
 -1      3541 8.27930E-03 2.29195E-04-3.44827E-14
 -1      3542 8.82467E-03 2.89524E-04-3.82604E-14
 -1      3543 8.67339E-03 2.79372E-04-3.71391E-14
 -1      3544 8.56568E-03 2.33818E-04-3.66765E-14
 -1      3545 9.13843E-03 3.22440E-04-4.05420E-14
 -1      3546 8.97947E-03 3.03306E-04-3.93948E-14
 -1      3547 8.86143E-03 2.48217E-04-3.89221E-14
 -1      3548 9.47228E-03 3.79747E-04-4.28724E-14
 -1      3549 9.30257E-03 3.47093E-04-4.17004E-14
 -1      3550 9.17300E-03 2.78678E-04-4.12171E-14
 -1      3551 9.77354E-03 4.57933E-04-4.48544E-14
 -1      3552 9.03669E-03-2.11893E-04-4.29500E-14
 -1      3553 9.56909E-03 3.53429E-04-4.39309E-14
 -1      3554 1.41576E-02-4.68344E-04-7.79282E-14
 -1      3555 1.24665E-02 4.10081E-04-6.36663E-14
 -1      3556 1.22777E-02 4.86238E-04-6.23012E-14
 -1      3557 1.34315E-02 1.56863E-04-7.16128E-14
 -1      3558 1.32728E-02 1.87855E-04-7.01870E-14
 -1      3559 1.37379E-02 1.05180E-04-7.44898E-14
 -1      3560 1.35863E-02 1.29953E-04-7.30478E-14
 -1      3561 1.35682E-02 9.61985E-05-7.24138E-14
 -1      3562 1.01540E-03-3.89556E-05-7.96103E-16
 -1      3563 1.01648E-03-6.58101E-05-7.99193E-16
 -1      3564 1.13801E-03-8.60247E-05-9.68721E-16
 -1      3565 1.37344E-02-2.05859E-04-6.90918E-14
 -1      3566 1.36718E-02-2.15539E-04-6.82895E-14
 -1      3567 1.31091E-02 2.23177E-04-6.87718E-14
 -1      3568 1.29403E-02 2.65410E-04-6.73656E-14
 -1      3569 1.32556E-02 1.50050E-04-6.95681E-14
 -1      3570 1.27980E-02 3.02002E-04-6.62012E-14
 -1      3571 1.26185E-02 3.59399E-04-6.48133E-14
 -1      3572 1.26626E-02 2.93732E-04-6.46776E-14
 -1      3573 1.29536E-02 2.14457E-04-6.69898E-14
 -1      3574 1.41457E-02-3.40533E-04-7.60912E-14
 -1      3575 1.41763E-02-3.09437E-04-7.60080E-14
 -1      3576 1.40375E-02-3.36210E-04-7.48944E-14
 -1      3577 1.18405E-02 7.11240E-04-5.93656E-14
 -1      3578 1.95323E-03 3.19027E-04-2.16611E-15
 -1      3579 1.80924E-03 3.10469E-04-1.87806E-15
 -1      3580 4.53845E-03 3.41636E-04-1.08678E-14
 -1      3581 4.39537E-03 3.43076E-04-1.02152E-14
 -1      3582 4.32253E-03 3.06460E-04-9.96390E-15
 -1      3583 4.60888E-03 3.03791E-04-1.12706E-14
 -1      3584 8.97672E-03-1.70034E-04-4.30754E-14
 -1      3585 8.87154E-03-1.33958E-04-4.26690E-14
 -1      3586 8.79162E-03-1.19497E-04-4.20294E-14
 -1      3587 8.87846E-03-1.83070E-04-4.17851E-14
 -1      3588 1.31842E-02-4.48750E-04-6.78460E-14
 -1      3589 3.10476E-03 3.47612E-04-5.22140E-15
 -1      3590 2.96102E-03 3.46621E-04-4.76646E-15
 -1      3591 1.41342E-02 7.27115E-06-7.78520E-14
 -1      3592 1.40928E-02 4.05531E-05-7.78439E-14
 -1      3593 1.39911E-02 6.06786E-05-7.68953E-14
 -1      3594 1.40393E-02 2.82565E-06-7.66340E-14
 -1      3595 1.32434E-02-2.95167E-05-6.65886E-14
 -1      3596 1.34081E-02-8.10119E-05-6.74763E-14
 -1      3597 1.31893E-02 1.42335E-05-6.68125E-14
 -1      3598 1.19791E-02 6.43953E-04-6.03425E-14
 -1      3599 1.86197E-03-2.80018E-04-2.22930E-15
 -1      3600 2.00620E-03-2.87328E-04-2.55115E-15
 -1      3601 2.07315E-03-2.54599E-04-2.72505E-15
 -1      3602 1.36304E-02-2.37999E-04-6.84517E-14
 -1      3603 1.21443E-02 5.37804E-04-6.13239E-14
 -1      3604 1.34986E-02-8.45436E-05-6.86132E-14
 -1      3605 1.35408E-02-1.14880E-04-6.83861E-14
 -1      3606 1.36561E-02-1.39703E-04-6.92980E-14
 -1      3607 1.36551E-02-2.64578E-04-6.94219E-14
 -1      3608 9.10152E-03 6.49948E-05-4.32278E-14
 -1      3609 9.14557E-03 1.17164E-04-4.28133E-14
 -1      3610 9.00516E-03 4.79490E-05-4.26350E-14
 -1      3611 2.81720E-03 3.45105E-04-4.33243E-15
 -1      3612 2.67332E-03 3.43001E-04-3.91942E-15
 -1      3613 2.88521E-03 3.08434E-04-4.59718E-15
 -1      3614 1.26354E-02-6.79348E-04-6.49282E-14
 -1      3615 1.36765E-03-1.83793E-04-1.31386E-15
 -1      3616 1.41510E-03-2.14285E-04-1.38398E-15
 -1      3617 1.42055E-02-2.41214E-04-7.57543E-14
 -1      3618 1.41979E-02-2.16106E-04-7.56686E-14
 -1      3619 2.46287E-03 3.75456E-04-3.29124E-15
 -1      3620 3.74872E-03 3.10045E-04-7.57860E-15
 -1      3621 3.67902E-03 3.47891E-04-7.24193E-15
 -1      3622 3.53556E-03 3.48270E-04-6.70637E-15
 -1      3623 1.25886E-03-7.63665E-05-1.15186E-15
 -1      3624 1.26095E-03-1.07828E-04-1.15435E-15
 -1      3625 1.33445E-02-3.82344E-04-6.84728E-14
 -1      3626 1.29075E-03-1.30767E-04-1.19924E-15
 -1      3627 1.33673E-03-1.59175E-04-1.26902E-15
 -1      3628 1.47324E-03-1.70220E-04-1.50199E-15
 -1      3629 1.41226E-03-1.21085E-04-1.40343E-15
 -1      3630 1.27934E-03 2.42968E-04-1.01706E-15
 -1      3631 1.27323E-03 2.08769E-04-1.04094E-15
 -1      3632 1.40047E-02-6.09679E-05-7.52660E-14
 -1      3633 1.39613E-02-2.75566E-05-7.52532E-14
 -1      3634 1.13554E-03-2.77127E-05-9.61213E-16
 -1      3635 1.38883E-02 8.14313E-05-7.59485E-14
 -1      3636 2.24133E-03 3.31871E-04-2.80506E-15
 -1      3637 2.09727E-03 3.26117E-04-2.47513E-15
 -1      3638 2.01922E-03 2.86905E-04-2.35463E-15
 -1      3639 1.41774E-02-1.90367E-04-7.55836E-14
 -1      3640 1.41459E-02-1.62112E-04-7.54967E-14
 -1      3641 1.40895E-02-1.97174E-04-7.43828E-14
 -1      3642 1.41066E-02-1.31965E-04-7.54259E-14
 -1      3643 1.40574E-02-9.76689E-05-7.53375E-14
 -1      3644 1.39201E-02-7.14893E-05-7.40824E-14
 -1      3645 1.40222E-02-1.41165E-04-7.42262E-14
 -1      3646 1.27667E-02 2.20637E-04-6.50196E-14
 -1      3647 1.34954E-02-3.55223E-04-6.95710E-14
 -1      3648 1.26128E-03 1.10697E-04-1.09660E-15
 -1      3649 1.25908E-03 7.91314E-05-1.11085E-15
 -1      3650 9.30444E-03 2.24482E-04-4.28979E-14
 -1      3651 9.42201E-03 2.70491E-04-4.34354E-14
 -1      3652 1.25762E-03 4.78358E-05-1.12276E-15
 -1      3653 1.25689E-03 1.67566E-05-1.13272E-15
 -1      3654 1.38081E-03 6.71879E-05-1.31220E-15
 -1      3655 1.41975E-02-2.81148E-04-7.59253E-14
 -1      3656 8.71785E-03-8.36438E-05-4.17804E-14
 -1      3657 8.74613E-03-7.26891E-05-4.23066E-14
 -1      3658 8.72454E-03-6.14211E-05-4.19364E-14
 -1      3659 1.29025E-02 1.68562E-04-6.58768E-14
 -1      3660 1.34485E-03 2.92964E-04-1.06321E-15
 -1      3661 1.30250E-03 2.64074E-04-1.03026E-15
 -1      3662 1.42269E-03 2.59376E-04-1.22905E-15
 -1      3663 1.46991E-03 3.03168E-04-1.25644E-15
 -1      3664 1.37797E-02-1.94878E-04-6.98822E-14
 -1      3665 1.38162E-02-2.15240E-04-7.04702E-14
 -1      3666 3.39203E-03 3.48376E-04-6.19109E-15
 -1      3667 3.24843E-03 3.48182E-04-5.69625E-15
 -1      3668 3.17342E-03 3.10323E-04-5.51012E-15
 -1      3669 3.46126E-03 3.10721E-04-6.50399E-15
 -1      3670 1.73087E-03 2.71046E-04-1.77335E-15
 -1      3671 1.66538E-03 3.00173E-04-1.61079E-15
 -1      3672 1.53993E-03 2.93444E-04-1.39020E-15
 -1      3673 8.85222E-03-2.89616E-05-4.27547E-14
 -1      3674 8.87457E-03-2.26702E-06-4.23515E-14
 -1      3675 8.78191E-03-3.13942E-05-4.20599E-14
 -1      3676 1.37842E-02-1.82784E-04-7.01650E-14
 -1      3677 1.53199E-03-2.33412E-04-1.58640E-15
 -1      3678 1.63795E-03-2.48169E-04-1.78174E-15
 -1      3679 1.75558E-03-2.66331E-04-2.00961E-15
 -1      3680 1.82229E-03-2.35967E-04-2.16568E-15
 -1      3681 1.61012E-03-2.09516E-04-1.74448E-15
 -1      3682 1.38681E-02 5.22129E-05-7.53029E-14
 -1      3683 1.38944E-02 2.13042E-05-7.51771E-14
 -1      3684 1.37900E-02 1.99040E-05-7.39308E-14
 -1      3685 2.57567E-03-2.30715E-04-4.05368E-15
 -1      3686 2.72054E-03-2.32576E-04-4.47922E-15
 -1      3687 2.86535E-03-2.33949E-04-4.92558E-15
 -1      3688 3.01007E-03-2.34880E-04-5.39339E-15
 -1      3689 2.79009E-03-1.95786E-04-4.69516E-15
 -1      3690 3.15470E-03-2.35460E-04-5.88077E-15
 -1      3691 3.29920E-03-2.35720E-04-6.38805E-15
 -1      3692 3.07999E-03-1.97421E-04-5.62687E-15
 -1      3693 3.44358E-03-2.35730E-04-6.91511E-15
 -1      3694 3.58782E-03-2.35507E-04-7.46193E-15
 -1      3695 3.36942E-03-1.97891E-04-6.63903E-15
 -1      3696 3.73193E-03-2.35103E-04-8.02914E-15
 -1      3697 3.87591E-03-2.34525E-04-8.61392E-15
 -1      3698 3.65829E-03-1.97520E-04-7.73074E-15
 -1      3699 4.01974E-03-2.33809E-04-9.21866E-15
 -1      3700 4.16343E-03-2.32956E-04-9.84250E-15
 -1      3701 3.94655E-03-1.96530E-04-8.89982E-15
 -1      3702 4.30698E-03-2.31988E-04-1.04837E-14
 -1      3703 4.45038E-03-2.30901E-04-1.11422E-14
 -1      3704 4.23416E-03-1.95060E-04-1.01437E-14
 -1      3705 4.59363E-03-2.29707E-04-1.18176E-14
 -1      3706 4.73672E-03-2.28398E-04-1.25119E-14
 -1      3707 4.52110E-03-1.93182E-04-1.14583E-14
 -1      3708 4.87964E-03-2.26980E-04-1.32246E-14
 -1      3709 5.02238E-03-2.25440E-04-1.39535E-14
 -1      3710 4.80731E-03-1.90921E-04-1.28447E-14
 -1      3711 5.16493E-03-2.23784E-04-1.46999E-14
 -1      3712 5.30727E-03-2.21994E-04-1.54642E-14
 -1      3713 5.09270E-03-1.88266E-04-1.43025E-14
 -1      3714 5.44938E-03-2.20075E-04-1.62461E-14
 -1      3715 5.59125E-03-2.18010E-04-1.70465E-14
 -1      3716 5.37716E-03-1.85184E-04-1.58289E-14
 -1      3717 5.73283E-03-2.15806E-04-1.78645E-14
 -1      3718 5.87412E-03-2.13444E-04-1.86987E-14
 -1      3719 5.66050E-03-1.81637E-04-1.74273E-14
 -1      3720 6.01506E-03-2.10942E-04-1.95517E-14
 -1      3721 6.15563E-03-2.08278E-04-2.04222E-14
 -1      3722 5.94249E-03-1.77597E-04-1.90961E-14
 -1      3723 6.29576E-03-2.05485E-04-2.13086E-14
 -1      3724 6.43543E-03-2.02542E-04-2.22129E-14
 -1      3725 6.22281E-03-1.73062E-04-2.08354E-14
 -1      3726 6.57457E-03-1.99501E-04-2.31347E-14
 -1      3727 6.71314E-03-1.96340E-04-2.40714E-14
 -1      3728 6.50105E-03-1.68081E-04-2.26417E-14
 -1      3729 6.85104E-03-1.93139E-04-2.50233E-14
 -1      3730 6.98826E-03-1.89878E-04-2.59919E-14
 -1      3731 6.77674E-03-1.62773E-04-2.45137E-14
 -1      3732 7.12467E-03-1.86668E-04-2.69759E-14
 -1      3733 7.26026E-03-1.83488E-04-2.79756E-14
 -1      3734 7.04930E-03-1.57347E-04-2.64488E-14
 -1      3735 7.39488E-03-1.80488E-04-2.89913E-14
 -1      3736 7.52854E-03-1.77642E-04-3.00209E-14
 -1      3737 7.31805E-03-1.52120E-04-2.84446E-14
 -1      3738 7.66106E-03-1.75139E-04-3.10638E-14
 -1      3739 7.79251E-03-1.72943E-04-3.21201E-14
 -1      3740 7.58223E-03-1.47512E-04-3.05007E-14
 -1      3741 7.92266E-03-1.71279E-04-3.31908E-14
 -1      3742 8.05167E-03-1.70093E-04-3.42737E-14
 -1      3743 7.84099E-03-1.44015E-04-3.26121E-14
 -1      3744 8.17925E-03-1.69637E-04-3.53677E-14
 -1      3745 8.30577E-03-1.69854E-04-3.64743E-14
 -1      3746 8.09339E-03-1.42128E-04-3.47736E-14
 -1      3747 8.43081E-03-1.71011E-04-3.75943E-14
 -1      3748 8.55515E-03-1.73110E-04-3.87250E-14
 -1      3749 8.33847E-03-1.42271E-04-3.69840E-14
 -1      3750 8.65581E-03-1.74772E-04-3.96692E-14
 -1      3751 8.77888E-03-1.79201E-04-4.08225E-14
 -1      3752 8.74166E-03-1.45721E-04-4.09453E-14
 -1      3753 8.55437E-03-1.43654E-04-3.90450E-14
 -1      3754 4.10610E-03 2.70631E-04-9.09460E-15
 -1      3755 3.96249E-03 2.71452E-04-8.49661E-15
 -1      3756 1.99632E-03-2.16358E-04-2.55967E-15
 -1      3757 2.14103E-03-2.21185E-04-2.90142E-15
 -1      3758 1.41038E-02-2.60997E-04-7.46401E-14
 -1      3759 1.36440E-02 3.80628E-05-7.24969E-14
 -1      3760 2.52937E-03 3.40166E-04-3.52702E-15
 -1      3761 2.38537E-03 3.36518E-04-3.15520E-15
 -1      3762 2.59669E-03 3.04468E-04-3.76652E-15
 -1      3763 5.25042E-03 2.59390E-04-1.45509E-14
 -1      3764 5.10788E-03 2.61264E-04-1.38052E-14
 -1      3765 4.96518E-03 2.62989E-04-1.30771E-14
 -1      3766 4.82233E-03 2.64582E-04-1.23668E-14
 -1      3767 5.03548E-03 2.25605E-04-1.35039E-14
 -1      3768 5.81875E-03 2.50296E-04-1.77185E-14
 -1      3769 5.67697E-03 2.52831E-04-1.69001E-14
 -1      3770 6.10156E-03 2.44679E-04-1.94071E-14
 -1      3771 5.96028E-03 2.47586E-04-1.85539E-14
 -1      3772 5.88732E-03 2.13849E-04-1.82044E-14
 -1      3773 6.38326E-03 2.38312E-04-2.11605E-14
 -1      3774 6.24256E-03 2.41594E-04-2.02764E-14
 -1      3775 6.16904E-03 2.08635E-04-1.99116E-14
 -1      3776 6.66367E-03 2.31238E-04-2.29782E-14
 -1      3777 6.52363E-03 2.34865E-04-2.20617E-14
 -1      3778 6.44929E-03 2.02716E-04-2.16825E-14
 -1      3779 6.94263E-03 2.23589E-04-2.48579E-14
 -1      3780 6.80332E-03 2.27481E-04-2.39106E-14
 -1      3781 6.72783E-03 1.96117E-04-2.35176E-14
 -1      3782 7.22006E-03 2.15621E-04-2.67966E-14
 -1      3783 7.08152E-03 2.19633E-04-2.58195E-14
 -1      3784 7.00444E-03 1.88938E-04-2.54126E-14
 -1      3785 7.49605E-03 2.07749E-04-2.87962E-14
 -1      3786 7.35820E-03 2.11649E-04-2.77889E-14
 -1      3787 7.27895E-03 1.81371E-04-2.73678E-14
 -1      3788 7.77095E-03 2.00590E-04-3.08515E-14
 -1      3789 7.63357E-03 2.04036E-04-2.98169E-14
 -1      3790 7.55133E-03 1.73723E-04-2.93852E-14
 -1      3791 8.04561E-03 1.95038E-04-3.29587E-14
 -1      3792 7.90819E-03 1.97536E-04-3.18994E-14
 -1      3793 7.82185E-03 1.66444E-04-3.14565E-14
 -1      3794 8.32171E-03 1.92412E-04-3.51165E-14
 -1      3795 8.18327E-03 1.93219E-04-3.40311E-14
 -1      3796 8.09122E-03 1.60176E-04-3.35797E-14
 -1      3797 8.60221E-03 1.94815E-04-3.73242E-14
 -1      3798 8.46107E-03 1.92724E-04-3.62136E-14
 -1      3799 8.36101E-03 1.55917E-04-3.57515E-14
 -1      3800 8.89203E-03 2.05955E-04-3.95841E-14
 -1      3801 8.74543E-03 1.98749E-04-3.84473E-14
 -1      3802 8.63415E-03 1.55392E-04-3.79730E-14
 -1      3803 1.37024E-02-1.60997E-05-7.23775E-14
 -1      3804 1.34753E-02 5.98698E-05-7.08710E-14
 -1      3805 5.53498E-03 2.55182E-04-1.60990E-14
 -1      3806 5.39279E-03 2.57369E-04-1.53156E-14
 -1      3807 5.60436E-03 2.18377E-04-1.65663E-14
 -1      3808 1.39198E-02-3.34634E-04-7.36370E-14
 -1      3809 1.39622E-02-3.00638E-04-7.35532E-14
 -1      3810 1.38006E-02-3.34391E-04-7.23856E-14
 -1      3811 1.25685E-03-1.41761E-05-1.14096E-15
 -1      3812 1.25749E-03-4.51780E-05-1.14744E-15
 -1      3813 1.38062E-03-6.43311E-05-1.34971E-15
 -1      3814 1.37922E-03 1.37489E-06-1.33499E-15
 -1      3815 9.15015E-03 1.61534E-04-4.22717E-14
 -1      3816 9.18824E-03 2.36757E-04-4.17641E-14
 -1      3817 9.03205E-03 2.20470E-04-4.06048E-14
 -1      3818 9.04718E-03 1.36954E-04-4.16841E-14
 -1      3819 1.33215E-02 8.39433E-05-6.94554E-14
 -1      3820 1.31841E-02 1.08274E-04-6.82419E-14
 -1      3821 1.30511E-02 1.33341E-04-6.70756E-14
 -1      3822 1.31498E-02 5.75043E-05-6.71197E-14
 -1      3823 1.34152E-02 1.58452E-05-6.95350E-14
 -1      3824 1.79740E-03 2.41022E-04-1.94042E-15
 -1      3825 1.65337E-03 2.32513E-04-1.66806E-15
 -1      3826 1.26824E-03 1.75386E-04-1.06195E-15
 -1      3827 1.26431E-03 1.42728E-04-1.08030E-15
 -1      3828 1.38556E-03 1.34014E-04-1.28043E-15
 -1      3829 1.39393E-03 2.02732E-04-1.23876E-15
 -1      3830 1.37978E-02-2.60454E-04-7.09891E-14
 -1      3831 1.36914E-02-3.05178E-04-7.07297E-14
 -1      3832 1.33184E-02-6.08018E-06-6.80118E-14
 -1      3833 2.28587E-03-2.25120E-04-3.26428E-15
 -1      3834 2.43077E-03-2.28251E-04-3.64854E-15
 -1      3835 2.20977E-03-1.87111E-04-3.07955E-15
 -1      3836 2.49992E-03-1.92542E-04-3.84554E-15
 -1      3837 3.88908E-03 2.34159E-04-8.26001E-15
 -1      3838 3.81875E-03 2.72117E-04-7.91802E-15
 -1      3839 3.67490E-03 2.72618E-04-7.35867E-15
 -1      3840 1.88997E-03-2.04722E-04-2.32392E-15
 -1      3841 1.95850E-03-1.72593E-04-2.48427E-15
 -1      3842 1.78377E-03-1.92796E-04-2.09935E-15
 -1      3843 8.90715E-03 3.48186E-05-4.19441E-14
 -1      3844 8.93889E-03 7.77262E-05-4.15339E-14
 -1      3845 8.81593E-03 2.59370E-05-4.12568E-14
 -1      3846 2.95391E-03 2.71455E-04-4.86553E-15
 -1      3847 2.80941E-03 2.70169E-04-4.42749E-15
 -1      3848 1.39946E-02-2.74841E-04-7.35157E-14
 -1      3849 1.40156E-02-2.34572E-04-7.33419E-14
 -1      3850 1.36789E-02-3.35218E-04-7.11401E-14
 -1      3851 1.50329E-03-5.02503E-05-1.56229E-15
 -1      3852 1.50482E-03-8.48970E-05-1.56838E-15
 -1      3853 4.24960E-03 2.69677E-04-9.71171E-15
 -1      3854 4.17660E-03 2.32719E-04-9.45847E-15
 -1      3855 4.39297E-03 2.68588E-04-1.03472E-14
 -1      3856 8.71005E-03-1.17805E-04-4.10672E-14
 -1      3857 8.68646E-03-9.48570E-05-4.11844E-14
 -1      3858 8.62428E-03-1.17386E-04-4.01117E-14
 -1      3859 1.37688E-02-6.03616E-05-7.24505E-14
 -1      3860 5.32036E-03 2.22274E-04-1.49986E-14
 -1      3861 8.90630E-03 1.66460E-04-4.01188E-14
 -1      3862 1.53454E-03-1.09105E-04-1.62251E-15
 -1      3863 1.56469E-03-1.33874E-04-1.67668E-15
 -1      3864 1.65754E-03-9.51832E-05-1.85602E-15
 -1      3865 2.30795E-03 2.97631E-04-3.01897E-15
 -1      3866 1.39836E-02-2.12523E-04-7.28609E-14
 -1      3867 1.39650E-02-1.88186E-04-7.27748E-14
 -1      3868 8.64478E-03-8.19062E-05-4.08212E-14
 -1      3869 4.67934E-03 2.66042E-04-1.16751E-14
 -1      3870 4.53622E-03 2.67379E-04-1.10017E-14
 -1      3871 4.46353E-03 2.30799E-04-1.07332E-14
 -1      3872 1.94171E-03 2.48172E-04-2.23355E-15
 -1      3873 1.86485E-03 2.10086E-04-2.11241E-15
 -1      3874 2.08622E-03 2.54090E-04-2.54736E-15
 -1      3875 3.24264E-03 2.72812E-04-5.80215E-15
 -1      3876 3.09833E-03 2.72323E-04-5.32361E-15
 -1      3877 3.02323E-03 2.34228E-04-5.13683E-15
 -1      3878 1.51093E-03 1.58281E-04-1.47668E-15
 -1      3879 1.50757E-03 1.22947E-04-1.49722E-15
 -1      3880 8.71257E-03-4.43787E-05-4.15401E-14
 -1      3881 8.71114E-03-2.42483E-05-4.11452E-14
 -1      3882 8.65807E-03-5.52625E-05-4.10223E-14
 -1      3883 1.50507E-03 8.79101E-05-1.51496E-15
 -1      3884 1.50343E-03 5.31537E-05-1.53011E-15
 -1      3885 1.63028E-03 1.09751E-04-1.73090E-15
 -1      3886 1.37675E-02-1.58783E-04-7.04375E-14
 -1      3887 1.38734E-02-1.82213E-04-7.15406E-14
 -1      3888 1.34377E-02-1.77570E-05-6.92313E-14
 -1      3889 1.34687E-02-5.42603E-05-6.89162E-14
 -1      3890 1.36017E-02-8.92753E-05-6.98341E-14
 -1      3891 1.35595E-02-3.08318E-05-7.04466E-14
 -1      3892 1.39006E-02-2.24595E-04-7.17452E-14
 -1      3893 1.38301E-02-2.36962E-04-7.09487E-14
 -1      3894 1.38907E-02-2.70597E-04-7.22640E-14
 -1      3895 4.74984E-03 2.28432E-04-1.20822E-14
 -1      3896 1.37482E-02-1.37968E-04-7.06702E-14
 -1      3897 1.51639E-03 2.71407E-04-1.37538E-15
 -1      3898 1.49325E-03 2.49724E-04-1.35954E-15
 -1      3899 2.71510E-03-1.57713E-04-4.46770E-15
 -1      3900 2.86032E-03-1.58682E-04-4.91173E-15
 -1      3901 3.00545E-03-1.59357E-04-5.37671E-15
 -1      3902 3.15047E-03-1.59761E-04-5.86205E-15
 -1      3903 2.93113E-03-1.21320E-04-5.12988E-15
 -1      3904 3.29537E-03-1.59954E-04-6.36656E-15
 -1      3905 3.44011E-03-1.59950E-04-6.89118E-15
 -1      3906 3.22146E-03-1.21955E-04-6.09720E-15
 -1      3907 3.58470E-03-1.59796E-04-7.43558E-15
 -1      3908 3.72913E-03-1.59495E-04-7.99958E-15
 -1      3909 3.51121E-03-1.21951E-04-7.14369E-15
 -1      3910 3.87339E-03-1.59084E-04-8.58248E-15
 -1      3911 4.01747E-03-1.58561E-04-9.18457E-15
 -1      3912 3.80029E-03-1.21482E-04-8.26822E-15
 -1      3913 4.16137E-03-1.57951E-04-9.80559E-15
 -1      3914 4.30508E-03-1.57249E-04-1.04447E-14
 -1      3915 4.08862E-03-1.20664E-04-9.46995E-15
 -1      3916 4.44861E-03-1.56471E-04-1.11010E-14
 -1      3917 4.59193E-03-1.55608E-04-1.17742E-14
 -1      3918 4.37617E-03-1.19564E-04-1.07454E-14
 -1      3919 4.73505E-03-1.54673E-04-1.24668E-14
 -1      3920 4.87794E-03-1.53652E-04-1.31779E-14
 -1      3921 4.66287E-03-1.18216E-04-1.20924E-14
 -1      3922 5.02060E-03-1.52556E-04-1.39057E-14
 -1      3923 5.16302E-03-1.51368E-04-1.46507E-14
 -1      3924 4.94864E-03-1.16624E-04-1.35106E-14
 -1      3925 5.30515E-03-1.50099E-04-1.54134E-14
 -1      3926 5.44700E-03-1.48731E-04-1.61941E-14
 -1      3927 5.23334E-03-1.14779E-04-1.49996E-14
 -1      3928 5.58851E-03-1.47276E-04-1.69921E-14
 -1      3929 5.72967E-03-1.45714E-04-1.78086E-14
 -1      3930 5.51681E-03-1.12664E-04-1.65592E-14
 -1      3931 5.87042E-03-1.44065E-04-1.86422E-14
 -1      3932 6.01074E-03-1.42305E-04-1.94940E-14
 -1      3933 5.79879E-03-1.10267E-04-1.81898E-14
 -1      3934 6.15057E-03-1.40466E-04-2.03630E-14
 -1      3935 6.28985E-03-1.38521E-04-2.12484E-14
 -1      3936 6.07895E-03-1.07591E-04-1.98924E-14
 -1      3937 6.42853E-03-1.36518E-04-2.21516E-14
 -1      3938 6.56655E-03-1.34427E-04-2.30710E-14
 -1      3939 6.35688E-03-1.04672E-04-2.16631E-14
 -1      3940 6.70381E-03-1.32317E-04-2.40065E-14
 -1      3941 6.84026E-03-1.30154E-04-2.49566E-14
 -1      3942 6.63207E-03-1.01590E-04-2.34996E-14
 -1      3943 6.97578E-03-1.28034E-04-2.59221E-14
 -1      3944 7.11031E-03-1.25913E-04-2.69038E-14
 -1      3945 6.90388E-03-9.84843E-05-2.53984E-14
 -1      3946 7.24372E-03-1.23924E-04-2.79021E-14
 -1      3947 7.37592E-03-1.22005E-04-2.89143E-14
 -1      3948 7.17157E-03-9.55680E-05-2.73590E-14
 -1      3949 7.50675E-03-1.20328E-04-2.99397E-14
 -1      3950 7.63613E-03-1.18800E-04-3.09794E-14
 -1      3951 7.43421E-03-9.31237E-05-2.93806E-14
 -1      3952 7.76383E-03-1.17643E-04-3.20337E-14
 -1      3953 7.88979E-03-1.16702E-04-3.31012E-14
 -1      3954 7.69066E-03-9.14875E-05-3.14573E-14
 -1      3955 8.01367E-03-1.16261E-04-3.41816E-14
 -1      3956 8.13547E-03-1.16058E-04-3.52721E-14
 -1      3957 7.93947E-03-9.09974E-05-3.35892E-14
 -1      3958 8.25465E-03-1.16464E-04-3.63744E-14
 -1      3959 8.37129E-03-1.17023E-04-3.74905E-14
 -1      3960 8.17863E-03-9.18905E-05-3.57698E-14
 -1      3961 2.42456E-03-1.54632E-04-3.64070E-15
 -1      3962 2.56983E-03-1.56375E-04-4.04341E-15
 -1      3963 2.64043E-03-1.19803E-04-4.24300E-15
 -1      3964 1.39596E-02-1.63873E-04-7.30532E-14
 -1      3965 1.48724E-03 2.13284E-04-1.38678E-15
 -1      3966 2.37550E-03 2.62853E-04-3.23717E-15
 -1      3967 2.23083E-03 2.58949E-04-2.88188E-15
 -1      3968 2.15411E-03 2.20603E-04-2.74471E-15
 -1      3969 5.10575E-03 1.88460E-04-1.39330E-14
 -1      3970 4.96317E-03 1.89783E-04-1.32033E-14
 -1      3971 1.50255E-03-1.57696E-05-1.55373E-15
 -1      3972 1.62676E-03-3.44001E-05-1.78857E-15
 -1      3973 1.50259E-03 1.86582E-05-1.54298E-15
 -1      3974 1.57547E-03-1.55019E-04-1.69401E-15
 -1      3975 1.60647E-03-1.80733E-04-1.74695E-15
 -1      3976 2.66482E-03 2.68357E-04-4.01011E-15
 -1      3977 2.52018E-03 2.65963E-04-3.61321E-15
 -1      3978 2.44388E-03 2.27583E-04-3.45972E-15
 -1      3979 2.73368E-03 2.31891E-04-4.25736E-15
 -1      3980 8.93930E-03 1.17444E-04-4.10006E-14
 -1      3981 1.37312E-02-1.19116E-04-7.08662E-14
 -1      3982 1.38522E-02-1.40915E-04-7.20133E-14
 -1      3983 1.39546E-02-1.47812E-04-7.32531E-14
 -1      3984 1.37152E-02-9.44662E-05-7.11748E-14
 -1      3985 6.23623E-03 1.73186E-04-2.04159E-14
 -1      3986 6.09615E-03 1.75627E-04-1.95450E-14
 -1      3987 5.95566E-03 1.77892E-04-1.86911E-14
 -1      3988 5.81479E-03 1.80012E-04-1.78537E-14
 -1      3989 6.02385E-03 1.42463E-04-1.91783E-14
 -1      3990 6.79158E-03 1.61807E-04-2.40575E-14
 -1      3991 6.65355E-03 1.64904E-04-2.31239E-14
 -1      3992 7.06574E-03 1.55200E-04-2.59690E-14
 -1      3993 6.92897E-03 1.58584E-04-2.50066E-14
 -1      3994 6.85502E-03 1.28340E-04-2.45998E-14
 -1      3995 7.33718E-03 1.48118E-04-2.79435E-14
 -1      3996 7.20179E-03 1.51723E-04-2.69486E-14
 -1      3997 7.12666E-03 1.22403E-04-2.65292E-14
 -1      3998 7.60575E-03 1.40751E-04-2.99758E-14
 -1      3999 7.47180E-03 1.44471E-04-2.89521E-14
 -1      4000 7.39494E-03 1.15889E-04-2.85203E-14
 -1      4001 7.87152E-03 1.33367E-04-3.20647E-14
 -1      4002 7.73893E-03 1.37054E-04-3.10142E-14
 -1      4003 7.65951E-03 1.08858E-04-3.05702E-14
 -1      4004 8.13497E-03 1.26347E-04-3.42006E-14
 -1      4005 8.00342E-03 1.29786E-04-3.31259E-14
 -1      4006 7.92018E-03 1.01384E-04-3.26726E-14
 -1      4007 8.39733E-03 1.20339E-04-3.63874E-14
 -1      4008 8.26605E-03 1.23136E-04-3.52881E-14
 -1      4009 8.17701E-03 9.35611E-05-3.48242E-14
 -1      4010 8.66118E-03 1.16715E-04-3.86230E-14
 -1      4011 8.52864E-03 1.18044E-04-3.74983E-14
 -1      4012 8.43068E-03 8.56433E-05-3.70243E-14
 -1      4013 5.39020E-03 1.85472E-04-1.54469E-14
 -1      4014 5.24810E-03 1.87029E-04-1.46803E-14
 -1      4015 5.17601E-03 1.51590E-04-1.43631E-14
 -1      4016 8.81165E-03 1.10651E-04-3.99758E-14
 -1      4017 1.69814E-03-1.42126E-04-1.93442E-15
 -1      4018 1.71226E-03-1.93354E-04-1.95192E-15
 -1      4019 1.55449E-03 1.86125E-04-1.53111E-15
 -1      4020 8.56257E-03-7.56646E-05-3.98476E-14
 -1      4021 8.60785E-03-6.48136E-05-4.04337E-14
 -1      4022 8.58215E-03-4.76928E-05-4.00462E-14
 -1      4023 1.39060E-02-1.15516E-04-7.31812E-14
 -1      4024 4.82038E-03 1.90994E-04-1.24908E-14
 -1      4025 4.67738E-03 1.92109E-04-1.17970E-14
 -1      4026 4.89096E-03 1.53767E-04-1.29016E-14
 -1      4027 3.53093E-03 2.72918E-04-6.81986E-15
 -1      4028 3.38684E-03 2.73002E-04-6.30132E-15
 -1      4029 3.31236E-03 2.35139E-04-6.09769E-15
 -1      4030 3.60099E-03 2.35024E-04-7.13925E-15
 -1      4031 1.67668E-03 1.74440E-04-1.76905E-15
 -1      4032 2.13423E-03-1.49615E-04-2.89777E-15
 -1      4033 2.27933E-03-1.52397E-04-3.25875E-15
 -1      4034 2.34966E-03-1.17082E-04-3.43955E-15
 -1      4035 5.67357E-03 1.81970E-04-1.70344E-14
 -1      4036 5.53203E-03 1.83793E-04-1.62321E-14
 -1      4037 5.45997E-03 1.49019E-04-1.58972E-14
 -1      4038 6.51497E-03 1.67822E-04-2.22058E-14
 -1      4039 6.37584E-03 1.70595E-04-2.13032E-14
 -1      4040 6.30321E-03 1.38366E-04-2.09226E-14
 -1      4041 1.82079E-03 1.80828E-04-2.05006E-15
 -1      4042 1.77721E-03 1.52072E-04-1.98669E-15
 -1      4043 1.96529E-03 1.86201E-04-2.35174E-15
 -1      4044 3.95970E-03 1.96195E-04-8.60506E-15
 -1      4045 3.81565E-03 1.96696E-04-8.02315E-15
 -1      4046 8.45459E-03-1.16882E-04-3.83243E-14
 -1      4047 8.54585E-03-1.17042E-04-3.92619E-14
 -1      4048 8.53351E-03-9.33205E-05-3.93807E-14
 -1      4049 8.37624E-03-9.28493E-05-3.77036E-14
 -1      4050 8.70183E-03 5.30742E-06-4.05232E-14
 -1      4051 8.71557E-03 3.84191E-05-4.01233E-14
 -1      4052 2.80325E-03 1.95079E-04-4.50818E-15
 -1      4053 2.65817E-03 1.93688E-04-4.08679E-15
 -1      4054 1.62686E-03 3.74193E-05-1.76480E-15
 -1      4055 8.69904E-03 7.28341E-05-3.94880E-14
 -1      4056 1.75098E-03-1.70064E-05-2.02881E-15
 -1      4057 1.75176E-03-5.42323E-05-2.03942E-15
 -1      4058 4.24729E-03 1.94860E-04-9.82568E-15
 -1      4059 4.10358E-03 1.95585E-04-9.20595E-15
 -1      4060 4.03057E-03 1.58273E-04-8.95329E-15
 -1      4061 8.62148E-03-1.15206E-05-4.00146E-14
 -1      4062 5.74267E-03 1.45996E-04-1.75028E-14
 -1      4063 1.90547E-03-6.24917E-05-2.36505E-15
 -1      4064 1.78120E-03-7.95501E-05-2.10381E-15
 -1      4065 1.81104E-03-1.05273E-04-2.16748E-15
 -1      4066 8.48873E-03-7.47252E-05-3.90019E-14
 -1      4067 1.78062E-03-1.63008E-04-2.09999E-15
 -1      4068 1.77416E-03 1.14117E-04-2.01017E-15
 -1      4069 1.76976E-03-1.40807E-04-2.08042E-15
 -1      4070 4.53420E-03 1.93121E-04-1.11213E-14
 -1      4071 4.39083E-03 1.94042E-04-1.04643E-14
 -1      4072 4.31816E-03 1.57099E-04-1.01955E-14
 -1      4073 1.99939E-03-1.35477E-04-2.58089E-15
 -1      4074 2.06961E-03-1.01857E-04-2.74256E-15
 -1      4075 3.09315E-03 1.96766E-04-5.41197E-15
 -1      4076 2.94825E-03 1.96095E-04-4.95011E-15
 -1      4077 2.87346E-03 1.57980E-04-4.76279E-15
 -1      4078 6.58039E-03 1.33664E-04-2.27306E-14
 -1      4079 1.37003E-02-6.76933E-05-7.14841E-14
 -1      4080 4.60498E-03 1.55595E-04-1.15124E-14
 -1      4081 8.58161E-03 4.91848E-05-3.87708E-14
 -1      4082 2.56620E-03-8.21464E-05-4.02197E-15
 -1      4083 2.71169E-03-8.28565E-05-4.44349E-15
 -1      4084 1.93375E-03 1.13225E-04-2.34593E-15
 -1      4085 1.78722E-03 7.18656E-05-2.06385E-15
 -1      4086 3.14779E-03-8.39437E-05-5.83053E-15
 -1      4087 3.29292E-03-8.40300E-05-6.33239E-15
 -1      4088 3.43789E-03-8.40223E-05-6.85473E-15
 -1      4089 3.58270E-03-8.39175E-05-7.39648E-15
 -1      4090 3.36480E-03-4.60375E-05-6.56868E-15
 -1      4091 3.72732E-03-8.37473E-05-7.95733E-15
 -1      4092 3.87175E-03-8.35042E-05-8.53770E-15
 -1      4093 3.65451E-03-4.58979E-05-7.64926E-15
 -1      4094 4.01598E-03-8.32107E-05-9.13753E-15
 -1      4095 4.16001E-03-8.28599E-05-9.75594E-15
 -1      4096 3.94346E-03-4.55996E-05-8.80756E-15
 -1      4097 4.30383E-03-8.24687E-05-1.03924E-14
 -1      4098 4.44742E-03-8.20279E-05-1.10470E-14
 -1      4099 4.23159E-03-4.51842E-05-1.00416E-14
 -1      4100 4.59079E-03-8.15504E-05-1.17196E-14
 -1      4101 4.73392E-03-8.10261E-05-1.24102E-14
 -1      4102 4.51882E-03-4.46696E-05-1.13496E-14
 -1      4103 4.87680E-03-8.04657E-05-1.31186E-14
 -1      4104 5.01940E-03-7.98577E-05-1.38441E-14
 -1      4105 4.80508E-03-4.40653E-05-1.27282E-14
 -1      4106 5.16172E-03-7.92126E-05-1.45877E-14
 -1      4107 5.30372E-03-7.85174E-05-1.53493E-14
 -1      4108 5.09026E-03-4.33753E-05-1.41777E-14
 -1      4109 5.44538E-03-7.77846E-05-1.61283E-14
 -1      4110 5.58667E-03-7.69993E-05-1.69246E-14
 -1      4111 5.37419E-03-4.26020E-05-1.56989E-14
 -1      4112 5.72755E-03-7.61788E-05-1.77395E-14
 -1      4113 5.86797E-03-7.53058E-05-1.85725E-14
 -1      4114 5.65663E-03-4.17519E-05-1.72909E-14
 -1      4115 6.00789E-03-7.44054E-05-1.94231E-14
 -1      4116 6.14726E-03-7.34573E-05-2.02907E-14
 -1      4117 5.93729E-03-4.08421E-05-1.89552E-14
 -1      4118 6.28601E-03-7.24984E-05-2.11753E-14
 -1      4119 6.42409E-03-7.15041E-05-2.20770E-14
 -1      4120 6.21578E-03-3.99085E-05-2.06894E-14
 -1      4121 6.56140E-03-7.05279E-05-2.29950E-14
 -1      4122 6.69788E-03-6.95389E-05-2.39277E-14
 -1      4123 6.49161E-03-3.90149E-05-2.24904E-14
 -1      4124 6.83343E-03-6.86129E-05-2.48749E-14
 -1      4125 6.96798E-03-6.77089E-05-2.58382E-14
 -1      4126 6.76418E-03-3.82634E-05-2.43524E-14
 -1      4127 7.10137E-03-6.69316E-05-2.68182E-14
 -1      4128 7.23353E-03-6.62232E-05-2.78131E-14
 -1      4129 7.03278E-03-3.78042E-05-2.62788E-14
 -1      4130 7.36429E-03-6.57263E-05-2.88234E-14
 -1      4131 7.49355E-03-6.53527E-05-2.98460E-14
 -1      4132 7.29653E-03-3.78437E-05-2.82657E-14
 -1      4133 7.62106E-03-6.52963E-05-3.08821E-14
 -1      4134 7.74671E-03-6.54124E-05-3.19338E-14
 -1      4135 7.55436E-03-3.86466E-05-3.03093E-14
 -1      4136 7.87017E-03-6.59705E-05-3.29979E-14
 -1      4137 7.99128E-03-6.67160E-05-3.40760E-14
 -1      4138 7.80484E-03-4.05281E-05-3.24080E-14
 -1      4139 8.10955E-03-6.80460E-05-3.51654E-14
 -1      4140 8.22474E-03-6.94821E-05-3.62643E-14
 -1      4141 8.04601E-03-4.38289E-05-3.45607E-14
 -1      4142 5.52973E-03 1.12941E-04-1.63482E-14
 -1      4143 5.38817E-03 1.14030E-04-1.55620E-14
 -1      4144 6.64578E-03 1.00265E-04-2.32563E-14
 -1      4145 6.50829E-03 1.02313E-04-2.23359E-14
 -1      4146 2.58296E-03 1.55640E-04-3.91646E-15
 -1      4147 2.51306E-03 1.91829E-04-3.68607E-15
 -1      4148 2.36794E-03 1.89454E-04-3.30598E-15
 -1      4149 1.78603E-03 3.42924E-05-2.08091E-15
 -1      4150 2.03976E-03-7.50798E-05-2.66943E-15
 -1      4151 2.17437E-03-8.78653E-05-2.99186E-15
 -1      4152 2.01029E-03-4.85714E-05-2.59607E-15
 -1      4153 7.45266E-03 8.47428E-05-2.90976E-14
 -1      4154 7.32063E-03 8.77672E-05-2.80877E-14
 -1      4155 1.91080E-03 1.59715E-05-2.35242E-15
 -1      4156 1.89328E-03-1.25406E-04-2.34379E-15
 -1      4157 6.09198E-03 1.07586E-04-1.96693E-14
 -1      4158 5.95209E-03 1.09098E-04-1.88137E-14
 -1      4159 7.18757E-03 9.05816E-05-2.70899E-14
 -1      4160 7.05345E-03 9.32574E-05-2.61081E-14
 -1      4161 7.24868E-03 5.97665E-05-2.76531E-14
 -1      4162 6.91843E-03 9.57407E-05-2.51420E-14
 -1      4163 6.78250E-03 9.80918E-05-2.41912E-14
 -1      4164 6.71127E-03 6.76522E-05-2.37828E-14
 -1      4165 6.98199E-03 6.40359E-05-2.56863E-14
 -1      4166 7.71313E-03 7.81623E-05-3.11652E-14
 -1      4167 7.58346E-03 8.15694E-05-3.01239E-14
 -1      4168 7.51061E-03 5.47196E-05-2.96786E-14
 -1      4169 7.96846E-03 7.07425E-05-3.32811E-14
 -1      4170 7.84140E-03 7.45868E-05-3.22171E-14
 -1      4171 7.76696E-03 4.87227E-05-3.17590E-14
 -1      4172 8.21812E-03 6.23244E-05-3.54475E-14
 -1      4173 8.09390E-03 6.66981E-05-3.43586E-14
 -1      4174 8.01676E-03 4.15310E-05-3.38918E-14
 -1      4175 8.46188E-03 5.27896E-05-3.76626E-14
 -1      4176 8.34051E-03 5.76984E-05-3.65492E-14
 -1      4177 8.25871E-03 3.27859E-05-3.60724E-14
 -1      4178 5.24628E-03 1.15022E-04-1.47945E-14
 -1      4179 5.10408E-03 1.15941E-04-1.40458E-14
 -1      4180 5.31659E-03 7.87843E-05-1.52285E-14
 -1      4181 6.37014E-03 1.04198E-04-2.14318E-14
 -1      4182 6.23134E-03 1.05965E-04-2.05413E-14
 -1      4183 6.43713E-03 7.07101E-05-2.19411E-14
 -1      4184 8.41175E-03-7.35689E-05-3.81627E-14
 -1      4185 8.45237E-03-5.59377E-05-3.86225E-14
 -1      4186 8.33198E-03-7.29567E-05-3.73318E-14
 -1      4187 4.96160E-03 1.16776E-04-1.33141E-14
 -1      4188 4.81886E-03 1.17548E-04-1.26003E-14
 -1      4189 5.03231E-03 8.00512E-05-1.37277E-14
 -1      4190 4.67587E-03 1.18246E-04-1.19047E-14
 -1      4191 4.53265E-03 1.18886E-04-1.12270E-14
 -1      4192 4.74687E-03 8.11053E-05-1.22993E-14
 -1      4193 2.23894E-03 1.90380E-04-2.98168E-15
 -1      4194 2.09399E-03 1.86708E-04-2.64089E-15
 -1      4195 2.05038E-03 1.57152E-04-2.56933E-15
 -1      4196 2.30846E-03 1.55535E-04-3.18928E-15
 -1      4197 8.49665E-03-3.97516E-05-3.90296E-14
 -1      4198 8.55979E-03-2.88766E-05-3.96073E-14
 -1      4199 8.53293E-03-2.28209E-06-3.89978E-14
 -1      4200 8.41972E-03-3.72735E-05-3.81920E-14
 -1      4201 8.49132E-03 2.30805E-05-3.82843E-14
 -1      4202 5.81173E-03 1.10481E-04-1.79743E-14
 -1      4203 5.67093E-03 1.11767E-04-1.71532E-14
 -1      4204 5.88081E-03 7.54532E-05-1.84477E-14
 -1      4205 3.74225E-03 1.59076E-04-7.78683E-15
 -1      4206 3.67145E-03 1.97060E-04-7.46143E-15
 -1      4207 3.52709E-03 1.97282E-04-6.91931E-15
 -1      4208 2.29748E-03-8.47086E-05-3.29963E-15
 -1      4209 2.44289E-03-8.59252E-05-3.68252E-15
 -1      4210 2.51456E-03-4.94791E-05-3.86773E-15
 -1      4211 2.26787E-03-5.73022E-05-3.21740E-15
 -1      4212 2.85715E-03-8.33786E-05-4.88529E-15
 -1      4213 3.00252E-03-8.37281E-05-5.34789E-15
 -1      4214 2.78355E-03-4.55850E-05-4.64468E-15
 -1      4215 3.07442E-03-4.59600E-05-5.56646E-15
 -1      4216 4.38921E-03 1.19457E-04-1.05671E-14
 -1      4217 4.24556E-03 1.19972E-04-9.92620E-15
 -1      4218 4.46041E-03 8.19719E-05-1.09417E-14
 -1      4219 8.27017E-03-5.01059E-05-3.67151E-14
 -1      4220 6.16015E-03 7.32878E-05-2.01618E-14
 -1      4221 5.59951E-03 7.72672E-05-1.68019E-14
 -1      4222 8.42354E-03 2.88136E-06-3.78868E-14
 -1      4223 2.02168E-03-1.40177E-05-2.61161E-15
 -1      4224 2.15594E-03-2.54952E-05-2.93101E-15
 -1      4225 2.27922E-03-2.13964E-05-3.23409E-15
 -1      4226 2.05705E-03 4.02732E-05-2.66837E-15
 -1      4227 4.10169E-03 1.20416E-04-9.30385E-15
 -1      4228 3.95764E-03 1.20798E-04-8.69972E-15
 -1      4229 4.17303E-03 8.26611E-05-9.65654E-15
 -1      4230 2.65357E-03 1.19039E-04-4.15103E-15
 -1      4231 2.50816E-03 1.17850E-04-3.74681E-15
 -1      4232 3.38258E-03 1.97321E-04-6.39671E-15
 -1      4233 3.23793E-03 1.97168E-04-5.89422E-15
 -1      4234 3.16361E-03 1.59124E-04-5.69088E-15
 -1      4235 3.45325E-03 1.59409E-04-6.69918E-15
 -1      4236 2.06265E-03 1.12388E-04-2.63454E-15
 -1      4237 2.94428E-03 1.20612E-04-5.02175E-15
 -1      4238 2.79896E-03 1.19955E-04-4.57590E-15
 -1      4239 2.72481E-03 8.20777E-05-4.38976E-15
 -1      4240 3.81338E-03 1.21094E-04-8.11527E-15
 -1      4241 3.66894E-03 1.21319E-04-7.54995E-15
 -1      4242 3.88480E-03 8.31605E-05-8.44641E-15
 -1      4243 2.75342E-03 1.83308E-05-4.52047E-15
 -1      4244 2.89894E-03 1.84766E-05-4.96432E-15
 -1      4245 3.58194E-03-7.96805E-06-7.34405E-15
 -1      4246 3.72664E-03-7.91686E-06-7.90214E-15
 -1      4247 3.91376E-03 1.87403E-05-8.63076E-15
 -1      4248 4.05799E-03 1.87229E-05-9.23292E-15
 -1      4249 4.20199E-03 1.86801E-05-9.85377E-15
 -1      4250 4.34578E-03 1.86388E-05-1.04922E-14
 -1      4251 4.48933E-03 1.85754E-05-1.11497E-14
 -1      4252 4.63265E-03 1.85119E-05-1.18251E-14
 -1      4253 4.77570E-03 1.84252E-05-1.25176E-14
 -1      4254 4.91849E-03 1.83365E-05-1.32288E-14
 -1      4255 5.06099E-03 1.82211E-05-1.39574E-14
 -1      4256 5.20318E-03 1.81010E-05-1.47037E-14
 -1      4257 5.34503E-03 1.79478E-05-1.54672E-14
 -1      4258 5.48653E-03 1.77865E-05-1.62497E-14
 -1      4259 5.62762E-03 1.75821E-05-1.70514E-14
 -1      4260 5.76827E-03 1.73651E-05-1.78698E-14
 -1      4261 5.90845E-03 1.70906E-05-1.87057E-14
 -1      4262 6.04809E-03 1.67973E-05-1.95595E-14
 -1      4263 6.18715E-03 1.64264E-05-2.04299E-14
 -1      4264 6.32557E-03 1.60282E-05-2.13170E-14
 -1      4265 6.46327E-03 1.55250E-05-2.22199E-14
 -1      4266 6.60019E-03 1.49824E-05-2.31392E-14
 -1      4267 6.73625E-03 1.42976E-05-2.40733E-14
 -1      4268 6.87136E-03 1.35570E-05-2.50217E-14
 -1      4269 7.00542E-03 1.26239E-05-2.59880E-14
 -1      4270 7.13834E-03 1.16132E-05-2.69689E-14
 -1      4271 7.27001E-03 1.03423E-05-2.79646E-14
 -1      4272 7.40028E-03 8.96666E-06-2.89751E-14
 -1      4273 7.52904E-03 7.23838E-06-2.99991E-14
 -1      4274 7.65610E-03 5.37580E-06-3.10366E-14
 -1      4275 7.78133E-03 3.03233E-06-3.20878E-14
 -1      4276 7.90445E-03 5.31495E-07-3.31528E-14
 -1      4277 8.02530E-03-2.63337E-06-3.42304E-14
 -1      4278 8.14346E-03-5.93925E-06-3.53196E-14
 -1      4279 2.24005E-03 1.19081E-04-3.05145E-15
 -1      4280 2.12410E-03 7.53187E-05-2.80409E-15
 -1      4281 2.23440E-03 4.51342E-05-3.08960E-15
 -1      4282 2.36938E-03 1.17200E-04-3.37927E-15
 -1      4283 2.44042E-03 8.12566E-05-3.59455E-15
 -1      4284 8.25876E-03-1.01921E-05-3.64211E-14
 -1      4285 3.29200E-03-8.04196E-06-6.28604E-15
 -1      4286 3.43706E-03-8.00529E-06-6.80544E-15
 -1      4287 3.50964E-03 3.00210E-05-7.04193E-15
 -1      4288 8.36510E-03-1.55264E-05-3.74893E-14
 -1      4289 2.99388E-03 6.96786E-05-5.22564E-15
 -1      4290 3.02287E-03 5.24402E-06-5.36761E-15
 -1      4291 3.16821E-03 5.29784E-06-5.84945E-15
 -1      4292 3.06762E-03 1.07691E-04-5.42912E-15
 -1      4293 3.24110E-03 4.33073E-05-6.06980E-15
 -1      4294 3.48094E-03 9.47349E-05-6.87428E-15
 -1      4295 3.33604E-03 9.47160E-05-6.35337E-15
 -1      4296 3.21277E-03 1.07953E-04-5.91256E-15
 -1      4297 3.84185E-03 5.65951E-05-8.30111E-15
 -1      4298 2.60785E-03 1.81676E-05-4.09713E-15
 -1      4299 2.49789E-03-1.84901E-05-3.80930E-15
 -1      4300 2.46843E-03 4.42282E-05-3.69512E-15
 -1      4301 2.32953E-03 4.44283E-05-3.32963E-15
 -1      4302 3.55265E-03 5.67423E-05-7.17800E-15
 -1      4303 2.37443E-03-2.28407E-05-3.47999E-15
 -1      4304 2.26293E-03 8.84590E-06-3.17980E-15
 -1      4305 3.69735E-03 5.66914E-05-7.72958E-15
 -3
    1PSTEP                         2           1           1          
  100CL  101 1.000000000        4305                     0    1           1
 -4  STRESS      6    1
 -5  SXX         1    4    1    1
 -5  SYY         1    4    2    2
 -5  SZZ         1    4    3    3
 -5  SXY         1    4    1    2
 -5  SYZ         1    4    2    3
 -5  SZX         1    4    3    1
 -1         1 7.86744E+00 7.39056E+00-4.69446E-01 7.78493E+00-6.14675E-13-4.82059E-13
 -1         2-7.31666E-01-2.57574E+01-3.50553E+00 8.20513E-02 1.04753E-12-3.41796E-13
 -1         3 1.99749E+01-2.64987E-02 4.56693E-02-2.62394E-02-7.39703E-13-6.18627E-13
 -1         4 1.99674E+01-3.34654E-02 6.06327E-02 3.36246E-02 2.70595E-13 9.62663E-15
 -1         5 3.27675E+01 6.14259E+00 2.74255E+00 6.22434E+00-3.08642E-14 2.13563E-12
 -1         6 3.57517E+01 1.22632E+01 5.12562E+00-8.64674E+00-1.31728E-13 1.87667E-12
 -1         7 2.08176E+01 6.09939E+00-1.28726E-01-4.72589E+00-1.88322E-14 2.73219E-13
 -1         8 1.96709E+01 5.93473E+00 5.09221E-02-3.27546E+00-2.51674E-14-1.99726E-13
 -1         9 1.91371E+01 5.77185E+00 4.91702E-02-2.52735E+00-1.82892E-14-4.45285E-13
 -1        10 1.88947E+01 5.69205E+00 5.09521E-02-1.95196E+00-1.08568E-14-5.62480E-13
 -1        11 1.87739E+01 5.65130E+00 5.02960E-02-1.45699E+00-7.59202E-15-6.11502E-13
 -1        12 1.87110E+01 5.62987E+00 4.88866E-02-1.01583E+00-4.37714E-15-6.20521E-13
 -1        13 1.86777E+01 5.61851E+00 4.74841E-02-5.95737E-01-9.27535E-16-6.09821E-13
 -1        14 1.86638E+01 5.61371E+00 4.67514E-02-1.91310E-01 4.05711E-15-5.96838E-13
 -1        15 1.86642E+01 5.61387E+00 4.67905E-02 2.08368E-01 8.17114E-15-5.86539E-13
 -1        16 1.86792E+01 5.61898E+00 4.76078E-02 6.13603E-01 9.51995E-15-5.70243E-13
 -1        17 1.87137E+01 5.63060E+00 4.91153E-02 1.03559E+00 1.13024E-14-5.33580E-13
 -1        18 1.87781E+01 5.65251E+00 5.08521E-02 1.47984E+00 1.14132E-14-4.68005E-13
 -1        19 1.89009E+01 5.69374E+00 5.15440E-02 1.98105E+00 2.35914E-14-3.68972E-13
 -1        20 1.91419E+01 5.77432E+00 4.87735E-02 2.56462E+00 2.52506E-14-1.89270E-13
 -1        21 1.96665E+01 5.94932E+00 4.58856E-02 3.30946E+00 2.86091E-14 1.46999E-13
 -1        22 2.12005E+01 6.38118E+00 1.39646E-01 4.52343E+00 5.81479E-15 7.80315E-13
 -1        23 2.30283E+01-1.37914E+00-9.38264E-01-7.11304E-01-9.26724E-14 1.41559E-12
 -1        24 1.93648E+01-9.94805E-02-3.09834E-01 6.32015E-02-1.55232E-14 1.02023E-12
 -1        25 1.86760E+01-5.63080E-02-6.87538E-02 6.07386E-02-9.39418E-15 6.65905E-13
 -1        26 1.84728E+01-2.20828E-02-6.44084E-03 3.29201E-02-7.97105E-16 3.94214E-13
 -1        27 1.84830E+01-1.17918E-02 1.56599E-03 2.25654E-02-1.10581E-14 2.26484E-13
 -1        28 1.85961E+01-6.23718E-03 1.78311E-03 1.62776E-02 8.82649E-16 1.10370E-13
 -1        29 1.87547E+01-3.07764E-03 1.75848E-03 1.21081E-02-2.08678E-14-2.60200E-14
 -1        30 1.89274E+01-1.23059E-03 1.93945E-03 9.12667E-03 1.11154E-15-1.30225E-13
 -1        31 1.90967E+01-1.50215E-04 2.08854E-03 6.88032E-03-1.26331E-15-2.20701E-13
 -1        32 1.92529E+01 4.52101E-04 2.10348E-03 5.13357E-03-5.29919E-15-3.98099E-13
 -1        33 1.93914E+01 7.42883E-04 1.98684E-03 3.75448E-03 4.33931E-14-4.32411E-13
 -1        34 1.95110E+01 8.23582E-04 1.77089E-03 2.66117E-03-9.84347E-15-4.55698E-13
 -1        35 1.96125E+01 7.57955E-04 1.48498E-03 1.79752E-03-2.71469E-15-5.47130E-13
 -1        36 1.96984E+01 5.85684E-04 1.14763E-03 1.12289E-03 1.45017E-14-5.14946E-13
 -1        37 1.97722E+01 3.29764E-04 7.66207E-04 6.08118E-04-4.17806E-14-5.64736E-13
 -1        38 1.98384E+01 1.00225E-06 3.38198E-04 2.34404E-04-2.00559E-14-6.01818E-13
 -1        39 1.99023E+01-3.98859E-04-1.47503E-04-6.38295E-06-1.18192E-14-6.62357E-13
 -1        40 1.99700E+01-8.74615E-04-7.09498E-04-1.10341E-04 2.80003E-14-5.41583E-13
 -1        41 2.00488E+01-1.43509E-03-1.37281E-03-5.92935E-05-1.44432E-14-5.51998E-13
 -1        42 2.01473E+01-2.09004E-03-2.16743E-03 1.82444E-04 5.69089E-14-5.65716E-13
 -1        43 2.02754E+01-2.84563E-03-3.12556E-03 6.72411E-04-5.81213E-14-6.21581E-13
 -1        44 2.04452E+01-3.69700E-03-4.27588E-03 1.49536E-03 6.02153E-14-5.92133E-13
 -1        45 2.06706E+01-4.61599E-03-5.63105E-03 2.76877E-03-4.40376E-14-5.80274E-13
 -1        46 2.09672E+01-5.53064E-03-7.16208E-03 4.64554E-03 3.00087E-14-9.19323E-13
 -1        47 2.13517E+01-6.29270E-03-8.74723E-03 7.30652E-03-4.69508E-15-7.40941E-13
 -1        48 2.18400E+01-6.62993E-03-1.00772E-02 1.09257E-02 7.94925E-14-5.27114E-13
 -1        49 2.24429E+01-6.08609E-03-1.04949E-02 1.55737E-02 2.32118E-14-3.32755E-13
 -1        50 2.31584E+01-3.97116E-03-8.76876E-03 2.09967E-02-1.51370E-14-4.00467E-13
 -1        51 2.39587E+01 6.09458E-04-2.88964E-03 2.61860E-02 2.18099E-14-4.32168E-13
 -1        52 2.47709E+01 8.49363E-03 9.77938E-03 2.86788E-02 9.64598E-15-3.72140E-13
 -1        53 2.54539E+01 1.97392E-02 3.12724E-02 2.37945E-02-9.80822E-14-7.70214E-13
 -1        54 2.57841E+01 3.22983E-02 5.98106E-02 4.73415E-03 1.19801E-13-1.04743E-12
 -1        55 2.54801E+01 4.06969E-02 8.49798E-02-3.44282E-02-1.05489E-13-1.01349E-12
 -1        56 2.43099E+01 3.64888E-02 8.51152E-02-9.05822E-02 6.08229E-14-1.32038E-12
 -1        57 2.22965E+01 1.33733E-02 3.78768E-02-1.41338E-01 6.21311E-14-1.27019E-12
 -1        58 1.99227E+01-2.41095E-02-5.33259E-02-1.47117E-01 1.81517E-15-8.45546E-13
 -1        59 1.80849E+01-5.71081E-02-1.40369E-01-8.15172E-02-1.48189E-14-5.41255E-13
 -1        60 1.76280E+01-6.41812E-02-1.59701E-01 3.09784E-02-2.86407E-14-4.31143E-13
 -1        61 1.87393E+01-4.02632E-02-9.58688E-02 1.23701E-01 5.01782E-14-1.26562E-13
 -1        62 2.07985E+01-1.51987E-03 2.13019E-03 1.48287E-01-6.46889E-14-4.50404E-13
 -1        63 2.28467E+01 2.97388E-02 7.25534E-02 1.11543E-01 4.62165E-14-2.24848E-13
 -1        64 2.41804E+01 4.21343E-02 9.21455E-02 5.23518E-02-1.32569E-13 1.73538E-13
 -1        65 2.45846E+01 3.80098E-02 7.54576E-02 2.47567E-03-3.03160E-14 5.29511E-14
 -1        66 2.42077E+01 2.54975E-02 4.59802E-02-2.73824E-02 1.38174E-13 2.93271E-13
 -1        67 2.33385E+01 1.13721E-02 1.84630E-02-4.00726E-02-1.00230E-14 2.20263E-13
 -1        68 2.22609E+01-1.26028E-03-3.47801E-03-4.17185E-02-1.85240E-15 1.75589E-14
 -1        69 2.12077E+01-1.16868E-02-2.21768E-02-3.56859E-02 7.11057E-14 4.55677E-14
 -1        70 2.03807E+01-1.62403E-02-3.53773E-02-1.72717E-02-4.38766E-15 2.67802E-13
 -1        71 1.99721E+01 4.60644E-03-1.48208E-02 1.22833E-02-9.41949E-14 2.47187E-13
 -1        72 2.10409E+01-4.04875E-01-9.80377E-01-3.11547E-01 3.55965E-14 1.96876E-12
 -1        73 1.93294E+01-6.58809E-02-2.91135E-01-5.38155E-02 1.44199E-14 1.54108E-12
 -1        74 1.86853E+01-2.05025E-02-6.42684E-02-2.03333E-02 2.49638E-15 1.23790E-12
 -1        75 1.84817E+01-9.87427E-03-9.30053E-03-1.54315E-02 9.58175E-15 1.03968E-12
 -1        76 1.84921E+01-5.16086E-03 6.96103E-04-1.23589E-02 2.41099E-15 8.60347E-13
 -1        77 1.86044E+01-2.61196E-03 1.76418E-03-1.00776E-02 1.11591E-14 6.93111E-13
 -1        78 1.87619E+01-1.14621E-03 1.89963E-03-8.32138E-03-1.20388E-14 6.30308E-13
 -1        79 1.89336E+01-2.90350E-04 2.08723E-03-6.86781E-03 1.60920E-14 5.25430E-13
 -1        80 1.91019E+01 1.95912E-04 2.21750E-03-5.60870E-03-2.12194E-14 3.41543E-13
 -1        81 1.92573E+01 4.45875E-04 2.20970E-03-4.50039E-03 2.77513E-14 2.37602E-13
 -1        82 1.93951E+01 5.39191E-04 2.07053E-03-3.52304E-03-4.80314E-15 3.13240E-13
 -1        83 1.95140E+01 5.25262E-04 1.83290E-03-2.66375E-03 2.76171E-14 3.36118E-13
 -1        84 1.96151E+01 4.35044E-04 1.52614E-03-1.91074E-03 4.31175E-15 3.00421E-13
 -1        85 1.97007E+01 2.87318E-04 1.16867E-03-1.25216E-03 1.50606E-14 2.41838E-13
 -1        86 1.97744E+01 9.24250E-05 7.68050E-04-6.76771E-04 1.82742E-14 8.04731E-14
 -1        87 1.98406E+01-1.45152E-04 3.22717E-04-1.75498E-04-4.49845E-14-7.67501E-15
 -1        88 1.99045E+01-4.24646E-04-1.76062E-04 2.56408E-04 3.04770E-14 1.92966E-13
 -1        89 1.99722E+01-7.46824E-04-7.42046E-04 6.16618E-04-5.28769E-15-2.29651E-14
 -1        90 2.00506E+01-1.11136E-03-1.39123E-03 8.92266E-04-1.68915E-14-8.38643E-15
 -1        91 2.01477E+01-1.51331E-03-2.13775E-03 1.05559E-03-1.17114E-14-6.73409E-14
 -1        92 2.02724E+01-1.93800E-03-2.98742E-03 1.05845E-03-3.84481E-15-4.38375E-14
 -1        93 2.04349E+01-2.35368E-03-3.92691E-03 8.25705E-04 2.68587E-15-1.87766E-13
 -1        94 2.06458E+01-2.70111E-03-4.90576E-03 2.48262E-04-1.53054E-14-3.05712E-13
 -1        95 2.09160E+01-2.87966E-03-5.80689E-03-8.21817E-04-6.10304E-14-3.05441E-13
 -1        96 2.12543E+01-2.73136E-03-6.40082E-03-2.56762E-03 3.59589E-14 2.22244E-14
 -1        97 2.16656E+01-2.02851E-03-6.28164E-03-5.18118E-03-8.06248E-15 3.25262E-13
 -1        98 2.21452E+01-4.79533E-04-4.79530E-03-8.78824E-03 4.38824E-14 3.38833E-13
 -1        99 2.26730E+01 2.21681E-03-1.00561E-03-1.32821E-02-6.49743E-14-4.00201E-15
 -1       100 2.32035E+01 6.22100E-03 6.18677E-03-1.80205E-02-2.70953E-14 3.99153E-13
 -1       101 2.36562E+01 1.12582E-02 1.75582E-02-2.13856E-02 4.50215E-14 3.02412E-13
 -1       102 2.39105E+01 1.61868E-02 3.24418E-02-2.03810E-02-2.63719E-14-2.44744E-13
 -1       103 2.38145E+01 1.87207E-02 4.70624E-02-1.08498E-02-1.22480E-14-2.57760E-13
 -1       104 2.32247E+01 1.58982E-02 5.33967E-02 1.06047E-02 5.73369E-15 4.25441E-14
 -1       105 2.20849E+01 5.82479E-03 4.12870E-02 4.24829E-02 3.77081E-14 3.19696E-13
 -1       106 2.05242E+01-9.70024E-03 5.18148E-03 7.44183E-02-5.95599E-14 2.09707E-13
 -1       107 1.89088E+01-2.41170E-02-4.61793E-02 8.79045E-02 6.03769E-14 4.12344E-14
 -1       108 1.77564E+01-2.97458E-02-8.75421E-02 6.79461E-02 4.74182E-14-3.01306E-13
 -1       109 1.74890E+01-2.37534E-02-9.38965E-02 1.87682E-02 6.75198E-15 4.04642E-14
 -1       110 1.81798E+01-9.78255E-03-6.11205E-02-3.59771E-02 5.67203E-14-2.30479E-13
 -1       111 1.95068E+01 4.99191E-03-9.31277E-03-7.07233E-02 3.13669E-14-1.66367E-13
 -1       112 2.09481E+01 1.49368E-02 3.45275E-02-7.52802E-02-1.01269E-13 4.50650E-13
 -1       113 2.20532E+01 1.82322E-02 5.51637E-02-5.71928E-02 7.33307E-14 6.99843E-13
 -1       114 2.26009E+01 1.60796E-02 5.37537E-02-3.06614E-02 3.69962E-14 4.06283E-13
 -1       115 2.25937E+01 1.08227E-02 3.96563E-02-6.29363E-03-7.91365E-14-3.57923E-14
 -1       116 2.21681E+01 4.44423E-03 2.14271E-02 1.15414E-02 8.45735E-14 2.01146E-13
 -1       117 2.15089E+01-1.90554E-03 3.15368E-03 2.25216E-02 2.76522E-14-5.44093E-13
 -1       118 2.08033E+01-7.32622E-03-1.42619E-02 2.70387E-02-7.28974E-15-1.38764E-12
 -1       119 2.02333E+01-9.86311E-03-2.66740E-02 2.19740E-02 7.14560E-14-1.76476E-12
 -1       120 1.99759E+01 1.06058E-02-5.18743E-03-3.73294E-03 2.47397E-13-1.80434E-12
 -1       121 1.99977E+01-7.44276E-03-6.88599E-03-1.30411E-02-1.66082E-12 5.57186E-14
 -1       122 1.99844E+01 2.56230E-01-2.85749E-02 9.96276E-03-5.69957E-13 2.70985E-13
 -1       123 1.99877E+01 8.59679E-01-2.18784E-02 2.33972E-02 1.39393E-12 1.20315E-13
 -1       124 1.99932E+01 1.68552E+00-1.20145E-02 3.09367E-02 1.60056E-12 1.41239E-13
 -1       125 2.00002E+01 2.63023E+00-9.90527E-04 3.46452E-02 8.99947E-13-3.29779E-13
 -1       126 2.00085E+01 3.56253E+00 1.14164E-02 3.39248E-02 1.20154E-13-3.06388E-14
 -1       127 2.00163E+01 4.37725E+00 2.40516E-02 2.74607E-02 7.59877E-13 2.45357E-13
 -1       128 2.00222E+01 4.92112E+00 3.40430E-02 1.51387E-02 2.57718E-13-5.90741E-14
 -1       129 2.00246E+01 5.08710E+00 3.82803E-02-1.08801E-03 2.53998E-13 1.18433E-13
 -1       130 2.00226E+01 4.83109E+00 3.52603E-02-1.77884E-02 1.74487E-13-2.13515E-13
 -1       131 2.00164E+01 4.18754E+00 2.56096E-02-3.17548E-02-1.37988E-12-2.19112E-13
 -1       132 2.00080E+01 3.27726E+00 1.20878E-02-3.93106E-02-2.12678E-12 3.31237E-13
 -1       133 1.99982E+01 2.21822E+00-4.06732E-03-4.11238E-02-1.03206E-12 5.26538E-14
 -1       134 1.99864E+01 1.19016E+00-2.32428E-02-3.82185E-02-5.17824E-13-3.62482E-14
 -1       135 1.99841E+01 3.96339E-01-3.14201E-02-2.80006E-02-3.59973E-13 1.01453E-14
 -1       136 1.99832E+01 1.62738E-02-9.40733E-03 2.97360E-02-2.78082E-13 4.28229E-15
 -1       137-1.41616E+00-2.07919E+01-3.18068E+00-4.01809E+00 3.06088E-13 2.52347E-13
 -1       138-1.64671E+00-9.10886E+00-2.32328E+00-3.24834E+00 7.63611E-13 3.35260E-13
 -1       139 3.07930E+00 3.43313E+00-1.05023E+00 3.59236E+00 1.41515E-12 9.96314E-13
 -1       140 1.53541E+01 1.06836E+01 4.16896E-01 1.27163E+01 1.92030E-12 2.27368E-12
 -1       141 3.43424E+01 1.02925E+01 1.83009E+00 1.82199E+01 1.36752E-12 2.29905E-12
 -1       142 5.45489E+01 5.30169E+00 2.99121E+00 1.56829E+01 6.76181E-13 1.81921E-12
 -1       143 6.56668E+01 1.21682E+00 3.55761E+00 4.87376E+00 2.75370E-14 3.66679E-13
 -1       144 6.34405E+01 1.97254E+00 3.43871E+00-8.44677E+00-1.68663E-14 3.91354E-15
 -1       145 4.82951E+01 6.91448E+00 2.61687E+00-1.74470E+01 2.80109E-13-5.29077E-13
 -1       146 2.78218E+01 1.10338E+01 1.34832E+00-1.71777E+01 4.96270E-13-8.13627E-13
 -1       147 9.54312E+00 8.74292E+00-1.97103E-01-9.21812E+00 9.40192E-13-7.65110E-13
 -1       148 3.40755E-01-1.09705E+00-1.60191E+00-3.54799E-01 1.13143E-12-7.59781E-13
 -1       149-1.85831E+00-1.42898E+01-2.69490E+00 4.22240E+00 2.87770E-13-1.95371E-13
 -1       150-8.85938E-01-2.35379E+01-3.28210E+00 2.38289E+00-5.26190E-13 6.14829E-14
 -1       151-8.69103E-01-2.40254E+01-3.33576E+00-2.27328E+00-5.20806E-13-9.13436E-14
 -1       152-1.94462E+00-1.51553E+01-2.79918E+00-4.48055E+00-5.78371E-13-1.34226E-13
 -1       153-3.26238E-03-2.26192E+00-1.75086E+00-2.93772E-01-6.67688E-13-3.56992E-13
 -1       154 2.42955E+01 1.09063E+01 1.05087E+00 1.60116E+01-2.22100E-13-2.82663E-13
 -1       155 4.54396E+01 7.74856E+00 2.45769E+00 1.79722E+01-1.68199E-13-5.36349E-13
 -1       156 6.21818E+01 2.67322E+00 3.42136E+00 1.07969E+01-1.64892E-13-3.01925E-13
 -1       157 6.72572E+01 1.04558E+00 3.72255E+00-2.47027E+00 5.33150E-14 2.23731E-13
 -1       158 5.76592E+01 4.53230E+00 3.23422E+00-1.44505E+01-4.15591E-13 1.16229E-12
 -1       159 3.76922E+01 9.83081E+00 2.05165E+00-1.86804E+01-1.27712E-12 2.23471E-12
 -1       160 1.81245E+01 1.10415E+01 6.15266E-01-1.39947E+01-1.64097E-12 2.11103E-12
 -1       161 4.29456E+00 4.99250E+00-8.80573E-01-4.83192E+00-1.53810E-12 1.42908E-12
 -1       162-1.43457E+00-7.52823E+00-2.21781E+00 2.66908E+00 7.99361E-15 2.15855E-13
 -1       163-1.59455E+00-2.04467E+01-3.16469E+00 4.16577E+00 1.67066E-12-3.51108E-13
 -1       164 2.10121E+01 3.69401E+00-5.73477E-02-3.61096E+00-2.85931E-13 2.25549E-14
 -1       165 1.99901E+01 4.20771E+00-4.57374E-02-2.81028E+00-2.59145E-13-2.64868E-13
 -1       166 1.95088E+01 4.47679E+00-3.16043E-02-2.19504E+00-1.94441E-13-4.12803E-13
 -1       167 1.92672E+01 4.61509E+00-2.37643E-02-1.67630E+00-1.29524E-13-4.91087E-13
 -1       168 1.91380E+01 4.69663E+00-1.94828E-02-1.21987E+00-8.08429E-14-5.09576E-13
 -1       169 1.90646E+01 4.74774E+00-1.74180E-02-7.92535E-01-3.31054E-14-5.18875E-13
 -1       170 1.90276E+01 4.77566E+00-1.64263E-02-3.87108E-01 1.96749E-14-5.03695E-13
 -1       171 1.90168E+01 4.78421E+00-1.61381E-02 8.29636E-03 6.68587E-14-4.94527E-13
 -1       172 1.90293E+01 4.77438E+00-1.64704E-02 4.04045E-01 1.09612E-13-4.78565E-13
 -1       173 1.90682E+01 4.74482E+00-1.75232E-02 8.10540E-01 1.43390E-13-4.63204E-13
 -1       174 1.91423E+01 4.69237E+00-1.96901E-02 1.23223E+00 1.82266E-13-4.13833E-13
 -1       175 1.92773E+01 4.60522E+00-2.40086E-02 1.69906E+00 2.35605E-13-3.41590E-13
 -1       176 1.95235E+01 4.45943E+00-3.28527E-02 2.22747E+00 2.76374E-13-2.20358E-13
 -1       177 2.00125E+01 4.18375E+00-4.72165E-02 2.84766E+00 2.99895E-13 9.20791E-15
 -1       178 2.11338E+01 3.46365E+00-5.97871E-02 3.53743E+00 2.87249E-13 4.09110E-13
 -1       179 2.24179E+01 1.14344E+00-3.36472E-01 3.01534E+00 2.13498E-13 9.14102E-13
 -1       180 2.19700E+01 8.58323E-01 6.68078E-04-1.95954E+00-2.46643E-13 3.83475E-13
 -1       181 2.04451E+01 1.90258E-01-9.97816E-03-7.64610E-01-2.06789E-13 2.63376E-13
 -1       182 1.96693E+01 1.01494E-01 1.35669E-02-2.86199E-01-1.53711E-13 1.51971E-13
 -1       183 1.93288E+01 4.72394E-02 9.99908E-03-6.89255E-02-1.16388E-13 5.75933E-14
 -1       184 1.91984E+01 2.25634E-02 5.13769E-03 3.85023E-02-6.55760E-14 1.60013E-14
 -1       185 1.91842E+01 9.47794E-03 2.43928E-03 9.10768E-02-9.43605E-14-1.40516E-14
 -1       186 1.92321E+01 2.09203E-03 1.13682E-03 1.13387E-01-6.15323E-14-4.09255E-14
 -1       187 1.93106E+01-2.09029E-03 5.03137E-04 1.18341E-01-4.63474E-14-5.95583E-14
 -1       188 1.94011E+01-4.31731E-03 1.72770E-04 1.13431E-01-9.92285E-14-6.42859E-14
 -1       189 1.94928E+01-5.27830E-03-5.12988E-06 1.03344E-01-5.46277E-14-1.00042E-13
 -1       190 1.95796E+01-5.39403E-03-9.35806E-05 9.11522E-02-4.62449E-14-2.22000E-13
 -1       191 1.96589E+01-4.93318E-03-1.23240E-04 7.89285E-02-3.53069E-14-2.75614E-13
 -1       192 1.97300E+01-4.06495E-03-1.11461E-04 6.81128E-02-5.73521E-15-2.48727E-13
 -1       193 1.97942E+01-2.88730E-03-6.86991E-05 5.97537E-02-6.27802E-14-2.87569E-13
 -1       194 1.98538E+01-1.44426E-03-1.04243E-06 5.46843E-02-6.95271E-14-2.74450E-13
 -1       195 1.99119E+01 2.62466E-04 8.84343E-05 5.36543E-02-6.74669E-14-3.27784E-13
 -1       196 1.99728E+01 2.26450E-03 1.98703E-04 5.74317E-02 3.89732E-14-3.94567E-13
 -1       197 2.00415E+01 4.61886E-03 3.29892E-04 6.68802E-02 2.66712E-14-4.39102E-13
 -1       198 2.01239E+01 7.39911E-03 4.82244E-04 8.30117E-02-1.24618E-14-3.58541E-13
 -1       199 2.02270E+01 1.06827E-02 6.54660E-04 1.07009E-01-4.45246E-14-4.49911E-13
 -1       200 2.03588E+01 1.45299E-02 8.42447E-04 1.40199E-01 3.02823E-14-4.41584E-13
 -1       201 2.05285E+01 1.89452E-02 1.03379E-03 1.83954E-01-9.62966E-14-5.48834E-13
 -1       202 2.07461E+01 2.38075E-02 1.20439E-03 2.39442E-01-6.14202E-14-4.84638E-13
 -1       203 2.10218E+01 2.87450E-02 1.31010E-03 3.07142E-01 7.17501E-14-4.39118E-13
 -1       204 2.13652E+01 3.29214E-02 1.27872E-03 3.85943E-01 2.92181E-14-4.11211E-13
 -1       205 2.17824E+01 3.46967E-02 1.00585E-03 4.71581E-01 8.70151E-14-4.73240E-13
 -1       206 2.22733E+01 3.11560E-02 3.66367E-04 5.54151E-01-9.03162E-15-4.82599E-13
 -1       207 2.28250E+01 1.76294E-02-7.37953E-04 6.14569E-01 2.19457E-14-4.00908E-13
 -1       208 2.34045E+01-1.23131E-02-2.27536E-03 6.20601E-01-2.63769E-14-3.55585E-13
 -1       209 2.39497E+01-6.51379E-02-3.93400E-03 5.25079E-01-1.71467E-13-4.45574E-13
 -1       210 2.43621E+01-1.41657E-01-5.01711E-03 2.72788E-01-1.94514E-13-4.14280E-13
 -1       211 2.45117E+01-2.25840E-01-4.63328E-03-1.73122E-01-5.11258E-14-5.84322E-13
 -1       212 2.42654E+01-2.71843E-01-2.26305E-03-7.76966E-01-4.61280E-14-4.48966E-13
 -1       213 2.35559E+01-2.09145E-01 5.94613E-04-1.36517E+00 8.25954E-14-3.30545E-13
 -1       214 2.24867E+01 5.24719E-03 1.11887E-03-1.62449E+00 1.78768E-13-4.07212E-13
 -1       215 2.14017E+01 2.99663E-01-1.76560E-03-1.26742E+00 1.72585E-13-5.11993E-13
 -1       216 2.07806E+01 4.82489E-01-4.25180E-03-3.23794E-01-2.70964E-15-5.60840E-13
 -1       217 2.09247E+01 4.05415E-01-3.10448E-03 7.50027E-01 1.71600E-13-2.01577E-13
 -1       218 2.17057E+01 1.32178E-01-1.63432E-04 1.39218E+00-1.91114E-13-2.93158E-13
 -1       219 2.26760E+01-1.37695E-01 6.48208E-04 1.37200E+00 8.97190E-14-2.22464E-13
 -1       220 2.33998E+01-2.69163E-01-1.49967E-03 8.70664E-01 1.51540E-13-3.84010E-13
 -1       221 2.36664E+01-2.63261E-01-3.92548E-03 2.23879E-01 7.09771E-14-2.43363E-13
 -1       222 2.34814E+01-1.87143E-01-4.83314E-03-3.21166E-01 1.14606E-13 4.67506E-14
 -1       223 2.29662E+01-9.85375E-02-3.87134E-03-6.66538E-01-4.73282E-14-2.00838E-14
 -1       224 2.22726E+01-2.31631E-02-1.85251E-03-8.12697E-01-3.05660E-14 1.07165E-13
 -1       225 2.15390E+01 3.75514E-02 1.39496E-05-7.92925E-01 5.01866E-15 1.69344E-13
 -1       226 2.08785E+01 9.33735E-02 1.26673E-03-6.35379E-01 5.04321E-14 1.87588E-13
 -1       227 2.03582E+01 1.47421E-01 1.09390E-03-3.61313E-01-1.58453E-14 1.74279E-13
 -1       228 2.09616E+01 2.77033E-01-5.13388E-02 1.16536E+00 2.01023E-13 8.02113E-13
 -1       229 1.98663E+01 1.26830E-01 8.30809E-03 4.43678E-01 1.64050E-13 6.39544E-13
 -1       230 1.93593E+01 5.80409E-02 1.27340E-02 1.50689E-01 1.26096E-13 4.87541E-13
 -1       231 1.91490E+01 2.76913E-02 7.62850E-03 1.14860E-02 1.11564E-13 3.90165E-13
 -1       232 1.90984E+01 1.30365E-02 3.82437E-03-5.75599E-02 7.86645E-14 3.21045E-13
 -1       233 1.91334E+01 5.10171E-03 1.90939E-03-8.99185E-02 2.87993E-14 2.56002E-13
 -1       234 1.92117E+01 5.83614E-04 1.00921E-03-1.01676E-01 9.22492E-14 1.64282E-13
 -1       235 1.93086E+01-1.96229E-03 5.53172E-04-1.01591E-01 6.96260E-14 7.50976E-14
 -1       236 1.94099E+01-3.27284E-03 2.95814E-04-9.49350E-02 4.48007E-14-8.27471E-15
 -1       237 1.95072E+01-3.77435E-03 1.43198E-04-8.50729E-02-3.48572E-14 2.72237E-14
 -1       238 1.95965E+01-3.73266E-03 5.57760E-05-7.42347E-02 1.88092E-14 1.01500E-13
 -1       239 1.96764E+01-3.31753E-03 1.29361E-05-6.39345E-02 3.44202E-14 1.11180E-13
 -1       240 1.97475E+01-2.63468E-03 1.95903E-06-5.52334E-02 9.91866E-14 1.05510E-13
 -1       241 1.98116E+01-1.74402E-03 1.43753E-05-4.89176E-02 6.99318E-14 2.01967E-14
 -1       242 1.98715E+01-6.71697E-04 4.43395E-05-4.56256E-02-3.21649E-15 1.00649E-13
 -1       243 1.99312E+01 5.80854E-04 8.75730E-05-4.59411E-02-5.07718E-14-3.94616E-16
 -1       244 1.99952E+01 2.02858E-03 1.40484E-04-5.04554E-02 9.65330E-14 5.92825E-15
 -1       245 2.00688E+01 3.69364E-03 1.99301E-04-5.98028E-02-2.98180E-14-6.06854E-14
 -1       246 2.01582E+01 5.59349E-03 2.59101E-04-7.46599E-02 2.36898E-14-1.86928E-14
 -1       247 2.02703E+01 7.72385E-03 3.12637E-04-9.57003E-02-3.60542E-14-5.35611E-14
 -1       248 2.04124E+01 1.00327E-02 3.48994E-04-1.23481E-01 2.48238E-14 4.64357E-14
 -1       249 2.05922E+01 1.23798E-02 3.52313E-04-1.58226E-01 8.18569E-14-1.78058E-14
 -1       250 2.08170E+01 1.44760E-02 3.01313E-04-1.99461E-01-2.56160E-14-2.10087E-13
 -1       251 2.10922E+01 1.57940E-02 1.71330E-04-2.45426E-01-1.13801E-13-2.97363E-13
 -1       252 2.14197E+01 1.54522E-02-5.80284E-05-2.92205E-01-1.54075E-13-9.79182E-14
 -1       253 2.17944E+01 1.20946E-02-3.85242E-04-3.32525E-01 4.27797E-14 1.41893E-13
 -1       254 2.22003E+01 3.84354E-03-7.56579E-04-3.54389E-01 6.70049E-14 5.51000E-14
 -1       255 2.26055E+01-1.14798E-02-1.02818E-03-3.40023E-01-1.36757E-13-3.83671E-14
 -1       256 2.29569E+01-3.55149E-02-9.51719E-04-2.66472E-01 7.47930E-14-3.07952E-14
 -1       257 2.31797E+01-6.74243E-02-2.47640E-04-1.10217E-01 1.68155E-13-9.76139E-14
 -1       258 2.31834E+01-1.00705E-01 1.12727E-03 1.40957E-01-8.07709E-14-1.33539E-14
 -1       259 2.28852E+01-1.20039E-01 2.74793E-03 4.67330E-01-6.99015E-14-1.03686E-13
 -1       260 2.22523E+01-1.03566E-01 3.37294E-03 7.95013E-01-9.73340E-14 6.33599E-14
 -1       261 2.13546E+01-3.50473E-02 1.52999E-03 9.95185E-01-4.33941E-15 2.37929E-13
 -1       262 2.03951E+01 7.56027E-02-2.78111E-03 9.29219E-01 8.59317E-14-4.57872E-14
 -1       263 1.96724E+01 1.78939E-01-6.76067E-03 5.46498E-01 6.40260E-14 4.95602E-14
 -1       264 1.94457E+01 2.12712E-01-7.09996E-03-3.53211E-02-2.02957E-13 1.90034E-13
 -1       265 1.97796E+01 1.55876E-01-3.15328E-03-5.74594E-01 8.32281E-14 3.99549E-13
 -1       266 2.05026E+01 4.46616E-02 1.95834E-03-8.57229E-01-1.10673E-13 6.11969E-13
 -1       267 2.13122E+01-5.92460E-02 4.69893E-03-8.19604E-01-1.78700E-13 5.78629E-13
 -1       268 2.19355E+01-1.15465E-01 4.17871E-03-5.49928E-01 2.66445E-14 4.38676E-13
 -1       269 2.22292E+01-1.21372E-01 2.01038E-03-1.95423E-01 1.35278E-14 4.45782E-13
 -1       270 2.21819E+01-9.54376E-02 4.81674E-05 1.24053E-01 2.34679E-13 6.50057E-13
 -1       271 2.18678E+01-5.71062E-02-9.66428E-04 3.45520E-01 3.09783E-14 1.89096E-13
 -1       272 2.13979E+01-1.76038E-02-1.34971E-03 4.50744E-01 3.65253E-13 5.08070E-14
 -1       273 2.08883E+01 1.99310E-02-1.95310E-03 4.42390E-01 3.21334E-13 1.11678E-13
 -1       274 2.04445E+01 5.78378E-02-1.76409E-03 3.27878E-01 3.64689E-13-6.24576E-14
 -1       275 2.01368E+01 7.88515E-02 1.04018E-03 1.33803E-01-1.45573E-13-2.55061E-13
 -1       276 2.01060E+01 2.74411E-01 1.96005E-03 2.60632E-01 1.87721E-13 7.62640E-13
 -1       277 2.00827E+01 6.52837E-01 1.57865E-03 4.75981E-01 2.35139E-13 1.07535E-12
 -1       278 2.00521E+01 1.16857E+00 1.00286E-03 6.37949E-01 4.22897E-13 2.05912E-13
 -1       279 2.00196E+01 1.78369E+00 1.45381E-04 7.26321E-01 3.95678E-13-1.02516E-14
 -1       280 1.99807E+01 2.42314E+00-1.25864E-03 7.26359E-01 2.73910E-13-5.33211E-13
 -1       281 1.99368E+01 3.02706E+00-2.57880E-03 6.23074E-01 9.88020E-14-1.37991E-14
 -1       282 1.98970E+01 3.49128E+00-3.62211E-03 4.15132E-01-3.40461E-14 2.86722E-14
 -1       283 1.98721E+01 3.73392E+00-4.16499E-03 1.26495E-01-7.60178E-15-3.47362E-13
 -1       284 1.98704E+01 3.70480E+00-4.11849E-03-1.95011E-01-2.62988E-13-8.94337E-14
 -1       285 1.98931E+01 3.40179E+00-3.45164E-03-4.90168E-01-3.03896E-13-5.74151E-13
 -1       286 1.99333E+01 2.88372E+00-2.18800E-03-7.02950E-01-8.00523E-14-3.92257E-13
 -1       287 1.99835E+01 2.21673E+00-7.42388E-04-8.06433E-01-1.80767E-13 4.78148E-13
 -1       288 2.00359E+01 1.51267E+00 6.35450E-04-7.82909E-01-8.97524E-14 2.52560E-13
 -1       289 2.00966E+01 8.72694E-01 2.22028E-03-6.23453E-01-2.16601E-13 1.55799E-13
 -1       290 2.02156E+01 4.71137E-01 3.05258E-03-5.58950E-01-1.79509E-13 7.70229E-14
 -1       291-9.83009E-01-1.15113E+01-1.04037E+00 1.16244E+00 7.49165E-13-1.23013E-13
 -1       292 2.59556E+00-9.13941E+00-8.27058E-01 3.39907E+00 7.12486E-13 4.11234E-13
 -1       293 1.00619E+01-5.58301E+00-4.37081E-01 5.97362E+00 5.23720E-13 7.27654E-13
 -1       294 1.84689E+01-1.09479E+00-1.03515E-01 7.25817E+00 6.04100E-13 1.21739E-12
 -1       295 2.88163E+01 2.48092E+00 3.38501E-01 7.82841E+00 7.64222E-13 8.19511E-13
 -1       296 3.77535E+01 4.54820E+00 5.41201E-01 4.93936E+00 7.28358E-13 7.87426E-13
 -1       297 4.52560E+01 6.41345E+00 9.77296E-01 3.46113E+00 8.99419E-13 5.17891E-13
 -1       298 4.55087E+01 7.09211E+00 8.95604E-01-3.29930E-01 2.85216E-13 7.85171E-14
 -1       299 4.37359E+01 5.98403E+00 9.38535E-01-4.41967E+00 1.94164E-13-2.07057E-13
 -1       300 3.57131E+01 4.30585E+00 6.15620E-01-7.04047E+00 2.08680E-13-1.70364E-13
 -1       301 2.49975E+01 1.45024E+00 1.70677E-01-7.69827E+00 2.84300E-13-1.25705E-13
 -1       302 1.44823E+01-2.57330E+00-2.72491E-01-6.59432E+00 3.26017E-13-1.80245E-13
 -1       303 6.57755E+00-6.71051E+00-5.56226E-01-5.13004E+00-4.01068E-14-4.53739E-13
 -1       304 4.87692E-01-1.00840E+01-9.09614E-01-2.31368E+00-2.63789E-13-3.39354E-13
 -1       305-1.36458E+00-1.15574E+01-1.03691E+00-1.85768E-01-2.43803E-13 7.85483E-15
 -1       306 2.09878E-01-1.04101E+01-9.56269E-01 1.92056E+00-1.30368E-13 6.66134E-15
 -1       307 6.18240E+00-7.04015E+00-5.85652E-01 4.75526E+00-9.02334E-14-3.07844E-14
 -1       308 1.40814E+01-3.53634E+00-3.21492E-01 6.28804E+00-2.09555E-13-1.76886E-13
 -1       309 2.35380E+01 5.16416E-01 7.52262E-02 7.38747E+00-2.37366E-13 7.95197E-14
 -1       310 3.42424E+01 3.37045E+00 4.92775E-01 6.52973E+00 1.36904E-14-1.13409E-13
 -1       311 4.30009E+01 5.62258E+00 9.01999E-01 4.76702E+00-5.87724E-14-1.46855E-13
 -1       312 4.66131E+01 6.79654E+00 1.00232E+00 1.02041E+00-2.98012E-13-2.00069E-13
 -1       313 4.49811E+01 6.81545E+00 8.79476E-01-2.33273E+00-5.31908E-13 2.33896E-13
 -1       314 3.99844E+01 5.13413E+00 7.40332E-01-5.60177E+00-8.06469E-13 3.45723E-13
 -1       315 3.08227E+01 2.73346E+00 4.01851E-01-7.60979E+00-5.83186E-13 7.98805E-13
 -1       316 2.02734E+01-6.45387E-01-5.03995E-02-7.37527E+00-3.11640E-13 8.77798E-13
 -1       317 1.04510E+01-4.83691E+00-4.89825E-01-5.72869E+00 8.67084E-14 9.56360E-13
 -1       318 3.63529E+00-8.49719E+00-6.77482E-01-4.11880E+00 5.67962E-13 7.85323E-13
 -1       319-8.33564E-01-1.10343E+01-9.46879E-01-1.23451E+00 5.07885E-13-3.63820E-13
 -1       320 2.01451E+01 3.01531E+00-1.78315E-02-2.11157E+00-2.65211E-13-2.42056E-13
 -1       321 2.07548E+01 2.20831E+00-1.78015E-02-2.36424E+00-2.94651E-13-8.70033E-14
 -1       322 1.95849E+01 3.69124E+00-1.50572E-02-1.31803E+00-1.31628E-13-3.92051E-13
 -1       323 1.94617E+01 3.84830E+00-1.35877E-02-9.24114E-01-8.05169E-14-3.96253E-13
 -1       324 1.93930E+01 3.93910E+00-1.27026E-02-5.44174E-01-7.96012E-15-3.90844E-13
 -1       325 1.93626E+01 3.98041E+00-1.22988E-02-1.73348E-01 5.59005E-14-3.85394E-13
 -1       326 1.93639E+01 3.97877E+00-1.23178E-02 1.94537E-01 1.11271E-13-3.88588E-13
 -1       327 1.93971E+01 3.93386E+00-1.27630E-02 5.65768E-01 1.47673E-13-3.59401E-13
 -1       328 1.94675E+01 3.84060E+00-1.37706E-02 9.39945E-01 1.99308E-13-3.29521E-13
 -1       329 1.95939E+01 3.67840E+00-1.56561E-02 1.33417E+00 2.59731E-13-2.71729E-13
 -1       330 1.98087E+01 3.40978E+00-1.88319E-02 1.73956E+00 3.01021E-13-1.96122E-13
 -1       331 2.01786E+01 2.95510E+00-2.29401E-02 2.12814E+00 3.33287E-13-5.28154E-14
 -1       332 2.07477E+01 2.12940E+00-3.04704E-02 2.32302E+00 3.22346E-13 2.16036E-13
 -1       333 2.10939E+01 1.18773E+00-2.49260E-02 1.92265E+00 2.69642E-13 4.51819E-13
 -1       334 2.03898E+01 4.89231E-01 8.33197E-03 9.28140E-01 2.40450E-13 3.55885E-13
 -1       335 2.04560E+01 6.75503E-01 1.23566E-02-1.02610E+00-2.35384E-13-4.60115E-14
 -1       336 2.00357E+01 3.34473E-01 6.77688E-03-4.59213E-01-1.71742E-13-7.01386E-14
 -1       337 1.97802E+01 1.76551E-01 4.05104E-03-1.49860E-01-1.24591E-13-6.14273E-14
 -1       338 1.96443E+01 9.03975E-02 1.91861E-03 2.10867E-02-7.82307E-14-9.55484E-14
 -1       339 1.95886E+01 4.12592E-02 8.08387E-04 1.12164E-01-8.75962E-14-7.71550E-14
 -1       340 1.95831E+01 1.24755E-02 2.78966E-04 1.55424E-01-2.85936E-14-7.31730E-14
 -1       341 1.96071E+01-4.22029E-03 2.11013E-05 1.69888E-01-7.90544E-14-1.13564E-13
 -1       342 1.96469E+01-1.32503E-02-1.08889E-04 1.67435E-01-1.21087E-13-1.03636E-13
 -1       343 1.96939E+01-1.72170E-02-1.68288E-04 1.55846E-01-9.07688E-14-9.80947E-14
 -1       344 1.97428E+01-1.77505E-02-1.82971E-04 1.40367E-01-1.29213E-13-1.25445E-13
 -1       345 1.97908E+01-1.58922E-02-1.66974E-04 1.24625E-01-4.23309E-14-1.47643E-13
 -1       346 1.98370E+01-1.22905E-02-1.28642E-04 1.11204E-01-6.61857E-15-1.97160E-13
 -1       347 1.98818E+01-7.31110E-03-7.27256E-05 1.02053E-01-7.16412E-14-1.44221E-13
 -1       348 1.99266E+01-1.10836E-03-1.39519E-06 9.87679E-02-1.18930E-13-1.84160E-13
 -1       349 1.99735E+01 6.32529E-03 8.50967E-05 1.02809E-01-6.05734E-14-9.99200E-14
 -1       350 2.00256E+01 1.51183E-02 1.87855E-04 1.15662E-01-2.76148E-14-1.17039E-13
 -1       351 2.00862E+01 2.54798E-02 3.08758E-04 1.38947E-01 4.81671E-14-2.11669E-13
 -1       352 2.01598E+01 3.76512E-02 4.49682E-04 1.74472E-01-7.16517E-14-3.34858E-13
 -1       353 2.02510E+01 5.18334E-02 6.11294E-04 2.24224E-01-8.29097E-14-3.81723E-13
 -1       354 2.03653E+01 6.80669E-02 7.91040E-04 2.90248E-01-1.97072E-14-4.45928E-13
 -1       355 2.05086E+01 8.60258E-02 9.79751E-04 3.74364E-01-8.59134E-14-3.54886E-13
 -1       356 2.06869E+01 1.04662E-01 1.15614E-03 4.77606E-01 1.86386E-14-3.32597E-13
 -1       357 2.09060E+01 1.21613E-01 1.27855E-03 5.99212E-01 1.18174E-13-2.88736E-13
 -1       358 2.11713E+01 1.32265E-01 1.27415E-03 7.34931E-01 6.56113E-14-3.63133E-13
 -1       359 2.14865E+01 1.28431E-01 1.02885E-03 8.74330E-01 1.14715E-13-3.07054E-13
 -1       360 2.18535E+01 9.68172E-02 3.87717E-04 9.96881E-01 6.93726E-14-2.88341E-13
 -1       361 2.22708E+01 1.82435E-02-8.12720E-04 1.06701E+00-4.36161E-14-2.31651E-13
 -1       362 2.27324E+01-1.29836E-01-2.65520E-03 1.02962E+00-6.84294E-14-2.17541E-13
 -1       363 2.32229E+01-3.62041E-01-4.96736E-03 8.10520E-01-1.31693E-13-1.07450E-13
 -1       364 2.37062E+01-6.57383E-01-7.08909E-03 3.32452E-01-7.67966E-14 2.95541E-14
 -1       365 2.41060E+01-9.16537E-01-7.89168E-03-4.36700E-01-6.86270E-14 2.11093E-13
 -1       366 2.42887E+01-9.31358E-01-5.92665E-03-1.39194E+00-7.59367E-14 7.51406E-14
 -1       367 2.41022E+01-4.61575E-01-4.41175E-03-2.18781E+00 1.05239E-13 6.70425E-14
 -1       368 2.35390E+01 5.01098E-01-7.00924E-03-2.27807E+00 5.76800E-14-4.72682E-14
 -1       369 2.29193E+01 1.46268E+00-1.14831E-02-1.31132E+00-2.92388E-15-1.73542E-13
 -1       370 2.27334E+01 1.67752E+00-1.27596E-02 3.45295E-01 1.55830E-13-2.68022E-13
 -1       371 2.31015E+01 9.64723E-01-8.78227E-03 1.70840E+00 1.18571E-13-3.58574E-13
 -1       372 2.36374E+01-9.44913E-02-5.94874E-03 2.06520E+00 9.08783E-14 4.03562E-15
 -1       373 2.38943E+01-8.16189E-01-6.75284E-03 1.49357E+00 2.02650E-14 4.95741E-15
 -1       374 2.37437E+01-9.96168E-01-7.68862E-03 5.25479E-01-2.53387E-14-1.55519E-13
 -1       375 2.32995E+01-8.12762E-01-7.66680E-03-3.77373E-01 2.31821E-13-9.24669E-14
 -1       376 2.27165E+01-5.01580E-01-5.91448E-03-1.00299E+00 2.16822E-13 1.44827E-13
 -1       377 2.21017E+01-2.03798E-01-3.13259E-03-1.32167E+00 1.61103E-14 5.05325E-13
 -1       378 2.15135E+01 3.86828E-02-3.87109E-04-1.37943E+00-3.97205E-14 4.39793E-13
 -1       379 2.09859E+01 2.38084E-01 2.16238E-03-1.23021E+00-4.53162E-14 5.44588E-13
 -1       380 2.05822E+01 3.72329E-01 3.79630E-03-9.41682E-01-1.61473E-13 2.65640E-13
 -1       381 1.98878E+01 2.28400E-01 1.07942E-02 3.99602E-01 2.02921E-13 2.78914E-13
 -1       382 1.95987E+01 1.15252E-01 6.17210E-03 1.21034E-01 1.71188E-13 2.00356E-13
 -1       383 1.94636E+01 5.75285E-02 2.80332E-03-2.76577E-02 1.12153E-13 1.34012E-13
 -1       384 1.94232E+01 2.56784E-02 1.17608E-03-1.04405E-01 7.66528E-14 1.95955E-14
 -1       385 1.94385E+01 7.30680E-03 4.49940E-04-1.39596E-01 1.05375E-13-3.20658E-14
 -1       386 1.94843E+01-3.25820E-03 1.06644E-04-1.50239E-01 1.32205E-13-3.28456E-14
 -1       387 1.95447E+01-8.94982E-03-6.94221E-05-1.46654E-01 7.19897E-14-4.71279E-14
 -1       388 1.96099E+01-1.14579E-02-1.56738E-04-1.35457E-01-6.74557E-14-2.78307E-14
 -1       389 1.96745E+01-1.18280E-02-1.88339E-04-1.21041E-01-1.68943E-14-8.53310E-15
 -1       390 1.97355E+01-1.07264E-02-1.81822E-04-1.06406E-01 8.01855E-14-2.66478E-14
 -1       391 1.97923E+01-8.57228E-03-1.47982E-04-9.36570E-02 1.50054E-13-1.78735E-14
 -1       392 1.98455E+01-5.61151E-03-9.35125E-05-8.43453E-02 8.94544E-14 1.18029E-14
 -1       393 1.98968E+01-1.96508E-03-2.22593E-05-7.97001E-02-8.10019E-15-5.85105E-15
 -1       394 1.99489E+01 2.33554E-03 6.38550E-05-8.07979E-02 3.73358E-14 2.50528E-14
 -1       395 2.00052E+01 7.31669E-03 1.63986E-04-8.86757E-02 1.04656E-13-4.31069E-14
 -1       396 2.00696E+01 1.30284E-02 2.77464E-04-1.04392E-01 5.63715E-14-9.17378E-14
 -1       397 2.01468E+01 1.95013E-02 4.02664E-04-1.29031E-01-5.25071E-14-1.39957E-13
 -1       398 2.02420E+01 2.66877E-02 5.35436E-04-1.63625E-01-3.59572E-14-6.18431E-14
 -1       399 2.03608E+01 3.43729E-02 6.66929E-04-2.08977E-01-5.64957E-14-2.83459E-14
 -1       400 2.05088E+01 4.20440E-02 7.80617E-04-2.65324E-01 1.78893E-13-1.06488E-13
 -1       401 2.06915E+01 4.86960E-02 8.48588E-04-3.31779E-01 9.88358E-14-1.81195E-13
 -1       402 2.09130E+01 5.25613E-02 8.27807E-04-4.05467E-01-1.95916E-13-3.63448E-13
 -1       403 2.11753E+01 5.07716E-02 6.58409E-04-4.80264E-01-2.28831E-13-1.84598E-13
 -1       404 2.14762E+01 3.90344E-02 2.68362E-04-5.45125E-01-3.35786E-14-2.45066E-13
 -1       405 2.18075E+01 1.15722E-02-4.08293E-04-5.82210E-01 1.45814E-13 1.44777E-13
 -1       406 2.21515E+01-3.81080E-02-1.39215E-03-5.65497E-01-9.61467E-14 1.64480E-14
 -1       407 2.24789E+01-1.14602E-01-2.58890E-03-4.61604E-01 1.73650E-13 6.19923E-14
 -1       408 2.27453E+01-2.14896E-01-3.72490E-03-2.35935E-01 1.81208E-13 1.98634E-13
 -1       409 2.28921E+01-3.19113E-01-4.34219E-03 1.31568E-01-5.82147E-14 9.68036E-14
 -1       410 2.28522E+01-3.81489E-01-4.00925E-03 6.17989E-01-3.32642E-14-2.39445E-14
 -1       411 2.25720E+01-3.34594E-01-1.86971E-03 1.12358E+00-2.19781E-13 6.15495E-14
 -1       412 2.20529E+01-1.27829E-01 3.69876E-04 1.46361E+00-3.69212E-14 3.69356E-13
 -1       413 2.13996E+01 2.17032E-01 2.09404E-03 1.42204E+00 1.57986E-13 4.74344E-13
 -1       414 2.08350E+01 5.52595E-01 3.28554E-03 8.94907E-01-2.19659E-15 4.13597E-13
 -1       415 2.06038E+01 6.77254E-01 3.48683E-03 3.24000E-02-2.79438E-13 5.32974E-13
 -1       416 2.07965E+01 5.11773E-01 3.96857E-03-7.97662E-01-4.69312E-14 5.49631E-13
 -1       417 2.12809E+01 1.61074E-01 3.40718E-03-1.25024E+00-2.23774E-13 4.28155E-13
 -1       418 2.18025E+01-1.78037E-01 7.65236E-04-1.21120E+00-1.17993E-13 6.14340E-13
 -1       419 2.21498E+01-3.68455E-01-2.63480E-03-8.09801E-01-2.90675E-15 6.82960E-13
 -1       420 2.22377E+01-3.95329E-01-4.81252E-03-2.71944E-01 7.91767E-14 5.12951E-13
 -1       421 2.20849E+01-3.15249E-01-4.99072E-03 2.17650E-01 2.16880E-13 5.50770E-13
 -1       422 2.17597E+01-1.91287E-01-3.71840E-03 5.61053E-01 3.48405E-13 6.55119E-13
 -1       423 2.13417E+01-6.22127E-02-1.84824E-03 7.29243E-01 3.93496E-13 3.92999E-13
 -1       424 2.09028E+01 5.88001E-02-4.98602E-05 7.28211E-01 2.46017E-13 4.30542E-13
 -1       425 2.05015E+01 1.65425E-01 1.03279E-03 5.76951E-01 3.36991E-13 8.11230E-13
 -1       426 2.02855E+01 2.33363E-01 1.72634E-03 4.37261E-01 4.06963E-13 1.06791E-12
 -1       427 2.01388E+01 1.13247E+00 1.31355E-03 1.15488E+00 4.95844E-15 2.08231E-13
 -1       428 2.02449E+01 7.22910E-01 2.45408E-03 9.58082E-01 3.05701E-14 7.25556E-13
 -1       429 2.02793E+01 4.66328E-01 2.79607E-03 7.08102E-01 2.86146E-13 9.64806E-13
 -1       430 2.00039E+01 1.58713E+00-2.13872E-04 1.23117E+00 1.18072E-13-6.03759E-13
 -1       431 1.98389E+01 2.06177E+00-1.84153E-03 1.15202E+00 6.83053E-14-1.64070E-13
 -1       432 1.96710E+01 2.48219E+00-3.27015E-03 8.93565E-01 1.85579E-14-8.93187E-15
 -1       433 1.95406E+01 2.77281E+00-4.22774E-03 4.71758E-01-3.72979E-13-1.81676E-13
 -1       434 1.94874E+01 2.87106E+00-4.60494E-03-5.12645E-02-2.98318E-13-3.21569E-13
 -1       435 1.95303E+01 2.75116E+00-4.23312E-03-5.79805E-01-2.04268E-13-2.16791E-13
 -1       436 1.96559E+01 2.44147E+00-3.15786E-03-1.00768E+00 2.38488E-13-1.84808E-13
 -1       437 1.98364E+01 1.99088E+00-1.57628E-03-1.27630E+00 2.01087E-13 1.78894E-13
 -1       438 2.00350E+01 1.47972E+00 4.83226E-04-1.34513E+00 3.45573E-13 4.04481E-13
 -1       439 2.02300E+01 9.78370E-01 3.18687E-03-1.22207E+00-5.64287E-14-2.23577E-13
 -1       440 1.05334E+01-5.74932E+00-6.57096E-03 7.12221E+00 3.06422E-14 6.64815E-14
 -1       441 1.63199E+00-4.17879E+00 1.10475E-02 1.94124E-01 2.02475E-13-9.34530E-14
 -1       442 4.41145E+00-5.12074E+00-2.48867E-02 4.91214E+00 5.58609E-13 1.59595E-14
 -1       443 1.91800E+01-5.52970E+00-2.41000E-02 6.84113E+00-8.97060E-14 5.22728E-13
 -1       444 2.67533E+01-3.44383E+00 9.15689E-03 4.65868E+00 2.44110E-14 2.26763E-14
 -1       445 1.97871E+01 3.43921E+00-2.08498E-02-1.72646E+00-2.08264E-13-3.30482E-13
 -1       446 3.43415E+01 5.60176E+00-1.46384E-02-1.56304E-01 7.57963E-13-2.64441E-13
 -1       447 3.52793E+01 7.87717E+00 1.58246E-02-6.80041E-02 6.65246E-13 2.33563E-14
 -1       448 3.52097E+01 7.26923E+00 1.96832E-02 4.81616E-01 2.24154E-13 2.05100E-13
 -1       449 3.46571E+01 3.95861E+00 7.35293E-02-5.64414E-01 1.21986E-13 8.76799E-14
 -1       450 3.05720E+01-6.57628E-01 2.15463E-02-2.74765E+00 3.77129E-15 3.29736E-14
 -1       451 2.42180E+01-4.68435E+00-1.88144E-02-5.15812E+00 6.69464E-14 1.37640E-13
 -1       452 1.69313E+01-5.69723E+00 1.59510E-02-7.03895E+00-2.35187E-13-9.24868E-14
 -1       453 7.84781E+00-4.33493E+00 1.10091E-01-6.29312E+00-2.15314E-13-5.45841E-13
 -1       454 1.44937E+00-5.06634E+00-9.57638E-02-2.50498E+00-1.72293E-13-3.29181E-14
 -1       455 1.48595E+00-4.92812E+00-8.06784E-02 2.03404E+00-1.51684E-13 4.06619E-14
 -1       456 6.41650E+00-5.17199E+00-2.66120E-02 5.70588E+00 8.35859E-14 3.67067E-14
 -1       457 1.47017E+01-5.93676E+00-4.89954E-02 6.87930E+00-4.55469E-14-8.06117E-14
 -1       458 2.32636E+01-4.79717E+00-2.01092E-02 5.48552E+00-2.02782E-13 3.63903E-13
 -1       459 2.97924E+01-1.90726E+00 1.28708E-04 2.73541E+00 1.40055E-13 1.33560E-13
 -1       460 3.45438E+01 3.00816E+00 7.43394E-02 4.12211E-01 2.34590E-13 1.15380E-13
 -1       461 3.67662E+01 6.71494E+00 1.16106E-01-3.15152E-01 6.64746E-14 2.36172E-13
 -1       462 3.55664E+01 8.04944E+00 1.76660E-02-9.81257E-02-4.60049E-13 2.99654E-13
 -1       463 3.46391E+01 5.43828E+00-2.87447E-02 5.15313E-01-6.65454E-13 7.87009E-14
 -1       464 3.26023E+01 6.72438E-01-3.11009E-02-7.79279E-01-1.89477E-13-4.12587E-13
 -1       465 2.81480E+01-3.24236E+00-3.90255E-03-3.92739E+00 3.80883E-13 1.14006E-13
 -1       466 2.04307E+01-5.60856E+00-2.86762E-02-6.55499E+00 7.47180E-13 2.37900E-13
 -1       467 1.22796E+01-6.00643E+00-5.05739E-02-7.08393E+00 5.74235E-13 5.94282E-13
 -1       468 3.79180E+00-5.29071E+00-5.88132E-02-4.43231E+00 1.50532E-13 3.23672E-13
 -1       469 3.15382E+01 1.48053E-01-1.05240E-02 2.18220E+00 8.67778E-14 1.56292E-13
 -1       470 3.13849E+01 1.93745E+00-9.34417E-02-1.13251E+00 2.04212E-13-7.28570E-13
 -1       471 1.02599E+01-4.62918E+00 8.90460E-02-6.74920E+00 5.07108E-13 5.39416E-13
 -1       472 2.03718E+01 8.31785E-01 4.02273E-03 9.73103E-01 2.50348E-13 5.07955E-14
 -1       473 1.97347E+01 3.10349E+00-5.37943E-03-6.34318E-01-4.10030E-14-3.46202E-13
 -1       474 1.98303E+01 2.93011E+00-5.82634E-03-9.51261E-01-9.59799E-14-3.50202E-13
 -1       475 1.96673E+01 3.22606E+00-5.02645E-03 8.78433E-03 7.44514E-14-3.42217E-13
 -1       476 1.96857E+01 3.19303E+00-5.10559E-03 3.30715E-01 1.16524E-13-3.50570E-13
 -1       477 1.97391E+01 3.09625E+00-5.41536E-03 6.46421E-01 1.66016E-13-3.24478E-13
 -1       478 1.98372E+01 2.91849E+00-5.95294E-03 9.62289E-01 2.40621E-13-2.50772E-13
 -1       479 1.99919E+01 2.63351E+00-6.52335E-03 1.25772E+00 2.69078E-13-2.16369E-13
 -1       480 2.02331E+01 2.18756E+00-5.70016E-03 1.50253E+00 2.99563E-13-1.24006E-13
 -1       481 5.87756E+00-1.92199E+00 1.75028E-01 3.01442E+00 1.66294E-13 2.86993E-13
 -1       482 2.01099E+01 4.53433E-01 5.06936E-03 4.65428E-01 2.34207E-13 2.21958E-15
 -1       483 2.03405E+01 9.76353E-01 3.68457E-03-9.40615E-01-1.87206E-13-1.66769E-13
 -1       484 2.01752E+01 5.32699E-01 4.57108E-04-4.70263E-01-1.39454E-13-1.41194E-13
 -1       485 2.00227E+01 3.03797E-01 1.15758E-03-1.67805E-01-1.04011E-13-1.36027E-13
 -1       486 1.99222E+01 1.61444E-01 5.25052E-04 1.35264E-02-9.82983E-14-1.35933E-13
 -1       487 1.98634E+01 7.55289E-02 1.77607E-04 1.16188E-01-7.39406E-14-1.44469E-13
 -1       488 1.98362E+01 2.33583E-02 2.70979E-05 1.68015E-01-9.41706E-14-2.00774E-13
 -1       489 1.98306E+01-7.32819E-03-4.30611E-05 1.87634E-01-8.48235E-14-1.93138E-13
 -1       490 1.98388E+01-2.38001E-02-7.59157E-05 1.87850E-01-1.13980E-13-1.65669E-13
 -1       491 1.98553E+01-3.06306E-02-8.71217E-05 1.77505E-01-1.05101E-13-1.42464E-13
 -1       492 1.98765E+01-3.07770E-02-8.38242E-05 1.62787E-01-1.01630E-13-1.13077E-13
 -1       493 1.99002E+01-2.61472E-02-7.01665E-05 1.48106E-01-8.05618E-14-1.56776E-13
 -1       494 1.99255E+01-1.79177E-02-4.86400E-05 1.36702E-01-2.45245E-15-1.65519E-13
 -1       495 1.99524E+01-6.72840E-03-2.05349E-05 1.31094E-01-1.12925E-13-5.05689E-14
 -1       496 1.99813E+01 7.18348E-03 1.37805E-05 1.33407E-01-7.91913E-14-1.00668E-14
 -1       497 2.00135E+01 2.38810E-02 5.46351E-05 1.45615E-01-9.62949E-14-1.09859E-13
 -1       498 2.00505E+01 4.36365E-02 1.02848E-04 1.69717E-01-5.54691E-14-1.58725E-13
 -1       499 2.00941E+01 6.68350E-02 1.59464E-04 2.07837E-01-9.72289E-14-2.23460E-13
 -1       500 2.01466E+01 9.38476E-02 2.25385E-04 2.62248E-01-1.44030E-13-2.07738E-13
 -1       501 2.02105E+01 1.24844E-01 3.00761E-04 3.35310E-01-6.37439E-14-2.75856E-13
 -1       502 2.02881E+01 1.59485E-01 3.83945E-04 4.29248E-01 7.92606E-16-1.74841E-13
 -1       503 2.03824E+01 1.96421E-01 4.69715E-04 5.45743E-01 1.45014E-14-1.79988E-13
 -1       504 2.04962E+01 2.32459E-01 5.46373E-04 6.85192E-01 1.03156E-13-1.45087E-13
 -1       505 2.06332E+01 2.61260E-01 5.91322E-04 8.45515E-01 6.33547E-14-2.80900E-13
 -1       506 2.07986E+01 2.71408E-01 5.65146E-04 1.02027E+00 8.98157E-15-2.55577E-13
 -1       507 2.10011E+01 2.43912E-01 4.05651E-04 1.19587E+00 1.20064E-13-3.95145E-13
 -1       508 2.12561E+01 1.49827E-01 2.93560E-05 1.34756E+00 1.19762E-13-3.18091E-13
 -1       509 2.15897E+01-4.96742E-02-6.43001E-04 1.43413E+00 5.44707E-14-1.19790E-14
 -1       510 2.20418E+01-3.95132E-01-1.64213E-03 1.39185E+00-6.26850E-14 8.14848E-14
 -1       511 2.26596E+01-9.00925E-01-2.87145E-03 1.12954E+00-1.65506E-14 3.72067E-13
 -1       512 2.34627E+01-1.48978E+00-4.22587E-03 5.40065E-01-1.34408E-13 1.67882E-13
 -1       513 2.43792E+01-1.90756E+00-6.01516E-03-4.43430E-01-1.34799E-13 1.71125E-13
 -1       514 2.51501E+01-1.66334E+00-8.75861E-03-1.69482E+00-4.94257E-14 3.60959E-13
 -1       515 2.53862E+01-2.89737E-01-2.72403E-02-2.66262E+00-1.24137E-14 1.64364E-13
 -1       516 2.49868E+01 1.91839E+00-5.45290E-02-2.43361E+00-1.89501E-14-1.30967E-14
 -1       517 2.45718E+01 3.41177E+00-6.13449E-02-6.73203E-01-1.14613E-13-1.45654E-13
 -1       518 2.47152E+01 2.76719E+00-5.66861E-02 1.46080E+00-1.60323E-14-2.38246E-13
 -1       519 2.51599E+01 6.26592E-01-3.54018E-02 2.39837E+00 7.69463E-14-4.02325E-13
 -1       520 2.51569E+01-1.23919E+00-1.89189E-02 1.83908E+00 1.73529E-13-2.38988E-13
 -1       521 2.45242E+01-1.96214E+00-6.70439E-03 5.89546E-01 1.19314E-13 1.42015E-13
 -1       522 2.35726E+01-1.77096E+00-3.73798E-03-5.73669E-01 9.06970E-14 1.69989E-13
 -1       523 2.26420E+01-1.19633E+00-3.24706E-03-1.35778E+00 2.07615E-13-9.88090E-14
 -1       524 2.18824E+01-5.92455E-01-1.97291E-03-1.75608E+00 2.58940E-13-1.35309E-13
 -1       525 2.13047E+01-9.17663E-02-2.15203E-04-1.85334E+00 1.11737E-13-5.71378E-14
 -1       526 2.08656E+01 3.00117E-01 7.28510E-04-1.72529E+00-8.03698E-14-6.57879E-14
 -1       527 9.15710E+00-3.20228E+00 1.48412E-01 5.79521E+00 2.15272E-13-5.38361E-13
 -1       528 1.98072E+01 1.28796E-01 9.97299E-04-1.81392E-02 1.76992E-13-8.52646E-15
 -1       529 1.97491E+01 5.96038E-02 3.62878E-04-1.16718E-01 1.23619E-13-6.29463E-14
 -1       530 1.97303E+01 1.82059E-02 8.61319E-05-1.65181E-01 1.06861E-13-8.69911E-14
 -1       531 1.97367E+01-5.98528E-03-4.70257E-05-1.82580E-01 5.34749E-14-5.47006E-14
 -1       532 1.97579E+01-1.89972E-02-1.12323E-04-1.81460E-01 2.60060E-14-2.10755E-14
 -1       533 1.97870E+01-2.45206E-02-1.38147E-04-1.70300E-01-6.48996E-15-1.54539E-13
 -1       534 1.98199E+01-2.49107E-02-1.37930E-04-1.54933E-01 4.64856E-14-1.77694E-13
 -1       535 1.98540E+01-2.16850E-02-1.19573E-04-1.39459E-01 6.18661E-14-9.08141E-14
 -1       536 1.98884E+01-1.57946E-02-8.80229E-05-1.26839E-01 1.05811E-13-4.64430E-14
 -1       537 1.99232E+01-7.78900E-03-4.61876E-05-1.19317E-01 7.80962E-14-2.71183E-14
 -1       538 1.99594E+01 2.06859E-03 4.47356E-06-1.18723E-01 3.35704E-14-1.39906E-14
 -1       539 1.99984E+01 1.37103E-02 6.33952E-05-1.26680E-01 5.60768E-14-8.54521E-14
 -1       540 2.00425E+01 2.71748E-02 1.30424E-04-1.44737E-01 8.50078E-14 1.27306E-13
 -1       541 2.00942E+01 4.25075E-02 2.05254E-04-1.74417E-01-5.44350E-14 1.13166E-13
 -1       542 2.01564E+01 5.96318E-02 2.86624E-04-2.17179E-01-9.47382E-14 6.32576E-14
 -1       543 2.02325E+01 7.81706E-02 3.71237E-04-2.74257E-01 4.69471E-14 1.53847E-14
 -1       544 2.03259E+01 9.71889E-02 4.52219E-04-3.46342E-01 1.16544E-13-2.21322E-13
 -1       545 2.04403E+01 1.14822E-01 5.16999E-04-4.33044E-01 8.22668E-14-7.16193E-14
 -1       546 2.05793E+01 1.27758E-01 5.44680E-04-5.32050E-01-2.03291E-14 9.43351E-14
 -1       547 2.07466E+01 1.30570E-01 5.03365E-04-6.37909E-01-1.49634E-13-1.42306E-13
 -1       548 2.09456E+01 1.14990E-01 3.48810E-04-7.40348E-01-7.73257E-14-3.15482E-13
 -1       549 2.11796E+01 6.94544E-02 2.73051E-05-8.22200E-01-3.77239E-14-2.28901E-13
 -1       550 2.14512E+01-2.02723E-02-5.11503E-04-8.57221E-01 1.20847E-14-3.21161E-13
 -1       551 2.17620E+01-1.67751E-01-1.28567E-03-8.08817E-01-4.60074E-14-2.50161E-13
 -1       552 2.21083E+01-3.77230E-01-2.19829E-03-6.31889E-01 3.29072E-15 1.99539E-14
 -1       553 2.24737E+01-6.27308E-01-2.99918E-03-2.82079E-01 9.68889E-14 2.36905E-13
 -1       554 2.28152E+01-8.47595E-01-3.38205E-03 2.61692E-01 1.94379E-14 1.19480E-13
 -1       555 2.30487E+01-9.03257E-01-3.38177E-03 9.52169E-01-1.77140E-13 2.64177E-13
 -1       556 2.30721E+01-6.35414E-01-1.54984E-05 1.61232E+00-2.66125E-13 3.00422E-13
 -1       557 2.28018E+01 4.48528E-02-1.21634E-03 1.95471E+00-2.92776E-14 3.33413E-13
 -1       558 2.23445E+01 9.32548E-01-5.56007E-04 1.65196E+00-4.76095E-14 5.67379E-13
 -1       559 2.19750E+01 1.55955E+00-2.27216E-03 6.61418E-01-5.90274E-14 6.11316E-13
 -1       560 2.19639E+01 1.49254E+00-4.38336E-03-5.80157E-01-1.55177E-13 4.43219E-13
 -1       561 2.22973E+01 7.71485E-01-2.47901E-03-1.46103E+00 7.35417E-14 4.95297E-13
 -1       562 2.26636E+01-1.20998E-01-6.41330E-04-1.63226E+00-1.86664E-13 1.31424E-13
 -1       563 2.28060E+01-7.46363E-01-1.74845E-03-1.18761E+00-1.17119E-13 2.15482E-13
 -1       564 2.26595E+01-9.55580E-01-3.65623E-03-4.69212E-01 4.77851E-14 3.42764E-13
 -1       565 2.23104E+01-8.46663E-01-3.96859E-03 2.27884E-01 5.21359E-14 5.04095E-13
 -1       566 2.18701E+01-5.80949E-01-3.10872E-03 7.45761E-01 1.45085E-13 8.50383E-13
 -1       567 2.14174E+01-2.76386E-01-1.72474E-03 1.03705E+00 5.18876E-13 1.10638E-12
 -1       568 2.09958E+01 1.21110E-02 2.15768E-04 1.11199E+00 3.96861E-13 1.04018E-12
 -1       569 2.06142E+01 2.67453E-01 1.47968E-03 1.00038E+00 2.06608E-13 9.31444E-13
 -1       570 1.98554E+01 1.27078E+00-7.80640E-04 1.59484E+00 1.22527E-13-5.12523E-13
 -1       571 1.94951E+01 1.67271E+00-1.40353E-03 1.39853E+00-4.29547E-15-2.55273E-13
 -1       572 2.03990E+01 5.83501E-01 1.13922E-03 1.37200E+00 2.09145E-13 1.40210E-13
 -1       573 2.01658E+01 8.96903E-01 2.80596E-04 1.56488E+00-8.97902E-14-5.77276E-15
 -1       574 1.91646E+01 2.02220E+00-1.85897E-03 9.54418E-01-2.15417E-13-2.65432E-13
 -1       575 1.89582E+01 2.23172E+00-2.02650E-03 3.10232E-01-2.95805E-13-3.08414E-13
 -1       576 1.89466E+01 2.24035E+00-2.06930E-03-4.16046E-01-7.36991E-14 1.31637E-13
 -1       577 1.91330E+01 2.04903E+00-1.79865E-03-1.06615E+00 2.97649E-13 3.30345E-13
 -1       578 1.94703E+01 1.70383E+00-1.23020E-03-1.53425E+00 2.84035E-13-2.09365E-13
 -1       579 1.98631E+01 1.29053E+00-2.83879E-04-1.74686E+00 3.23420E-13 4.04719E-13
 -1       580 2.02582E+01 8.79415E-01-3.43369E-04-1.69491E+00 2.96422E-14-1.71384E-13
 -1       581 5.36472E+00-2.12073E+00 1.72698E-01-2.81272E+00-1.82885E-13-1.34157E-13
 -1       582 1.99223E+01 2.46096E-01 2.44167E-03 1.60099E-01 1.78325E-13 2.64697E-15
 -1       583 1.78709E+01-5.69627E+00 7.25916E-02 6.95445E+00-3.50303E-13 1.31086E-13
 -1       584 2.03934E+01 1.76898E+00-5.29252E-03-1.54667E+00-2.48751E-13-2.04375E-13
 -1       585 2.55202E+01-5.58742E+00 6.23851E-03-4.06819E+00 6.93515E-13 2.35374E-13
 -1       586 2.79844E+01-3.76591E+00-3.03402E-02-1.50648E+00-6.74252E-14 1.32915E-13
 -1       587 1.96828E+01 3.19761E+00-5.10624E-03-3.13181E-01 1.91566E-14-3.34426E-13
 -1       588 3.03847E+01 4.44415E+00-1.63250E-01 1.96900E+00 2.07778E-13 1.17524E-13
 -1       589 2.99103E+01 5.96921E+00-1.72125E-01-1.34917E+00 4.56329E-13-4.29042E-13
 -1       590 6.36181E+00-1.83832E+00 1.78501E-01-3.57636E+00-5.11813E-14-4.14543E-13
 -1       591 2.99832E+01 7.35213E+00-1.70384E-01 4.85953E-01 2.32994E-13-2.18037E-14
 -1       592 3.00859E+01-1.39509E-01-1.15605E-01 9.89525E-01 5.94143E-14 7.69940E-14
 -1       593 2.22710E+01-5.73002E+00 3.02143E-02-5.28488E+00-3.01648E-13 1.78146E-13
 -1       594 1.43195E+01-4.35068E+00 1.10097E-01-6.71787E+00-2.29768E-13-1.42851E-13
 -1       595 4.80127E+00-1.26439E+00 2.03594E-01 3.28945E-01-1.19353E-13 1.11577E-13
 -1       596 6.91328E+00-2.11284E+00 1.67733E-01 4.11811E+00-2.24449E-13 2.87645E-13
 -1       597 1.37466E+01-4.65539E+00 1.17645E-01 6.72200E+00 7.92560E-14-1.32394E-13
 -1       598 2.14184E+01-5.86098E+00 5.14723E-02 5.50902E+00-8.07479E-14 1.44450E-13
 -1       599 2.65371E+01-5.08544E+00-2.78259E-02 2.96731E+00-2.39739E-13 8.55080E-14
 -1       600 3.03002E+01-9.08725E-01-9.55829E-02-1.26901E+00 7.47666E-15 1.43552E-13
 -1       601 3.16518E+01 4.23769E+00-1.29393E-01-1.97320E+00 2.76307E-14 3.45654E-13
 -1       602 3.06606E+01 6.78641E+00-1.64728E-01-1.17092E+00-1.25136E-13 4.30430E-13
 -1       603 3.02344E+01 6.18811E+00-1.84580E-01 1.21868E+00-2.86937E-13 1.36544E-13
 -1       604 3.01912E+01 1.83886E+00-1.49716E-01 2.03535E+00-3.53259E-14-1.77823E-13
 -1       605 2.94865E+01-2.89052E+00-7.97757E-02-5.12407E-01 3.03773E-13-2.65045E-13
 -1       606 1.88776E+01-5.80501E+00 7.91709E-02-6.70340E+00 6.80234E-13 1.32621E-13
 -1       607 2.44428E+01-5.64608E+00 9.12873E-03 4.79506E+00-2.77604E-13-4.30114E-13
 -1       608 2.88646E+01-3.29181E+00-6.28448E-02 1.24634E+00-2.88996E-13-4.74946E-13
 -1       609 2.05837E+01 1.30513E+00-1.00002E-03 1.54887E+00 2.94342E-13 1.02960E-13
 -1       610 1.99818E+01 2.66140E+00-6.31287E-03-1.25898E+00-1.64808E-13-3.02007E-13
 -1       611 7.11160E+00-6.11822E-01 1.71714E-01 1.80532E-01-7.73686E-14 4.32529E-13
 -1       612 1.46992E+01-3.91184E+00 1.19883E-01 6.55122E+00 5.60073E-14-4.42899E-13
 -1       613 9.53899E+00-2.29670E+00 1.53974E-01-5.05462E+00 2.61405E-13-2.73240E-13
 -1       614 2.06224E+01 5.19984E-01 1.39945E-03-1.53582E+00-1.66251E-13-1.83441E-13
 -1       615 1.11410E+01-2.13174E+00 1.39058E-01-5.30215E+00-9.71688E-14-2.69958E-13
 -1       616 1.99625E+01 2.44851E+00-1.58812E-03 3.94669E-01 1.32949E-13-2.87090E-13
 -1       617 1.99309E+01 2.52340E+00-1.51651E-03 1.35880E-01 7.67889E-14-3.32977E-13
 -1       618 2.01212E+01 2.04551E+00-1.61074E-03 8.51349E-01 2.23578E-13-2.14294E-13
 -1       619 2.02390E+01 1.67534E+00-2.25459E-03 9.93207E-01 2.59754E-13-1.41708E-13
 -1       620 2.03785E+01 5.98628E-01 1.57883E-03-1.93571E+00 1.22630E-14-4.25997E-13
 -1       621 2.03186E+01 1.03630E+00 2.89717E-03 8.32768E-01 2.50790E-13-8.76265E-14
 -1       622 2.02429E+01 6.75502E-01 2.00547E-03-3.95472E-01-1.22244E-13-2.08622E-13
 -1       623 2.01678E+01 3.92426E-01 3.69678E-04-1.42376E-01-1.08759E-13-1.56911E-13
 -1       624 2.01017E+01 2.12588E-01 6.20066E-05 2.04419E-02-7.42928E-14-1.55057E-13
 -1       625 2.00520E+01 9.89835E-02 1.42902E-05 1.15960E-01-1.07497E-13-1.69660E-13
 -1       626 2.00174E+01 2.84484E-02-1.43955E-05 1.65611E-01-8.27780E-14-1.91841E-13
 -1       627 1.99957E+01-1.31314E-02-2.49293E-05 1.85345E-01-7.52288E-14-1.27986E-13
 -1       628 1.99839E+01-3.48494E-02-2.92025E-05 1.86803E-01-1.15536E-13-5.47129E-14
 -1       629 1.99792E+01-4.27319E-02-2.92007E-05 1.78445E-01-1.20678E-13-1.05731E-13
 -1       630 1.99797E+01-4.07914E-02-2.59379E-05 1.66414E-01-1.08923E-13-1.56099E-13
 -1       631 1.99840E+01-3.16354E-02-2.01450E-05 1.55217E-01-3.62277E-14-8.79630E-14
 -1       632 1.99911E+01-1.68475E-02-1.22630E-05 1.48268E-01 6.74758E-15-1.10732E-13
 -1       633 2.00006E+01 2.75462E-03-2.48532E-06 1.48297E-01-3.61396E-14-6.90055E-14
 -1       634 2.00123E+01 2.69261E-02 9.19502E-06 1.57666E-01-1.13688E-13-1.91967E-15
 -1       635 2.00261E+01 5.58334E-02 2.29947E-05 1.78596E-01-1.31252E-13-6.10194E-14
 -1       636 2.00422E+01 8.99006E-02 3.92695E-05 2.13317E-01-6.55790E-14-5.17820E-14
 -1       637 2.00605E+01 1.29633E-01 5.84527E-05 2.64141E-01-2.80606E-14-4.53525E-14
 -1       638 2.00812E+01 1.75384E-01 8.09405E-05 3.33456E-01-1.26840E-13 4.96378E-14
 -1       639 2.01042E+01 2.27008E-01 1.06921E-04 4.23619E-01-8.77713E-14-4.10528E-14
 -1       640 2.01295E+01 2.83312E-01 1.36076E-04 5.36725E-01-1.62365E-14-1.35300E-13
 -1       641 2.01570E+01 3.41202E-01 1.67051E-04 6.74225E-01 6.63246E-14-3.21965E-14
 -1       642 2.01877E+01 3.94325E-01 1.96501E-04 8.36356E-01-2.94167E-14-1.16006E-13
 -1       643 2.02246E+01 4.31045E-01 2.17377E-04 1.02132E+00 6.59613E-14-5.53029E-14
 -1       644 2.02755E+01 4.31589E-01 2.16068E-04 1.22410E+00 9.38155E-14 1.11706E-13
 -1       645 2.03576E+01 3.64556E-01 1.69211E-04 1.43475E+00 1.41307E-13 1.26148E-13
 -1       646 2.05046E+01 1.83865E-01 5.86102E-05 1.63534E+00 1.94114E-13 8.96643E-15
 -1       647 2.07767E+01-1.70342E-01-5.72295E-05 1.79394E+00 4.74117E-14 1.43389E-14
 -1       648 2.12685E+01-7.58842E-01-9.79933E-05 1.85316E+00 1.45823E-13 1.93977E-13
 -1       649 2.21137E+01-1.60292E+00 4.75303E-04 1.70204E+00-2.94593E-13 1.07594E-14
 -1       650 2.34037E+01-2.54244E+00 5.29974E-04 1.15411E+00-1.05383E-13 8.08400E-14
 -1       651 2.51145E+01-3.09701E+00-9.43785E-03-1.72821E-02-3.94918E-14 2.87292E-13
 -1       652 2.67067E+01-2.28264E+00-4.49554E-02-1.67049E+00-7.91841E-14 3.02104E-13
 -1       653 2.74422E+01 7.03855E-01-8.86505E-02-2.90113E+00-1.04437E-13 2.84077E-13
 -1       654 2.64785E+01 5.00495E+00-1.46768E-01 5.55375E-01-1.94816E-13-1.35126E-14
 -1       655 2.70117E+01 2.39174E+00-1.04144E-01 2.45513E+00-2.03414E-14 4.74638E-14
 -1       656 2.68314E+01-1.09861E+00-4.30244E-02 2.02223E+00 1.23405E-13-1.12209E-13
 -1       657 2.56714E+01-2.83303E+00-1.82886E-02 4.42380E-01 1.96956E-13-8.69858E-14
 -1       658 2.41084E+01-2.82293E+00 5.23300E-05-9.68955E-01 1.52009E-13-3.56369E-13
 -1       659 2.26827E+01-2.02254E+00-9.06663E-04-1.82798E+00 1.18045E-13-1.21388E-14
 -1       660 2.16590E+01-1.10656E+00-1.15151E-03-2.19337E+00 1.19712E-13-1.00892E-13
 -1       661 2.10125E+01-3.45089E-01-2.69396E-04-2.23998E+00 8.00242E-14-2.81911E-13
 -1       662 2.06300E+01 1.69626E-01-7.34484E-05-2.14070E+00-7.26392E-14-5.19235E-13
 -1       663 2.63436E+01-4.79775E+00-1.38605E-02 2.29932E+00-1.62471E-13-3.58942E-13
 -1       664 1.99725E+01 8.83928E-02 5.66842E-05-1.18124E-01 1.33479E-13-6.08393E-14
 -1       665 2.00260E+01 1.89321E-01 1.67189E-04-1.93680E-02 1.43460E-13-6.32852E-14
 -1       666 1.99260E+01-1.04799E-02-2.66836E-05-1.88456E-01 1.64960E-14-2.20707E-14
 -1       667 1.99226E+01-2.98587E-02-4.07554E-05-1.89246E-01 9.30735E-14-3.64992E-14
 -1       668 1.99269E+01-3.73383E-02-4.50145E-05-1.79845E-01 4.01245E-14-3.14034E-14
 -1       669 1.99362E+01-3.64676E-02-4.21669E-05-1.66445E-01 3.12401E-14-5.18764E-14
 -1       670 1.99488E+01-2.95621E-02-3.41391E-05-1.53528E-01 4.13451E-14-2.06400E-14
 -1       671 1.99640E+01-1.80659E-02-2.21250E-05-1.44425E-01 7.25956E-14-4.35213E-14
 -1       672 1.99813E+01-2.79914E-03-6.70677E-06-1.41738E-01 4.10312E-14-7.28301E-14
 -1       673 2.00009E+01 1.58601E-02 1.18196E-05-1.47638E-01 1.42657E-14-5.21922E-14
 -1       674 2.00234E+01 3.78143E-02 3.33646E-05-1.64076E-01-2.89076E-14 5.37465E-15
 -1       675 2.00497E+01 6.30784E-02 5.79916E-05-1.92905E-01 1.07295E-14 5.41523E-14
 -1       676 2.00808E+01 9.15853E-02 8.55924E-05-2.35900E-01 2.15202E-14 4.72367E-15
 -1       677 2.01182E+01 1.22932E-01 1.15641E-04-2.94682E-01-6.67437E-15-8.79498E-14
 -1       678 2.01634E+01 1.56031E-01 1.46762E-04-3.70503E-01 9.33833E-14-1.79983E-14
 -1       679 2.02185E+01 1.88620E-01 1.76129E-04-4.63866E-01 8.17786E-14-3.55710E-14
 -1       680 2.02861E+01 2.16577E-01 1.98626E-04-5.73928E-01 4.87421E-14-1.22619E-13
 -1       681 2.03700E+01 2.33022E-01 2.05779E-04-6.97622E-01-2.21184E-16-2.22923E-13
 -1       682 2.04760E+01 2.27216E-01 1.84498E-04-8.28427E-01-1.47017E-14-2.16044E-13
 -1       683 2.06132E+01 1.83521E-01 1.15695E-04-9.54700E-01-7.90292E-14-1.50065E-13
 -1       684 2.07958E+01 8.10572E-02-2.69633E-05-1.05749E+00 1.63745E-14-8.72716E-14
 -1       685 2.10448E+01-1.04358E-01-2.74066E-04-1.10785E+00-1.08625E-13 8.38076E-14
 -1       686 2.13870E+01-3.93008E-01-6.53179E-04-1.06395E+00-9.71085E-14-1.81070E-15
 -1       687 2.18493E+01-7.83872E-01-1.03112E-03-8.69937E-01-5.41518E-14 9.71585E-14
 -1       688 2.24385E+01-1.22318E+00-1.48271E-03-4.62630E-01 1.32548E-13 2.23776E-13
 -1       689 2.31184E+01-1.56459E+00-1.66667E-03 2.07810E-01-1.51386E-13 2.04247E-13
 -1       690 2.37455E+01-1.50043E+00 2.34822E-03 1.13110E+00-1.90427E-13 2.39041E-13
 -1       691 2.39912E+01-7.58663E-01-1.89082E-02 1.99818E+00-1.73501E-13 1.58603E-13
 -1       692 2.38252E+01 6.95275E-01-2.17388E-02 2.27397E+00-4.16629E-14 1.22842E-13
 -1       693 2.34158E+01 2.22585E+00-1.26176E-02 1.56889E+00-7.40796E-14 3.33587E-15
 -1       694 2.30681E+01 2.87338E+00-3.52723E-02 2.57754E-03-6.04811E-15-1.38197E-14
 -1       695 2.33527E+01 2.05503E+00-1.75239E-02-1.46294E+00-2.04794E-13-4.50070E-14
 -1       696 2.38530E+01 3.80675E-01-1.00281E-02-1.94151E+00 1.00308E-13 3.41000E-13
 -1       697 2.38995E+01-1.02698E+00-4.30395E-03-1.45378E+00 1.92577E-14 1.03508E-13
 -1       698 2.34914E+01-1.63332E+00-3.37521E-03-5.37154E-01 1.98779E-14-1.60904E-13
 -1       699 2.28252E+01-1.57886E+00-2.43089E-03 3.53381E-01 8.60562E-14-2.93836E-13
 -1       700 2.21212E+01-1.17178E+00-1.63034E-03 9.96142E-01-6.77352E-14-4.07849E-13
 -1       701 2.15082E+01-6.59623E-01-8.39547E-04 1.35635E+00 6.54491E-15-3.89586E-13
 -1       702 2.10235E+01-1.67957E-01 2.24166E-04 1.46818E+00 3.65680E-13 3.01388E-13
 -1       703 2.06772E+01 2.03934E-01 5.50656E-04 1.48214E+00 3.99933E-14 4.98402E-13
 -1       704 1.83965E+01 1.67575E+00-8.92648E-04 8.58587E-01-5.30954E-14-2.88113E-13
 -1       705 2.73716E+01 1.13190E+00-1.14459E-01 2.50571E+00 6.07847E-14-1.06717E-13
 -1       706 1.95090E+01 9.11609E-01-1.15119E-03 1.88108E+00-4.84151E-14-5.05367E-13
 -1       707 1.81934E+01 1.82683E+00-4.11400E-04-3.63639E-02 8.20469E-14-5.93465E-15
 -1       708 1.88940E+01 1.32887E+00-9.42401E-04 1.53501E+00-1.24112E-13-3.54915E-13
 -1       709 1.83481E+01 1.73392E+00-1.61986E-03-9.28274E-01 2.45426E-13 9.23108E-14
 -1       710 1.88349E+01 1.42883E+00-6.86668E-04-1.64121E+00 1.11621E-13 2.79919E-14
 -1       711 1.94707E+01 1.03399E+00-4.48754E-04-2.02498E+00 1.96774E-13 8.31426E-14
 -1       712 2.01044E+01 3.52558E-01 5.58401E-04 1.50861E-01 1.83642E-13-7.69740E-14
 -1       713 2.02954E+01 1.42482E+00 5.61183E-04-9.72894E-01-1.64747E-13-2.26457E-13
 -1       714 2.02047E+01 6.14539E-01 1.14575E-03 4.22060E-01 2.04687E-13-8.28981E-14
 -1       715 2.81363E+01-1.49575E+00-8.00318E-02 1.64229E+00 1.05398E-13-1.62030E-13
 -1       716 2.76713E+01-1.77238E+00-5.42250E-02 1.36364E+00-7.76271E-14-8.10671E-14
 -1       717 8.60567E+00-2.41430E-01 1.49117E-01 2.03206E+00-1.04773E-13 6.20753E-14
 -1       718 1.99410E+01 2.61766E-02 1.83358E-06-1.68807E-01 5.87839E-14-4.01929E-14
 -1       719 2.21549E+01-5.44260E+00 3.56717E-02 5.09275E+00-4.31509E-13-4.00925E-13
 -1       720 2.00258E+01 2.29405E+00-1.65970E-03 6.38728E-01 1.86599E-13-2.36627E-13
 -1       721 2.52551E+01-4.85352E+00-1.08763E-02-2.33370E+00-9.38954E-14 2.64610E-13
 -1       722 2.00201E+01 2.30292E+00-1.89266E-03-6.30555E-01-7.14874E-14-2.84099E-13
 -1       723 2.29939E+01-5.41539E+00 4.64159E-02-4.59843E+00 5.69329E-13 4.63257E-13
 -1       724 2.66060E+01 5.57712E+00-1.47951E-01-5.71785E-01 1.79121E-13-1.30598E-13
 -1       725 1.24214E+01-2.34723E+00 1.21223E-01 5.35092E+00-2.78253E-13 1.82139E-13
 -1       726 7.79703E+00-2.72801E-01 1.57306E-01-1.49696E+00 4.88914E-14-1.92263E-13
 -1       727 1.98708E+01-4.55048E+00 4.61209E-02-5.20090E+00-8.55496E-14 7.17551E-14
 -1       728 1.05596E+01-1.04586E+00 1.62382E-01 4.08730E+00-3.40051E-13-2.22378E-13
 -1       729 2.66960E+01 4.90534E+00-1.43115E-01 1.78100E+00 2.52701E-13-9.11007E-14
 -1       730 1.91544E+01-4.60558E+00 6.98292E-02 5.45612E+00 7.35349E-14 7.95163E-14
 -1       731 2.48895E+01-5.15149E+00 2.09438E-02 2.75839E+00-5.34104E-14 7.41889E-14
 -1       732 2.80501E+01-2.99235E+00-3.76155E-02-8.75957E-01-9.57446E-14 2.91475E-13
 -1       733 2.83663E+01-8.50853E-01-1.01179E-01-1.29461E+00-2.46199E-13-1.08242E-12
 -1       734 2.70747E+01-4.55163E+00-1.95659E-02-1.43158E+00 3.67374E-13-3.19675E-14
 -1       735 1.55739E+01-4.06707E+00 9.96384E-02-6.44436E+00 7.94399E-13 1.89595E-13
 -1       736 2.74846E+01 2.80005E+00-1.42321E-01-2.24094E+00 2.82864E-14-5.23175E-13
 -1       737 2.01130E+01 2.05682E+00-3.16465E-03-8.43102E-01-1.44029E-13-2.80108E-13
 -1       738 1.99300E+01 2.52503E+00-1.51784E-03-1.26837E-01 3.12422E-14-2.88597E-13
 -1       739 2.70887E+01-2.91156E+00-3.96902E-02-3.12893E-01-7.59054E-14-8.03841E-13
 -1       740 1.90627E+01-4.22551E+00 6.98836E-02 5.64123E+00-1.89578E-13-3.19222E-13
 -1       741 8.98644E+00-6.07524E-01 1.32274E-01-2.44084E+00 1.55462E-13-3.21618E-13
 -1       742 2.67873E+01 4.00183E+00-1.51869E-01-2.19575E+00-1.22687E-13 2.27389E-13
 -1       743 2.03688E+01 4.01120E-01 6.58983E-04 1.76575E+00 4.89705E-16-2.10749E-13
 -1       744 2.00020E+01 5.57644E-01 5.15944E-04-2.20551E+00 1.73463E-14-1.10552E-13
 -1       745 1.64708E+01-2.93952E+00 7.76377E-02-5.31500E+00 1.04418E-13-1.42355E-13
 -1       746 1.07808E+01-5.71253E-01 1.05326E-01-3.50179E+00-1.23465E-13-2.83346E-13
 -1       747 1.99941E+01 6.22311E-01-3.57032E-04 1.90447E+00-4.72680E-14-3.35859E-13
 -1       748 1.99592E+01 2.45412E+00-1.65623E-03-3.85433E-01-9.06571E-15-2.87693E-13
 -1       749 2.02665E+01 1.30325E+00-2.63676E-04 6.30320E-01 1.98222E-13-1.49655E-13
 -1       750 2.56259E+01-3.17179E+00-1.22291E-02 2.18471E-01-3.02440E-13-1.46341E-14
 -1       751 2.02642E+01 4.34111E-01-5.84469E-05-9.63983E-02-7.98953E-14-1.42858E-13
 -1       752 2.02235E+01 2.34895E-01-1.05059E-04 3.45711E-02-1.34167E-13-1.33382E-13
 -1       753 2.01825E+01 1.05935E-01-2.55960E-05 1.12567E-01-1.32228E-13-1.49382E-13
 -1       754 2.01455E+01 2.49814E-02-1.35290E-05 1.53517E-01-4.26555E-14-1.86884E-13
 -1       755 2.01142E+01-2.21766E-02-9.68621E-06 1.69862E-01-3.82485E-14-1.66379E-13
 -1       756 2.00888E+01-4.54421E-02-8.24727E-06 1.71226E-01-1.12543E-13-9.23981E-14
 -1       757 2.00687E+01-5.16698E-02-7.27053E-06 1.64884E-01-1.30783E-13-3.53805E-14
 -1       758 2.00532E+01-4.55138E-02-6.17065E-06 1.56274E-01-4.55651E-14 3.52346E-14
 -1       759 2.00414E+01-2.99955E-02-4.68166E-06 1.49494E-01-5.91297E-14-4.66522E-14
 -1       760 2.00321E+01-6.90309E-03-2.67641E-06 1.47726E-01-2.90867E-14-8.96247E-14
 -1       761 2.00245E+01 2.29075E-02-2.27028E-07 1.53586E-01-5.61293E-14-1.01950E-13
 -1       762 2.00175E+01 5.92656E-02 2.65512E-06 1.69381E-01-1.37445E-13-8.18943E-14
 -1       763 2.00098E+01 1.02465E-01 6.01830E-06 1.97290E-01-9.71585E-14 2.96809E-15
 -1       764 2.00000E+01 1.53040E-01 1.00248E-05 2.39478E-01-6.83501E-14-4.95919E-15
 -1       765 1.99863E+01 2.11501E-01 1.48943E-05 2.98138E-01-4.59485E-14 6.32788E-15
 -1       766 1.99668E+01 2.77977E-01 2.09216E-05 3.75465E-01-1.28337E-13 1.33678E-14
 -1       767 1.99390E+01 3.51711E-01 2.85172E-05 4.73571E-01-5.35137E-14 7.31310E-14
 -1       768 1.99002E+01 4.30301E-01 3.82672E-05 5.94364E-01 4.11731E-14 1.19204E-13
 -1       769 1.98483E+01 5.08544E-01 5.09865E-05 7.39425E-01 6.54679E-15 9.39686E-14
 -1       770 1.97821E+01 5.76737E-01 6.76002E-05 9.09986E-01 9.28061E-14 2.30544E-13
 -1       771 1.97037E+01 6.18194E-01 8.83496E-05 1.10709E+00 1.31993E-13 2.54412E-13
 -1       772 1.96223E+01 6.05851E-01 1.11080E-04 1.33205E+00 1.45590E-13 3.04648E-13
 -1       773 1.95602E+01 4.98026E-01 1.34174E-04 1.58686E+00 1.49922E-13 3.64146E-13
 -1       774 1.95641E+01 2.34054E-01 2.35905E-04 1.87350E+00 3.00386E-14 2.72978E-13
 -1       775 1.97220E+01-2.67064E-01 1.07000E-03 2.18737E+00 9.47278E-14 3.18551E-13
 -1       776 2.01766E+01-1.08860E+00 3.60711E-03 2.49787E+00-2.40330E-13 1.41734E-13
 -1       777 2.12024E+01-2.31989E+00-3.27115E-03 2.68599E+00-1.05704E-13 2.63627E-13
 -1       778 2.31584E+01-3.75152E+00 1.75040E-02 2.48530E+00 9.54289E-14 2.22276E-13
 -1       779 2.42064E+01-4.68172E+00 1.57259E-02 2.96997E+00-1.49544E-13-1.99604E-13
 -1       780 1.97912E+01-3.84755E+00 5.50946E-02-5.06056E+00 2.39961E-13 8.65311E-13
 -1       781 2.45605E+01-4.21495E+00 1.53837E-02-2.15696E+00 6.39671E-14 2.09557E-14
 -1       782 2.23253E+01-3.01021E+00 1.13120E-03-2.86378E+00 2.27869E-13 1.20438E-14
 -1       783 2.09908E+01-1.66886E+00 4.40663E-03-2.94833E+00 1.70179E-13 3.56173E-13
 -1       784 2.03260E+01-6.20400E-01 1.70653E-03-2.74600E+00-2.90163E-14 2.24384E-13
 -1       785 2.00446E+01-4.08111E-02-1.25783E-05-1.79757E-01 3.33769E-14-1.89927E-14
 -1       786 2.00642E+01-1.81924E-02-1.20535E-05-1.78508E-01 7.13802E-14-4.36709E-14
 -1       787 2.00225E+01-4.37603E-02-1.02258E-05-1.62154E-01 3.87359E-14-6.44483E-14
 -1       788 2.00177E+01-3.13570E-02-7.89230E-06-1.53342E-01 6.70584E-14-1.37397E-13
 -1       789 2.00157E+01-1.24397E-02-4.41471E-06-1.49229E-01 5.51335E-14-4.35698E-14
 -1       790 2.00159E+01 1.20070E-02 6.93967E-08-1.52444E-01 5.40986E-14-3.78812E-14
 -1       791 2.00178E+01 4.15540E-02 5.33463E-06-1.65240E-01-7.12617E-14-9.44521E-15
 -1       792 2.00207E+01 7.60814E-02 1.15439E-05-1.89680E-01-5.72968E-14-4.40585E-15
 -1       793 2.00244E+01 1.15523E-01 1.87190E-05-2.27730E-01-4.21319E-14-2.42157E-14
 -1       794 2.00286E+01 1.59562E-01 2.69085E-05-2.81268E-01-1.62658E-14 4.94690E-14
 -1       795 2.00331E+01 2.07231E-01 3.60949E-05-3.51996E-01 2.56460E-14 1.63084E-13
 -1       796 2.00383E+01 2.56379E-01 4.61011E-05-4.41250E-01 5.20374E-14 2.49563E-13
 -1       797 2.00451E+01 3.02934E-01 5.64746E-05-5.49689E-01 5.97999E-14 3.19175E-13
 -1       798 2.00560E+01 3.39927E-01 6.63326E-05-6.76836E-01 1.20191E-13 2.22965E-13
 -1       799 2.00760E+01 3.56233E-01 7.41151E-05-8.20460E-01 3.22297E-14 7.94068E-14
 -1       800 2.01145E+01 3.35124E-01 7.69615E-05-9.75708E-01-1.88105E-14 6.74432E-14
 -1       801 2.01881E+01 2.52934E-01 6.86880E-05-1.13380E+00-1.33787E-13 5.26235E-14
 -1       802 2.03242E+01 7.87645E-02 3.49397E-05-1.27976E+00-1.23899E-15-1.87526E-14
 -1       803 2.05652E+01-2.22631E-01-4.27727E-05-1.38836E+00-1.80380E-13-3.95520E-14
 -1       804 2.09696E+01-6.80341E-01-1.84222E-04-1.41654E+00-1.28851E-13 1.26199E-13
 -1       805 2.16051E+01-1.29018E+00 3.13038E-04-1.29270E+00-4.54972E-14-4.75091E-14
 -1       806 2.25169E+01-1.95629E+00 2.57814E-03-9.00301E-01 6.30701E-14 5.47034E-14
 -1       807 2.36569E+01-2.41694E+00-5.82005E-03-1.20824E-01-1.71067E-13-7.62931E-15
 -1       808 2.52987E+01 2.09621E+00-5.46523E-02 2.39674E+00-1.67782E-14 1.25221E-13
 -1       809 2.54338E+01-1.04875E+00-2.22916E-02-1.67970E+00-2.50893E-14-3.25461E-13
 -1       810 2.46764E+01-2.37928E+00-4.66017E-04-4.28560E-01-7.10057E-14-8.08941E-14
 -1       811 2.35043E+01-2.47219E+00-2.58867E-04 7.24049E-01 8.33843E-14 1.26266E-14
 -1       812 2.23946E+01-1.91548E+00 8.24727E-05 1.45386E+00 3.35517E-14-3.18718E-14
 -1       813 2.15293E+01-1.16019E+00 3.14820E-04 1.79508E+00-7.56423E-14 8.64572E-15
 -1       814 2.09383E+01-4.50964E-01 1.49365E-04 1.86283E+00-1.22349E-13-1.30866E-13
 -1       815 2.06031E+01-1.87802E-02-1.48195E-03 1.85616E+00-1.59476E-13-1.63345E-13
 -1       816 1.88069E+01 7.50144E-01-1.21683E-03-2.26364E+00-9.64883E-14-1.49293E-13
 -1       817 1.73438E+01 1.43371E+00-3.98629E-04 5.87961E-01 4.58929E-14-2.19270E-13
 -1       818 2.28201E+01-4.08760E+00 6.75388E-03-2.83444E+00-7.29594E-14 2.01040E-13
 -1       819 2.02213E+01 4.13448E-01-7.02064E-05 1.12730E-01 1.77453E-13-8.20600E-14
 -1       820 2.02959E+01 1.11626E+00 3.18259E-04-4.28098E-01-9.41633E-14-2.33188E-13
 -1       821 2.59582E+01-6.39648E-01-2.65481E-02 2.17305E+00-1.12751E-13 1.92572E-13
 -1       822 1.78788E+01 1.19458E+00 1.54356E-03-1.63196E+00 2.91640E-14 1.11814E-14
 -1       823 1.71521E+01-2.55240E+00 4.83259E-02 4.69794E+00-1.58090E-13 1.23511E-13
 -1       824 2.00311E+01-4.78708E-02-1.18236E-05-1.72386E-01 1.80608E-14 2.22448E-14
 -1       825 1.72979E+01 1.47761E+00-3.12853E-04-5.79113E-01 3.51047E-14 2.24501E-13
 -1       826 2.01714E+01 2.24523E-01 1.10198E-05-3.09129E-02 1.23971E-13-9.07358E-14
 -1       827 1.09489E+01 3.69132E-01 1.02990E-01 1.09446E+00-3.40524E-13 8.84709E-15
 -1       828 1.27593E+01-5.76535E-01 6.79695E-02 3.57419E+00-1.20104E-13 5.79085E-14
 -1       829 2.02777E+01 9.42696E-01 2.46978E-04 5.54193E-01 1.98534E-13-1.08542E-13
 -1       830 1.35773E+01-1.92770E+00 1.01836E-01-5.14453E+00 3.01769E-13-3.24522E-13
 -1       831 2.03067E+01 7.23605E-01 1.45990E-04-2.53721E-01-3.37761E-14-1.79684E-13
 -1       832 2.01418E+01 1.88791E+00-3.26341E-04 1.99577E-01 8.58041E-14-2.79485E-13
 -1       833 1.01104E+01 4.69657E-01 8.53673E-02-4.81724E-02-1.43533E-14-1.50185E-13
 -1       834 1.44154E+01-1.87741E+00 7.89571E-02 4.99619E+00-5.55927E-14-4.07854E-13
 -1       835 2.63534E+01 1.46257E-01-6.14271E-02-2.05357E+00-8.40092E-14-4.58586E-13
 -1       836 2.01302E+01 1.92617E+00-3.14570E-04 3.28123E-03 3.57080E-14-2.67984E-13
 -1       837 2.18523E+01-4.14595E+00 2.05970E-02 4.08264E+00-1.11230E-13 2.19573E-14
 -1       838 1.25903E+01 4.17829E-01 4.29263E-02 1.95786E+00-1.06202E-13-5.20417E-15
 -1       839 2.54973E+01-3.72302E+00-2.12075E-02 7.77328E-01-1.13671E-13-8.85661E-13
 -1       840 1.99915E+01 7.93065E-02-1.53063E-05-2.50961E+00-1.35394E-13 6.56541E-14
 -1       841 2.64002E+01-3.16759E+00-1.98617E-02 3.70281E-01 2.92377E-13-9.34374E-14
 -1       842 2.00913E+01 2.64660E-02-9.53717E-06-1.60836E-01 1.09435E-14-2.98886E-14
 -1       843 2.51404E+01 7.43489E-01-2.69776E-02-2.03299E+00-8.31861E-14-5.01549E-13
 -1       844 2.01271E+01 1.02674E-01-4.96646E-06-1.16244E-01 9.38160E-14-6.71094E-14
 -1       845 1.79615E+01 1.06813E+00-8.53706E-04 1.59306E+00-1.31518E-13 6.88331E-14
 -1       846 1.88953E+01 5.59173E-01-1.13892E-03 2.15208E+00-1.77948E-13-5.88233E-13
 -1       847 2.01717E+01 1.77798E+00-4.93875E-04-3.74836E-01-5.21618E-14-2.54773E-13
 -1       848 1.96953E+01 1.97929E-01 1.06446E-03 2.25543E+00 1.29245E-13-5.19860E-13
 -1       849 2.03676E+01-3.31509E+00 3.23438E-02-3.87213E+00-1.46129E-14 2.35735E-13
 -1       850 1.16273E+01 3.91795E-01 5.79638E-02-1.86002E+00-1.55975E-13-2.60292E-13
 -1       851 2.02212E+01 1.58142E+00-1.94119E-04 5.35214E-01 1.61376E-13-1.96700E-13
 -1       852 2.02490E+01 6.38111E-01 1.93853E-04 2.97159E-01 1.67525E-13-8.82360E-14
 -1       853 2.01739E+01 1.77451E+00-3.36545E-04 3.82523E-01 1.38802E-13-2.35392E-13
 -1       854 1.30635E+01-9.64057E-02 5.27042E-02 2.81430E+00-3.09265E-13 2.52992E-14
 -1       855 1.48370E+01-1.46407E+00 5.69411E-02-4.42743E+00-9.41955E-14-3.68148E-13
 -1       856 2.02493E+01 1.45181E+00-1.18984E-04-4.31067E-01-9.36389E-14-1.86615E-13
 -1       857 2.03075E+01 2.29496E-01-5.63862E-05 4.68092E-02-1.05757E-13-1.24884E-13
 -1       858 2.02716E+01 9.64326E-02-1.31492E-05 1.03684E-01-1.03462E-13-9.42041E-14
 -1       859 2.02325E+01 1.33391E-02-6.76132E-06 1.33180E-01-6.78475E-14-1.51895E-13
 -1       860 2.01943E+01-3.35591E-02-3.04638E-06 1.44543E-01-2.14857E-14-2.16357E-13
 -1       861 2.01590E+01-5.43065E-02-1.61559E-06 1.45143E-01-6.31926E-14-1.71815E-13
 -1       862 2.01273E+01-5.60416E-02-1.66354E-06 1.40677E-01-7.08887E-14-9.80169E-14
 -1       863 2.00991E+01-4.36364E-02-2.04278E-06 1.35499E-01-7.44389E-14-5.49799E-14
 -1       864 2.00735E+01-2.02176E-02-2.04848E-06 1.32959E-01-7.08496E-14-4.07421E-14
 -1       865 2.00493E+01 1.24386E-02-1.83041E-06 1.35719E-01-2.06867E-15-1.44904E-14
 -1       866 2.00248E+01 5.35720E-02-1.55900E-06 1.46011E-01-7.38298E-14 6.65337E-14
 -1       867 1.99982E+01 1.03142E-01-1.47249E-06 1.65826E-01-2.17182E-14 9.66848E-14
 -1       868 1.99669E+01 1.61555E-01-1.49346E-06 1.97039E-01-1.16492E-13 4.88969E-14
 -1       869 1.99281E+01 2.29372E-01-1.52859E-06 2.41479E-01 5.89767E-15 1.52055E-13
 -1       870 1.98782E+01 3.06952E-01-1.46382E-06 3.00946E-01-1.17166E-13 1.68040E-13
 -1       871 1.98132E+01 3.94006E-01-1.11719E-06 3.77200E-01-2.40389E-15 1.55596E-13
 -1       872 1.97285E+01 4.88976E-01-1.84229E-07 4.71954E-01-1.41707E-14 2.49412E-13
 -1       873 1.96191E+01 5.88167E-01 1.80971E-06 5.86960E-01 4.20256E-14 2.99577E-13
 -1       874 1.94798E+01 6.84536E-01 5.42177E-06 7.24316E-01 6.01894E-14 2.56129E-13
 -1       875 1.93062E+01 7.65977E-01 1.04786E-05 8.87239E-01 6.81577E-14 2.61543E-13
 -1       876 1.90966E+01 8.12945E-01 1.28681E-05 1.08161E+00 1.24187E-13 1.66301E-13
 -1       877 1.88547E+01 7.95151E-01-3.04347E-06 1.31862E+00 1.86541E-13 1.47014E-13
 -1       878 1.85957E+01 6.66949E-01-5.35425E-05 1.61859E+00 1.05379E-14 1.28792E-13
 -1       879 1.83575E+01 3.61197E-01 7.64219E-05 2.01467E+00 3.43652E-14 1.61136E-13
 -1       880 1.82222E+01-2.26597E-01 6.22290E-04 2.55792E+00-1.17444E-13 1.32772E-13
 -1       881 1.84197E+01-1.21961E+00 1.47585E-02 3.29046E+00-1.32289E-13 1.65366E-13
 -1       882 1.86073E+01 1.41287E-01 5.57422E-04-2.74299E+00-3.32544E-13 7.49150E-14
 -1       883 1.94024E+01-2.01784E+00 2.11924E-02-3.96775E+00 2.23835E-13 6.07958E-13
 -1       884 1.87106E+01-7.86379E-01-1.14501E-03-3.34372E+00-5.31792E-14 2.88765E-13
 -1       885 1.70466E+01-1.72874E+00 4.39969E-02-4.50781E+00-1.06985E-13 4.34489E-13
 -1       886 2.00607E+01-2.53784E-02-1.27627E-07-1.41581E-01 4.36323E-14-7.97110E-14
 -1       887 2.00803E+01-4.49715E-02 1.26535E-07-1.45955E-01 9.29907E-14-5.15829E-14
 -1       888 2.00267E+01 3.74466E-02 8.08368E-07-1.51032E-01-1.05532E-14-6.60470E-14
 -1       889 2.00097E+01 7.92742E-02 1.61746E-06-1.69377E-01-3.87127E-14-4.31124E-14
 -1       890 1.99908E+01 1.27771E-01 2.74659E-06-1.99504E-01-4.84632E-15-1.48382E-13
 -1       891 1.99682E+01 1.82736E-01 4.25376E-06-2.43358E-01-9.36899E-14-1.44187E-13
 -1       892 1.99406E+01 2.43491E-01 6.27697E-06-3.02851E-01-5.08175E-14-4.80172E-14
 -1       893 1.99063E+01 3.08351E-01 9.01960E-06-3.79831E-01-4.81429E-14 4.10346E-14
 -1       894 1.98645E+01 3.73927E-01 1.27870E-05-4.75994E-01 7.58205E-14 1.25403E-13
 -1       895 1.98153E+01 4.34213E-01 1.80748E-05-5.92785E-01 1.25799E-13 1.13441E-13
 -1       896 1.97609E+01 4.79402E-01 2.57394E-05-7.31299E-01 1.04807E-13 1.21253E-13
 -1       897 1.97070E+01 4.94405E-01 3.72152E-05-8.92206E-01 8.18324E-15 8.44144E-14
 -1       898 1.96659E+01 4.57129E-01 5.43332E-05-1.07562E+00-1.38305E-13 4.79305E-14
 -1       899 1.96600E+01 3.36725E-01 7.69819E-05-1.28060E+00-1.20850E-13 1.12072E-13
 -1       900 1.97277E+01 9.25453E-02 9.55440E-05-1.50311E+00-1.73622E-13 2.53814E-13
 -1       901 1.99321E+01-3.23919E-01 1.09028E-04-1.73023E+00-1.37527E-13-1.97142E-14
 -1       902 2.03694E+01-9.58968E-01 4.95118E-05-1.92518E+00 2.55962E-14 5.89244E-14
 -1       903 2.11656E+01-1.81977E+00 2.69496E-03-2.00822E+00-6.06991E-14-8.77430E-14
 -1       904 2.24964E+01-2.80470E+00-8.20488E-04-1.78155E+00-5.44170E-14 1.00752E-13
 -1       905 2.12736E+01-1.70414E+00 1.04548E-03 2.47062E+00-1.85256E-13-4.02200E-14
 -1       906 2.05901E+01-7.51188E-01-1.32064E-04 2.34892E+00-6.86563E-14 2.54977E-13
 -1       907 2.01405E+01 1.89081E+00-3.10779E-04-1.92925E-01 9.57386E-15-2.67852E-13
 -1       908 1.26294E+01 3.90199E-01 5.69576E-02-2.02912E+00-1.81132E-13-8.11238E-13
 -1       909 2.24621E+01-2.77578E+00 3.66784E-03 2.30205E+00-1.38246E-13-4.17637E-13
 -1       910 2.38800E+01-3.57338E+00 5.02097E-03 1.81344E+00-1.46812E-13-6.44616E-13
 -1       911 1.71022E+01 7.85159E-01 1.76910E-03-2.10553E+00-4.12957E-13-1.42456E-13
 -1       912 2.03026E+01 4.30332E-01 4.90376E-05 6.50640E-02 1.45851E-13-1.62095E-13
 -1       913 2.00433E+01 2.42531E-03 4.47377E-07-1.42476E-01-4.12664E-15-7.77922E-14
 -1       914 1.53868E+01-4.26107E-01 3.35803E-02 3.26491E+00-1.43092E-13 2.73956E-13
 -1       915 2.01607E+01-2.87174E-02-2.35210E-06-1.57388E-01 5.62241E-14-8.04406E-14
 -1       916 2.02377E+01 4.64160E-02 7.12806E-04 2.10727E+00 1.42299E-13 9.56947E-14
 -1       917 1.79774E+01-2.60820E+00 3.75590E-02 4.79583E+00 2.46927E-13-3.42101E-13
 -1       918 2.03331E+01 4.32840E-01-7.87115E-05-4.83989E-02-6.10066E-14-1.95020E-13
 -1       919 1.57090E+01-8.34849E-01 3.12624E-02 3.78098E+00-1.53163E-13 1.05024E-13
 -1       920 1.85010E+01-2.20876E+00 2.41142E-02-3.90219E+00 6.97891E-14 3.20552E-13
 -1       921 2.01958E+01 1.82542E-02-5.52133E-06-1.44090E-01 3.61868E-14-1.21105E-13
 -1       922 2.03287E+01 9.70729E-01-2.01996E-05-2.55167E-01-4.50413E-14-2.02087E-13
 -1       923 1.60175E+01 1.23569E+00 3.06433E-03 5.27792E-02 1.09054E-13-8.20004E-15
 -1       924 2.01030E+01-5.44181E-02 2.71550E-06-1.52698E-01 6.10584E-14-9.41378E-14
 -1       925 2.02876E+01 1.33946E+00 6.26866E-05-1.93290E-01-4.85425E-14-1.70963E-13
 -1       926 2.03160E+01 1.16005E+00 1.02152E-04-2.38013E-01-6.38813E-14-2.13255E-13
 -1       927 2.03031E+01 1.00531E+00 5.35896E-04 3.68966E-01 1.64355E-13-1.66086E-13
 -1       928 1.93032E+01-3.69014E-01-1.40194E-03 2.72798E+00-1.90648E-13-9.92595E-13
 -1       929 2.02714E+01 2.31215E-01-2.10440E-06-4.43444E-02 9.85987E-14-1.08557E-13
 -1       930 1.66020E+01 8.96035E-01-3.44253E-04 1.54611E+00 1.51478E-13-2.20849E-13
 -1       931 1.78685E+01 2.78144E-01 6.38819E-03 2.45996E+00-3.99680E-15-4.55366E-14
 -1       932 2.02887E+01 1.33722E+00 1.02660E-05 1.97850E-01 8.10981E-14-2.14617E-13
 -1       933 2.02788E+01 1.40557E+00-8.49305E-06 6.96103E-02 4.96440E-14-2.44402E-13
 -1       934 1.25057E+01 8.60621E-01 3.97318E-02 3.09853E-01-3.90095E-14 3.36476E-14
 -1       935 2.02901E+01 8.17490E-01-1.89404E-04 3.41902E-01 1.51667E-13-1.53504E-13
 -1       936 1.37994E+01 8.67124E-01 2.63775E-02 3.46119E-01 5.17196E-14-1.81057E-13
 -1       937 2.01297E+01-5.06078E-02 1.78514E-06-1.58122E-01 6.29766E-14-7.67696E-14
 -1       938 2.03156E+01 7.24362E-01-2.52056E-04 2.31749E-01 1.42323E-13-2.04029E-13
 -1       939 1.42776E+01-2.81852E-01 2.63193E-02-3.18729E+00-8.97583E-14-2.71123E-13
 -1       940 2.03462E+01 6.67613E-01-3.39750E-05-1.45620E-01-2.06253E-14-2.21946E-13
 -1       941 2.03280E+01 7.38186E-02-7.63520E-06 8.68077E-02-9.27856E-14-1.02122E-13
 -1       942 2.02859E+01-4.01544E-03-2.35102E-06 1.04891E-01-7.89983E-14-7.55094E-14
 -1       943 2.02420E+01-4.53647E-02 2.48299E-07 1.11304E-01-4.99689E-14-9.62527E-14
 -1       944 2.01992E+01-6.00156E-02 3.86633E-09 1.11148E-01-1.43644E-15-3.50497E-14
 -1       945 2.01585E+01-5.49045E-02-6.91283E-07 1.08387E-01-3.15027E-14-1.21121E-14
 -1       946 2.01201E+01-3.47620E-02-1.58788E-06 1.06125E-01-7.84364E-14 1.69321E-14
 -1       947 2.00829E+01-2.54531E-03-2.76677E-06 1.06781E-01-3.58100E-14 1.57168E-13
 -1       948 2.00453E+01 4.01749E-02-3.82987E-06 1.12309E-01-4.18318E-14 1.11972E-13
 -1       949 2.00049E+01 9.28193E-02-5.84387E-06 1.24363E-01-8.47558E-14 1.08887E-13
 -1       950 1.99589E+01 1.55494E-01-8.73170E-06 1.44410E-01-9.37388E-14 8.57210E-14
 -1       951 1.99037E+01 2.28661E-01-1.24820E-05 1.73801E-01 3.39834E-14 1.57153E-13
 -1       952 1.98350E+01 3.12780E-01-1.72206E-05 2.13801E-01 1.54328E-14 1.97643E-13
 -1       953 1.97478E+01 4.07900E-01-2.31872E-05 2.65585E-01 8.11770E-15 3.69170E-13
 -1       954 1.96363E+01 5.13147E-01-3.07871E-05 3.30249E-01 5.00301E-14 3.95165E-13
 -1       955 1.94938E+01 6.26099E-01-4.07838E-05 4.08894E-01 8.51088E-14 3.77828E-13
 -1       956 1.93125E+01 7.41983E-01-5.48036E-05 5.02913E-01-4.46862E-15 3.90248E-13
 -1       957 1.90835E+01 8.52693E-01-7.66451E-05 6.14685E-01 5.43612E-14 3.53353E-13
 -1       958 1.87968E+01 9.45559E-01-1.15544E-04 7.49033E-01 7.27959E-14 1.82182E-13
 -1       959 1.84411E+01 1.00176E+00-1.91712E-04 9.15964E-01 5.38726E-14 1.87312E-13
 -1       960 1.80034E+01 9.94069E-01-3.24086E-04 1.13534E+00 9.83068E-14 2.18736E-14
 -1       961 1.74699E+01 8.82869E-01-5.56674E-04 1.44492E+00 9.29043E-14 6.24185E-14
 -1       962 1.68262E+01 6.05015E-01 8.54764E-04 1.91134E+00-2.44920E-14 7.44853E-14
 -1       963 1.61407E+01 2.13226E-01 8.08493E-03 2.47165E+00-1.51321E-13 1.84883E-13
 -1       964 2.01120E+01-3.92379E-02 3.70331E-06-1.20337E-01 7.50619E-14-8.00134E-14
 -1       965 2.03840E+01 3.95572E-01-1.05045E-04-1.09445E-02-3.72678E-14-2.00039E-13
 -1       966 2.02337E+01 1.00249E-01-8.19718E-06-1.09914E-01 1.32875E-15-6.51350E-14
 -1       967 1.99796E+01 1.27276E-01-9.80122E-07-1.57671E-01 2.18503E-14 8.39237E-14
 -1       968 2.00157E+01 7.26088E-02 8.93512E-07-1.36557E-01-2.69872E-14 1.19452E-13
 -1       969 1.98866E+01 2.60957E-01-4.87464E-06-2.34441E-01-1.99324E-14-7.73529E-14
 -1       970 1.98242E+01 3.38533E-01-6.88766E-06-2.93884E-01-8.45428E-14-9.69996E-14
 -1       971 1.97474E+01 4.20500E-01-8.93480E-06-3.70125E-01-6.95683E-14-1.28453E-13
 -1       972 1.96537E+01 5.02338E-01-1.09921E-05-4.65542E-01-2.37689E-14-4.30389E-14
 -1       973 1.95420E+01 5.76447E-01-1.29928E-05-5.82988E-01 1.72362E-14 1.12523E-13
 -1       974 1.94131E+01 6.30931E-01-1.48317E-05-7.26200E-01 1.08427E-13 1.74464E-13
 -1       975 1.92714E+01 6.48107E-01-1.66114E-05-9.00488E-01 7.26294E-15 7.26804E-14
 -1       976 1.91276E+01 6.02658E-01-1.97107E-05-1.11375E+00-1.77525E-13 5.33139E-15
 -1       977 1.90033E+01 4.59226E-01-2.77347E-05-1.37753E+00-1.61806E-13-8.91478E-15
 -1       978 1.89393E+01 1.69262E-01-2.02876E-05-1.70648E+00-8.21011E-14 3.90628E-14
 -1       979 1.90081E+01-3.30460E-01 6.11998E-05-2.11309E+00-7.89227E-14 1.94417E-14
 -1       980 1.93463E+01-1.12068E+00-1.82791E-03-2.58382E+00 1.42416E-14 1.16364E-13
 -1       981 1.95583E+01-1.55583E+00 7.66548E-03 3.44682E+00-2.03050E-13-8.13637E-13
 -1       982 1.99375E+01 1.90178E-01-2.90344E-06-1.89686E-01 1.28850E-14 3.75105E-14
 -1       983 1.64018E+01 1.01080E-01 1.49227E-02-2.92647E+00-5.37010E-13-2.38351E-13
 -1       984 2.02785E+01 1.40667E+00-1.68130E-05-6.54671E-02 2.90435E-14-2.44584E-13
 -1       985 2.02610E+01-2.14224E+00 1.01221E-02-2.90633E+00-6.24414E-15 1.27144E-13
 -1       986 2.03871E+01-2.80736E+00 1.37171E-02 3.89106E+00 1.56307E-13-4.57740E-13
 -1       987 2.03609E+01 6.92095E-01 1.75194E-04 1.36172E-01 9.80257E-14-1.25816E-13
 -1       988 2.03042E+01 1.20013E+00 1.00296E-04 3.04541E-01 1.37355E-13-1.62439E-13
 -1       989 2.03633E+01 2.01085E-01-1.54453E-05 5.07181E-02-4.15422E-14-1.60153E-13
 -1       990 2.01461E+01-5.58861E-02 5.26837E-06-1.23862E-01 7.28410E-14-1.53854E-13
 -1       991 2.03888E+01 6.10235E-01-1.29108E-04-7.30348E-02-1.58791E-14-2.25197E-13
 -1       992 1.72773E+01-1.10680E+00 9.48000E-03-3.42287E+00-9.92446E-14-1.00163E-13
 -1       993 2.02638E+01 3.19567E-03-1.08644E-06-1.19222E-01 5.11556E-14-8.08578E-14
 -1       994 1.49335E+01 7.72655E-01 1.67838E-02-1.53973E+00-2.62094E-13-3.05770E-13
 -1       995 2.03715E+01 9.69571E-01 1.15791E-05-7.71927E-02-2.29577E-14-1.46136E-13
 -1       996 2.00799E+01-1.12619E-02 5.29412E-06-1.19813E-01 2.26353E-14 4.94124E-14
 -1       997 1.42417E+01 8.20756E-01 1.93489E-02 1.41560E+00-8.28590E-14-1.52568E-13
 -1       998 2.03800E+01 8.43609E-01 4.14875E-04-1.04671E-01-3.55488E-14-1.65080E-13
 -1       999 2.00484E+01 2.63172E-02 2.82002E-06-1.24549E-01-1.16861E-14 1.31508E-13
 -1      1000 2.03616E+01 4.09172E-01 2.48259E-05 2.23626E-02 7.28126E-14-5.67284E-14
 -1      1001 2.02225E+01-4.06229E-02-1.15734E-06-1.27518E-01 6.25293E-14-1.18184E-13
 -1      1002 2.03637E+01 8.85929E-01 1.13698E-04 1.45277E-01 7.95185E-14-1.66565E-13
 -1      1003 1.35441E+01 7.44714E-01 2.60691E-02-1.42951E+00-8.20329E-15-1.51641E-13
 -1      1004 2.03732E+01 9.68248E-01 2.76480E-04 8.17025E-02 6.49928E-14-2.02790E-13
 -1      1005 1.54730E+01 4.30277E-01 2.25818E-02 2.19751E+00-4.33295E-14-1.39825E-13
 -1      1006 1.79381E+01-1.31703E+00 1.32829E-02 3.77096E+00-9.27685E-14-1.23468E-13
 -1      1007 2.03565E+01 4.29255E-02-3.42444E-05 6.05986E-02-6.08298E-14-1.37064E-13
 -1      1008 2.03104E+01-2.35790E-02-1.07336E-05 6.92223E-02-3.72495E-14-3.99406E-14
 -1      1009 2.02618E+01-5.52861E-02 7.83628E-07 7.18655E-02-2.13726E-15 4.40128E-15
 -1      1010 2.02135E+01-6.13627E-02 9.94340E-07 7.13334E-02-2.90806E-14-4.59715E-14
 -1      1011 2.01664E+01-4.79815E-02-5.95048E-06 7.00277E-02-2.74388E-15 2.44990E-14
 -1      1012 2.01203E+01-1.95021E-02-8.51962E-06 6.97256E-02-5.48949E-14 5.44091E-15
 -1      1013 2.00740E+01 2.15631E-02-1.21375E-05 7.18488E-02 2.88326E-14-3.34503E-14
 -1      1014 2.00251E+01 7.39028E-02-1.78531E-05 7.75622E-02-4.19183E-14 3.50803E-14
 -1      1015 1.99707E+01 1.37173E-01-2.60557E-05 8.78068E-02-8.59688E-14 1.73693E-13
 -1      1016 1.99071E+01 2.11595E-01-3.64394E-05 1.03387E-01-2.15185E-14 2.60387E-13
 -1      1017 1.98297E+01 2.97581E-01-4.90247E-05 1.24972E-01 4.64206E-15 2.14170E-13
 -1      1018 1.97333E+01 3.95334E-01-6.41233E-05 1.53077E-01 3.75986E-14 1.86191E-13
 -1      1019 1.96117E+01 5.04405E-01-8.24239E-05 1.88038E-01 1.07416E-13 1.29297E-13
 -1      1020 1.94574E+01 6.23180E-01-1.05377E-04 2.30011E-01 7.19767E-14 1.48573E-13
 -1      1021 1.92620E+01 7.48329E-01-1.36115E-04 2.79065E-01 5.42156E-14 2.38925E-13
 -1      1022 1.90149E+01 8.74233E-01-1.81460E-04 3.35488E-01 4.38623E-14 1.87943E-13
 -1      1023 1.87027E+01 9.92472E-01-2.55889E-04 4.00502E-01-1.09121E-13 1.90450E-13
 -1      1024 1.83076E+01 1.09148E+00-3.86687E-04 4.77730E-01-7.34505E-14-4.51473E-14
 -1      1025 1.78033E+01 1.15633E+00-6.09717E-04 5.76006E-01 3.67626E-14-1.57578E-13
 -1      1026 1.71498E+01 1.16789E+00-8.60707E-04 7.14519E-01 1.25827E-13-1.59103E-14
 -1      1027 1.62869E+01 1.10269E+00 2.57483E-03 9.26689E-01 1.04181E-13-1.08998E-14
 -1      1028 2.03945E+01 1.56876E-01 2.68136E-06 4.22628E-02-3.20169E-14-1.65171E-13
 -1      1029 2.03395E+01 2.12924E-01 1.48705E-05-5.20540E-02 5.76559E-14-7.37482E-14
 -1      1030 1.99874E+01 1.15080E-01-1.15538E-05-1.08060E-01 6.60593E-16 9.18030E-14
 -1      1031 2.03739E+01 9.97652E-01 2.57747E-04 2.52538E-03 5.19879E-14-2.43622E-13
 -1      1032 2.03706E+01 7.66806E-01 2.41196E-04-1.24855E-01-9.76261E-15-2.10005E-13
 -1      1033 2.03044E+01 8.30940E-02-9.57791E-06-9.65568E-02 5.20642E-14-1.28364E-13
 -1      1034 1.67382E+01 1.26384E-02 4.18671E-03 2.76583E+00 1.03613E-14 1.75849E-13
 -1      1035 1.96906E+01 4.38383E-01-4.48530E-05-2.48903E-01 5.34345E-15-1.01982E-13
 -1      1036 1.97885E+01 3.44840E-01-3.57071E-05-1.96660E-01 2.54129E-14 4.99672E-14
 -1      1037 1.94216E+01 6.34331E-01-6.52630E-05-4.01657E-01-4.88711E-14-1.93631E-13
 -1      1038 1.92425E+01 7.23023E-01-7.84515E-05-5.09787E-01-1.10021E-13-1.11372E-13
 -1      1039 1.90295E+01 7.90099E-01-9.83869E-05-6.47183E-01-8.07920E-14 1.97815E-13
 -1      1040 1.87816E+01 8.17586E-01-1.36501E-04-8.24114E-01-1.62280E-14 2.64180E-13
 -1      1041 1.85008E+01 7.80615E-01-2.19299E-04-1.05686E+00-1.61397E-13 1.57847E-14
 -1      1042 1.81947E+01 6.44667E-01-4.31932E-04-1.37158E+00-2.41928E-13 2.16096E-14
 -1      1043 1.78876E+01 3.56907E-01-5.27040E-04-1.80816E+00-7.06468E-14 5.74674E-14
 -1      1044 1.76373E+01-1.52227E-01 1.62070E-03-2.41426E+00-1.10798E-13 7.62749E-14
 -1      1045 1.99328E+01 1.82226E-01-1.89470E-05-1.28059E-01 9.29727E-14 1.42158E-13
 -1      1046 1.42433E+01 1.05976E+00 9.67368E-03-6.62841E-02 8.31442E-15-1.05711E-13
 -1      1047 2.00350E+01 5.76590E-02-5.05750E-06-9.55273E-02-1.18335E-14 4.27628E-14
 -1      1048 2.01829E+01-5.79171E-02 2.18741E-06-1.27442E-01 6.69869E-14-8.74491E-14
 -1      1049 2.04170E+01 3.32775E-01 8.03750E-05 9.71097E-03-3.84495E-14-1.24504E-13
 -1      1050 1.98679E+01 2.58980E-01-2.70459E-05-1.57033E-01 7.96546E-14 7.87054E-14
 -1      1051 1.95697E+01 5.36637E-01-5.45539E-05-3.16178E-01-7.13710E-14-1.71941E-13
 -1      1052 2.03980E+01 5.42375E-01-2.06176E-04 5.00838E-02 4.46681E-14-1.28474E-13
 -1      1053 2.01640E+01-5.14729E-02-4.42852E-06-8.81060E-02 5.09521E-14-8.22339E-15
 -1      1054 1.53930E+01 1.00138E+00 7.00369E-03 1.12808E+00 7.51873E-14-1.16717E-13
 -1      1055 1.58178E+01 2.11161E-01 1.04847E-02-2.38757E+00 4.84104E-14-3.64063E-13
 -1      1056 2.03455E+01 5.54166E-02-1.94414E-05-7.41993E-02 4.01637E-14-1.11926E-13
 -1      1057 2.04221E+01 6.65143E-01-1.68580E-04-1.74524E-02-2.76735E-16-1.37020E-13
 -1      1058 2.01212E+01-2.67442E-02 7.64456E-06-8.71072E-02-3.65444E-14 5.91136E-14
 -1      1059 2.04208E+01 5.79811E-01-3.89067E-05-2.97429E-02 1.08491E-14-1.23717E-13
 -1      1060 2.00788E+01 1.01536E-02 7.50187E-07-8.90266E-02-8.90803E-14 5.86334E-14
 -1      1061 2.03013E+01-1.52868E-02 3.33200E-05-8.64542E-02 5.41692E-14-8.51798E-14
 -1      1062 2.04033E+01 1.04026E-01-1.53365E-04 1.97375E-02-1.43224E-14-1.46384E-13
 -1      1063 2.04280E+01 5.76388E-01-1.14739E-05 2.41803E-02 4.85244E-14-2.27365E-13
 -1      1064 2.03096E+01-4.11287E-02 1.88430E-05 2.79130E-02-1.04721E-14-1.48521E-13
 -1      1065 2.02578E+01-6.14126E-02 3.07002E-06 2.82294E-02-2.46719E-14-9.16136E-14
 -1      1066 2.02066E+01-5.77441E-02-1.32399E-05 2.76174E-02 4.74613E-15-6.47142E-14
 -1      1067 2.01562E+01-3.54469E-02 3.91823E-05 2.75249E-02-6.68562E-15-6.01971E-14
 -1      1068 2.01051E+01 1.11951E-03 3.19155E-05 2.79950E-02 4.30721E-16 4.36759E-15
 -1      1069 2.00522E+01 5.01634E-02 3.16931E-05 2.95217E-02 6.10106E-14-4.59851E-14
 -1      1070 1.99948E+01 1.10801E-01 3.19091E-05 3.24547E-02 8.43213E-15-2.97556E-14
 -1      1071 1.99291E+01 1.82900E-01 3.41647E-05 3.70118E-02-2.42974E-14 5.21222E-14
 -1      1072 1.98510E+01 2.66695E-01 3.86508E-05 4.32602E-02-3.43405E-14 8.68143E-14
 -1      1073 1.97553E+01 3.62388E-01 4.52202E-05 5.10810E-02-1.54371E-14 6.90105E-14
 -1      1074 1.96359E+01 4.69721E-01 5.35837E-05 6.01054E-02-6.10589E-14 1.97386E-14
 -1      1075 1.94858E+01 5.87503E-01 6.32994E-05 6.96330E-02 6.04248E-14-8.80788E-14
 -1      1076 1.92968E+01 7.13128E-01 7.36084E-05 7.85478E-02 9.96876E-14-5.27033E-14
 -1      1077 1.90590E+01 8.42130E-01 8.28140E-05 8.52552E-02-5.04040E-14-2.51379E-14
 -1      1078 1.87596E+01 9.67865E-01 8.62366E-05 8.76732E-02-5.80616E-14-2.12161E-13
 -1      1079 1.83815E+01 1.08147E+00 7.10652E-05 8.32958E-02-1.52865E-13-1.10908E-13
 -1      1080 1.78992E+01 1.17229E+00 1.00512E-05 6.92626E-02-1.06996E-13-5.07366E-14
 -1      1081 1.72722E+01 1.22885E+00-1.18642E-04 4.20971E-02 9.90587E-14-1.89506E-13
 -1      1082 1.64314E+01 1.23840E+00-2.91888E-04-4.35108E-03 7.22777E-14-2.69794E-13
 -1      1083 1.98764E+01 2.40306E-01-1.91381E-05-7.91594E-02 8.94506E-14-1.02354E-13
 -1      1084 1.93866E+01 6.49834E-01-7.06803E-05-2.12677E-01 3.88262E-14 1.08907E-13
 -1      1085 2.03820E+01 1.75224E-01-2.90463E-05-4.88969E-02 6.13808E-14-9.20143E-14
 -1      1086 2.04326E+01 3.99842E-01 6.55967E-05-1.35402E-04-9.73037E-15-1.82985E-13
 -1      1087 1.86261E+01 9.49862E-01-1.48980E-04-4.77054E-01-1.61794E-13-5.19752E-14
 -1      1088 1.96835E+01 4.28932E-01-3.79074E-05-1.26928E-01 1.01958E-14 1.54666E-13
 -1      1089 1.89327E+01 8.66451E-01-1.16044E-04-3.62402E-01-2.55241E-13-6.79203E-14
 -1      1090 1.91831E+01 7.62514E-01-9.17432E-05-2.77049E-01-6.63259E-14-2.32195E-14
 -1      1091 1.82514E+01 9.97056E-01-2.10364E-04-6.34043E-01 1.77690E-14-1.29788E-14
 -1      1092 1.77923E+01 9.87852E-01-3.11880E-04-8.53993E-01-7.37933E-14-1.95923E-15
 -1      1093 1.72241E+01 8.98144E-01-9.37350E-06-1.16909E+00-9.77851E-14-1.47921E-13
 -1      1094 1.65062E+01 6.98701E-01 3.03449E-03-1.65201E+00-1.74613E-14-2.13437E-13
 -1      1095 1.99477E+01 1.61818E-01-1.43635E-05-6.50077E-02 4.18400E-14-8.28830E-14
 -1      1096 1.95511E+01 5.36793E-01-5.25763E-05-1.63858E-01 1.56581E-14 1.70820E-13
 -1      1097 1.53838E+01 1.16489E+00 5.30548E-03 1.35189E-02 7.17590E-15-2.38245E-13
 -1      1098 2.00084E+01 9.41644E-02-1.19048E-05-5.57119E-02-2.22693E-14-9.18535E-14
 -1      1099 2.00623E+01 3.73651E-02-1.10344E-05-5.02818E-02-2.70642E-14-9.52960E-14
 -1      1100 2.03987E+01 3.29271E-01-1.73123E-04-1.13125E-02 6.91369E-14-1.15173E-13
 -1      1101 1.50950E+01 9.07932E-01-6.70556E-03-1.14575E+00 5.41434E-14-2.12174E-13
 -1      1102 1.97900E+01 3.29548E-01-2.68329E-05-9.93211E-02 5.55911E-16 2.30732E-14
 -1      1103 2.02088E+01-6.16872E-02-1.11540E-04-9.03945E-02 7.18315E-14-3.08385E-14
 -1      1104 2.04256E+01 2.27277E-01 1.13808E-04 1.41776E-02-6.70125E-14-1.45091E-13
 -1      1105 2.03596E+01 1.09670E-02 3.35543E-05 2.55953E-02 7.80606E-15-1.38522E-13
 -1      1106 2.01127E+01-8.19686E-03-1.14698E-05-4.77872E-02-5.54414E-14-5.89768E-14
 -1      1107 2.04414E+01 3.86064E-01-2.84598E-04-6.12003E-04-1.14446E-14-1.84647E-13
 -1      1108 2.01618E+01-4.19595E-02-7.59851E-05-4.72601E-02 4.72345E-14-4.37867E-14
 -1      1109 2.04006E+01 1.26219E-01-1.46271E-04-3.17986E-02 2.83275E-14-8.27539E-14
 -1      1110 2.02553E+01-5.13160E-02-2.96937E-06-9.06260E-02 5.54640E-14-8.66291E-14
 -1      1111 2.03619E+01 2.35350E-02 4.05270E-05-4.25952E-02 2.60543E-14-9.29733E-14
 -1      1112 2.02103E+01-5.94114E-02 1.55569E-04-4.76283E-02 2.60156E-14-6.31587E-14
 -1      1113 2.02334E+01-6.17263E-02 1.89473E-04-1.69126E-02-1.45067E-14-2.01919E-14
 -1      1114 2.04259E+01 2.78446E-01 2.51863E-04-1.41380E-02 4.18617E-14-1.59713E-13
 -1      1115 2.02872E+01-5.56043E-02-8.46526E-05-1.74876E-02 2.87971E-14-3.55973E-14
 -1      1116 2.03274E+01-2.74603E-02-4.36149E-05-3.22399E-02 6.19721E-14-7.28893E-14
 -1      1117 2.04333E+01 2.53086E-01 3.23298E-04-1.59600E-03-1.22838E-14-1.69654E-13
 -1      1118 2.79623E+01 9.08636E+00 2.32535E+00-6.69857E+00-3.79141E-14 1.05385E-12
 -1      1119 2.05465E+01 6.22687E+00 2.09675E-01-3.90471E+00-1.91236E-14 8.59451E-14
 -1      1120 1.94341E+01 5.85284E+00 7.53615E-02-2.88890E+00-1.32255E-14-3.08352E-13
 -1      1121 1.90256E+01 5.72577E+00 6.02855E-02-2.23592E+00-7.41421E-15-4.92584E-13
 -1      1122 1.88395E+01 5.66913E+00 5.75279E-02-1.70245E+00-5.40193E-15-5.73193E-13
 -1      1123 1.87465E+01 5.64064E+00 5.55999E-02-1.23505E+00-1.78069E-15-6.10162E-13
 -1      1124 1.86980E+01 5.62557E+00 5.38577E-02-8.04945E-01-8.98587E-16-6.02465E-13
 -1      1125 1.86742E+01 5.61805E+00 5.25952E-02-3.93127E-01 5.58581E-16-5.91766E-13
 -1      1126 1.86674E+01 5.61589E+00 5.21907E-02 8.50996E-03 1.96316E-15-5.80680E-13
 -1      1127 1.86752E+01 5.61838E+00 5.26989E-02 4.10546E-01 3.30638E-15-5.69003E-13
 -1      1128 1.87001E+01 5.62627E+00 5.40807E-02 8.23665E-01 3.99117E-15-5.42151E-13
 -1      1129 1.87505E+01 5.64202E+00 5.62764E-02 1.25631E+00 7.17742E-15-4.91747E-13
 -1      1130 1.88452E+01 5.67111E+00 5.84691E-02 1.72825E+00 8.56086E-15-4.03908E-13
 -1      1131 1.90312E+01 5.72747E+00 6.03955E-02 2.26936E+00 1.21951E-14-2.68060E-13
 -1      1132 1.94304E+01 5.84987E+00 6.91798E-02 2.92942E+00 1.45023E-14-8.55219E-15
 -1      1133 2.04526E+01 6.18176E+00 1.53217E-01 3.87923E+00 1.55431E-14 4.68580E-13
 -1      1134 2.52166E+01 7.99414E+00 1.43041E+00 5.84676E+00 3.12528E-14 1.40599E-12
 -1      1135 2.88121E+01 3.61645E+00 1.27143E+00-4.21727E+00-1.54349E-13 1.66095E-12
 -1      1136 2.02261E+01-1.77721E-01-6.16302E-01-1.09971E-01-4.96478E-14 1.29485E-12
 -1      1137 1.88313E+01-9.63756E-02-2.36343E-01 6.25238E-02-1.24380E-14 8.34818E-13
 -1      1138 1.84968E+01-4.80128E-02-5.95308E-02 4.04953E-02-1.22541E-14 5.29424E-13
 -1      1139 1.84407E+01-2.46189E-02-1.51922E-02 2.67408E-02-5.96355E-15 3.06602E-13
 -1      1140 1.85213E+01-1.30629E-02-4.99691E-03 1.90399E-02-1.56047E-14 1.73736E-13
 -1      1141 1.86671E+01-6.59768E-03-1.45554E-03 1.40860E-02-4.96012E-15 4.24886E-14
 -1      1142 1.88384E+01-2.83736E-03 5.94053E-04 1.06348E-02-1.49863E-14-9.44054E-14
 -1      1143 1.90126E+01-6.23477E-04 1.89412E-03 8.07469E-03-3.32945E-15-1.51642E-13
 -1      1144 1.91770E+01 6.40528E-04 2.60881E-03 6.09821E-03 5.21491E-15-3.17987E-13
 -1      1145 1.93252E+01 1.29173E-03 2.87092E-03 4.53881E-03 8.32259E-15-4.65340E-13
 -1      1146 1.94544E+01 1.53403E-03 2.80590E-03 3.29848E-03 1.37790E-14-4.06366E-13
 -1      1147 1.95647E+01 1.49583E-03 2.51175E-03 2.31299E-03-4.81496E-15-5.36044E-13
 -1      1148 1.96579E+01 1.25836E-03 2.05454E-03 1.53673E-03-7.59719E-15-5.41812E-13
 -1      1149 1.97370E+01 8.70651E-04 1.47228E-03 9.36638E-04-1.00285E-14-5.17905E-13
 -1      1150 1.98061E+01 3.58343E-04 7.80052E-04 4.90061E-04-1.36557E-14-6.22125E-13
 -1      1151 1.98701E+01-2.70505E-04-2.57149E-05 1.84638E-04-1.78368E-14-5.96987E-13
 -1      1152 1.99345E+01-1.02103E-03-9.63816E-04 1.92845E-05 1.89319E-14-6.18365E-13
 -1      1153 2.00063E+01-1.90766E-03-2.06516E-03 6.05442E-06 1.33522E-15-5.37842E-13
 -1      1154 2.00931E+01-2.94987E-03-3.36930E-03 1.72872E-04 1.08889E-14-5.65812E-13
 -1      1155 2.02042E+01-4.16642E-03-4.91927E-03 5.67196E-04-7.69079E-16-5.75303E-13
 -1      1156 2.03507E+01-5.56627E-03-6.75250E-03 1.26056E-03 1.29150E-14-6.52566E-13
 -1      1157 2.05455E+01-7.13350E-03-8.88341E-03 2.35336E-03-8.84557E-15-5.31463E-13
 -1      1158 2.08034E+01-8.80152E-03-1.12699E-02 3.97788E-03-1.24369E-14-7.99990E-13
 -1      1159 2.11409E+01-1.04101E-02-1.37508E-02 6.29407E-03-5.63601E-15-8.38775E-13
 -1      1160 2.15750E+01-1.16370E-02-1.59327E-02 9.46582E-03 4.15088E-14-6.27420E-13
 -1      1161 2.21199E+01-1.18984E-02-1.70044E-02 1.35924E-02 5.06108E-14-4.22740E-13
 -1      1162 2.27820E+01-1.02253E-02-1.54667E-02 1.85489E-02-1.11455E-14-3.83329E-13
 -1      1163 2.35493E+01-5.16940E-03-8.85417E-03 2.36659E-02-3.59998E-15-4.53769E-13
 -1      1164 2.43753E+01 5.10614E-03 6.25647E-03 2.71860E-02 2.18458E-14-3.71290E-13
 -1      1165 2.51562E+01 2.22013E-02 3.32088E-02 2.55722E-02-3.28793E-14-5.23637E-13
 -1      1166 2.57088E+01 4.57645E-02 7.20364E-02 1.32173E-02-4.47125E-16-1.00242E-12
 -1      1167 2.57692E+01 7.03943E-02 1.13568E-01-1.60556E-02 2.87704E-15-9.50826E-13
 -1      1168 2.50529E+01 8.26362E-02 1.33724E-01-6.35960E-02-2.37484E-15-1.18076E-12
 -1      1169 2.34174E+01 6.25941E-02 9.84238E-02-1.16920E-01 3.70320E-14-1.26829E-12
 -1      1170 2.10983E+01-1.08672E-03-8.72556E-03-1.45288E-01 5.57512E-14-1.10582E-12
 -1      1171 1.88304E+01-8.73702E-02-1.49284E-01-1.15349E-01 1.85268E-15-5.99659E-13
 -1      1172 1.75858E+01-1.40567E-01-2.34135E-01-2.55730E-02-2.34326E-14-5.42285E-13
 -1      1173 1.79539E+01-1.18046E-01-1.98503E-01 7.79676E-02 4.88116E-14-2.71588E-13
 -1      1174 1.96870E+01-3.83007E-02-7.00841E-02 1.36927E-01-2.01154E-14-3.17121E-13
 -1      1175 2.18937E+01 4.12206E-02 6.15343E-02 1.30715E-01-1.43067E-14-4.42216E-13
 -1      1176 2.36665E+01 8.10921E-02 1.30188E-01 8.27798E-02-4.41348E-14 1.18530E-13
 -1      1177 2.45392E+01 8.08695E-02 1.31293E-01 2.84268E-02-4.27809E-14 1.33039E-13
 -1      1178 2.45118E+01 5.88129E-02 9.50418E-02-1.14354E-02 1.14596E-14 2.79518E-13
 -1      1179 2.38362E+01 3.15736E-02 5.05758E-02-3.29497E-02 4.96660E-14 3.92450E-13
 -1      1180 2.28157E+01 7.29621E-03 1.18371E-02-4.04288E-02-1.57950E-14 7.24212E-14
 -1      1181 2.17114E+01-1.25291E-02-1.98574E-02-3.85131E-02-5.31151E-16-1.12757E-14
 -1      1182 2.07369E+01-2.84632E-02-4.60404E-02-2.75081E-02 6.83256E-14 2.55913E-13
 -1      1183 2.00992E+01-4.27972E-02-5.36144E-02-1.37693E-03-4.85775E-14 2.14564E-13
 -1      1184 1.99553E+01 1.45665E-02 2.59316E-02 1.61821E-02 7.32316E-14 1.63144E-13
 -1      1185 2.77918E+01 5.25753E-01 3.77173E-01 1.96670E+00-2.05322E-14 2.16421E-12
 -1      1186 2.00837E+01-6.62341E-02-5.73615E-01 1.29491E-01 1.34857E-14 1.77369E-12
 -1      1187 1.89059E+01-4.06013E-02-1.93231E-01 1.94227E-02 7.13232E-15 1.40574E-12
 -1      1188 1.85254E+01-2.14150E-02-5.05557E-02 1.46455E-03-1.67401E-16 1.14303E-12
 -1      1189 1.84533E+01-1.24019E-02-1.34005E-02-4.07249E-03 6.99094E-15 9.73860E-13
 -1      1190 1.85278E+01-7.39583E-03-4.64936E-03-5.52534E-03 3.67902E-15 7.76469E-13
 -1      1191 1.86704E+01-4.32170E-03-1.91717E-03-5.70555E-03 9.69418E-15 6.47180E-13
 -1      1192 1.88400E+01-2.35586E-03-3.34108E-04-5.41188E-03-7.08957E-15 6.40994E-13
 -1      1193 1.90133E+01-1.09460E-03 7.75316E-04-4.89578E-03-5.57117E-16 4.15855E-13
 -1      1194 1.91772E+01-3.08898E-04 1.46760E-03-4.26958E-03 9.30685E-15 3.06279E-13
 -1      1195 1.93252E+01 1.44480E-04 1.80145E-03-3.59832E-03 8.08467E-15 2.37959E-13
 -1      1196 1.94544E+01 3.58934E-04 1.85821E-03-2.92228E-03 6.76717E-15 3.62321E-13
 -1      1197 1.95649E+01 3.95749E-04 1.70914E-03-2.26487E-03 2.13520E-14 3.14243E-13
 -1      1198 1.96583E+01 2.93763E-04 1.40402E-03-1.63765E-03 3.32146E-15 2.71115E-13
 -1      1199 1.97378E+01 7.52869E-05 9.71369E-04-1.04414E-03 4.07038E-15 1.93512E-13
 -1      1200 1.98074E+01-2.49870E-04 4.21674E-04-4.83073E-04 1.35950E-14-6.30800E-15
 -1      1201 1.98719E+01-6.81211E-04-2.49117E-04 4.84909E-05-1.77636E-14 9.73813E-14
 -1      1202 1.99369E+01-1.22443E-03-1.05609E-03 5.51875E-04 6.05162E-15 8.82106E-14
 -1      1203 2.00088E+01-1.88764E-03-2.02118E-03 1.02301E-03-5.76077E-16-2.26250E-14
 -1      1204 2.00952E+01-2.67619E-03-3.16731E-03 1.44774E-03 5.68003E-15 8.44865E-15
 -1      1205 2.02044E+01-3.58473E-03-4.50934E-03 1.79576E-03-2.40213E-14-2.98409E-14
 -1      1206 2.03460E+01-4.58505E-03-6.03925E-03 2.01258E-03 2.37772E-14-1.26581E-13
 -1      1207 2.05303E+01-5.60717E-03-7.70179E-03 2.00931E-03-7.59538E-15-2.11188E-13
 -1      1208 2.07684E+01-6.51131E-03-9.35500E-03 1.65062E-03-2.08067E-14-3.21396E-13
 -1      1209 2.10704E+01-7.04906E-03-1.07092E-02 7.43759E-04 2.89699E-15-2.31272E-13
 -1      1210 2.14437E+01-6.81671E-03-1.12402E-02-9.63165E-04 5.71093E-15 1.46968E-13
 -1      1211 2.18894E+01-5.21637E-03-1.00865E-02-3.75523E-03-2.73089E-15 3.65336E-13
 -1      1212 2.23966E+01-1.46784E-03-5.97503E-03-7.86106E-03 2.47480E-14 1.08899E-13
 -1      1213 2.29345E+01 5.24068E-03 2.69981E-03-1.32442E-02-7.19553E-14 2.57844E-13
 -1      1214 2.34423E+01 1.53240E-02 1.74012E-02-1.92199E-02-1.76231E-14 3.89848E-13
 -1      1215 2.38204E+01 2.79671E-02 3.82362E-02-2.39179E-02 1.52127E-14 3.60614E-14
 -1      1216 2.39299E+01 3.99760E-02 6.18667E-02-2.38778E-02 2.53001E-14-3.53942E-13
 -1      1217 2.36147E+01 4.52662E-02 7.94250E-02-1.45677E-02-3.38366E-14-8.16916E-14
 -1      1218 2.27598E+01 3.65764E-02 7.71962E-02 7.10371E-03 1.02466E-14 1.89813E-13
 -1      1219 2.13853E+01 1.05338E-02 4.32066E-02 3.85007E-02 3.51932E-15 3.03993E-13
 -1      1220 1.97348E+01-2.59453E-02-2.07066E-02 6.79743E-02-1.73908E-14 1.71599E-13
 -1      1221 1.82703E+01-5.52106E-02-8.98803E-02 7.82826E-02 5.76319E-14-1.96218E-13
 -1      1222 1.75007E+01-6.09526E-02-1.27553E-01 5.86819E-02 1.69179E-14-9.90510E-14
 -1      1223 1.77036E+01-4.19170E-02-1.12537E-01 1.57876E-02 5.21362E-14-7.37951E-14
 -1      1224 1.87533E+01-1.13569E-02-5.59839E-02-2.98914E-02 1.56273E-14-2.67203E-13
 -1      1225 2.01996E+01 1.46988E-02 9.38663E-03-5.85381E-02-1.07149E-14 1.12951E-13
 -1      1226 2.15253E+01 2.81304E-02 5.45676E-02-6.31864E-02-4.06762E-14 6.28539E-13
 -1      1227 2.23797E+01 2.96812E-02 6.99251E-02-4.97097E-02 3.02826E-14 6.37060E-13
 -1      1228 2.26548E+01 2.37658E-02 6.20769E-02-2.85847E-02 2.90102E-14 6.97194E-14
 -1      1229 2.24283E+01 1.43644E-02 4.23493E-02-7.89553E-03-5.80391E-14 5.81115E-14
 -1      1230 2.18679E+01 3.60762E-03 1.87374E-02 8.59959E-03 3.24920E-14-8.88248E-14
 -1      1231 2.11627E+01-7.84209E-03-5.66247E-03 1.99217E-02 4.25740E-14-9.26707E-13
 -1      1232 2.04971E+01-1.85542E-02-2.82486E-02 2.46248E-02 3.78233E-14-1.53962E-12
 -1      1233 2.00530E+01-2.04301E-02-3.38077E-02 1.60168E-02 1.05313E-13-1.86632E-12
 -1      1234 1.99694E+01 1.10375E-02 2.30044E-02-1.09663E-02-6.09903E-14-1.27728E-12
 -1      1235 2.00106E+01-3.17081E-02 2.08622E-02-1.02815E-02-1.34252E-12-5.48194E-14
 -1      1236 1.99738E+01 5.74744E-02-3.83663E-02-4.00391E-03-1.52276E-12 1.38498E-13
 -1      1237 1.99745E+01 5.08627E-01-4.00513E-02 1.70043E-02 6.84794E-13 4.28004E-14
 -1      1238 1.99823E+01 1.24027E+00-2.68782E-02 2.73134E-02 1.72445E-12 8.26739E-14
 -1      1239 1.99936E+01 2.14659E+00-1.00666E-02 3.27810E-02 1.24689E-12-1.44005E-13
 -1      1240 2.00071E+01 3.10972E+00 9.40204E-03 3.40393E-02 3.30288E-13-2.84446E-13
 -1      1241 2.00223E+01 4.00970E+00 3.02726E-02 3.06357E-02 5.18023E-13 2.40625E-13
 -1      1242 2.00360E+01 4.71328E+00 4.93672E-02 2.11901E-02 6.28015E-13-1.76604E-13
 -1      1243 2.00444E+01 5.08305E+00 6.12375E-02 6.95163E-03 1.68220E-13-6.31925E-14
 -1      1244 2.00449E+01 5.03893E+00 6.21131E-02-9.47453E-03 3.82749E-13 7.00048E-14
 -1      1245 2.00367E+01 4.57528E+00 5.13001E-02-2.46077E-02-4.97893E-13-3.67619E-13
 -1      1246 2.00234E+01 3.77301E+00 3.19178E-02-3.55058E-02-2.02481E-12 1.92713E-14
 -1      1247 2.00057E+01 2.75833E+00 7.39302E-03-4.02162E-02-1.64913E-12 1.08968E-13
 -1      1248 1.99878E+01 1.68181E+00-2.01210E-02-3.89327E-02-7.73367E-13-2.65499E-14
 -1      1249 1.99699E+01 7.17545E-01-5.00613E-02-3.35774E-02-3.69822E-13 1.07674E-14
 -1      1250 1.99554E+01 1.20962E-01-4.94664E-02 8.50216E-03-2.70796E-13-2.55152E-14
 -1      1251 2.00170E+01-4.27125E-02 2.66851E-02 1.29511E-02-1.89414E-14 3.45769E-14
 -1      1252-1.07838E+00-2.50590E+01-3.82619E+00-2.28172E+00 4.72122E-13 3.29597E-15
 -1      1253-1.81433E+00-1.60796E+01-3.12986E+00-4.33332E+00 4.44977E-13 2.26541E-13
 -1      1254 1.22799E-01-3.04418E+00-1.89558E+00-3.69992E-01 1.12332E-12 6.33826E-13
 -1      1255 8.72565E+00 7.56850E+00-3.10352E-01 8.08939E+00 1.63847E-12 1.67177E-12
 -1      1256 2.51322E+01 1.13684E+01 1.46456E+00 1.61218E+01 1.77147E-12 2.36655E-12
 -1      1257 4.56579E+01 8.49515E+00 2.92855E+00 1.77693E+01 1.01164E-12 2.19202E-12
 -1      1258 6.25729E+01 3.39857E+00 4.00368E+00 1.09397E+01 3.13846E-13 1.09379E-12
 -1      1259 6.69164E+01 1.82734E+00 4.21074E+00-1.86629E+00-1.17267E-14 1.09773E-13
 -1      1260 5.79027E+01 4.67482E+00 3.65395E+00-1.37297E+01 2.11220E-13-2.91211E-13
 -1      1261 3.89030E+01 9.61851E+00 2.39482E+00-1.81167E+01 4.28324E-13-6.92779E-13
 -1      1262 1.85198E+01 1.06450E+01 7.42033E-01-1.36049E+01 7.00995E-13-8.75744E-13
 -1      1263 4.32711E+00 4.06333E+00-9.98914E-01-4.43067E+00 1.09091E-12-8.29559E-13
 -1      1264-1.28052E+00-8.28250E+00-2.43930E+00 2.59188E+00 9.00613E-13-5.33906E-13
 -1      1265-1.44035E+00-2.03945E+01-3.39892E+00 3.87614E+00-2.91545E-13 6.05072E-15
 -1      1266-8.37928E-01-2.55048E+01-3.76019E+00 8.00689E-02-5.57582E-13 1.53003E-14
 -1      1267-1.45151E+00-2.11378E+01-3.48491E+00-3.94319E+00-5.33351E-13-9.55902E-14
 -1      1268-1.50106E+00-9.31795E+00-2.57401E+00-3.06113E+00-6.14175E-13-2.88547E-13
 -1      1269 3.31877E+00 2.68023E+00-1.24938E+00 3.37753E+00-7.33635E-13-5.14921E-13
 -1      1270 1.57970E+01 9.85890E+00 4.19228E-01 1.21390E+01-3.88356E-13-3.53273E-13
 -1      1271 3.55170E+01 1.00687E+01 2.13829E+00 1.77563E+01-1.91402E-13-4.17444E-13
 -1      1272 5.56459E+01 5.56685E+00 3.54829E+00 1.52178E+01-2.01117E-13-4.27214E-13
 -1      1273 6.73387E+01 1.97616E+00 4.32696E+00 4.42982E+00-5.22707E-14 3.70259E-14
 -1      1274 6.49428E+01 3.06281E+00 4.23924E+00-8.95265E+00-7.13180E-14 7.35967E-13
 -1      1275 4.92217E+01 7.75973E+00 3.23159E+00-1.75427E+01-8.43769E-13 1.86384E-12
 -1      1276 2.82382E+01 1.12635E+01 1.66535E+00-1.69750E+01-1.42730E-12 2.28884E-12
 -1      1277 1.08260E+01 8.63208E+00-6.41238E-02-9.48276E+00-1.75771E-12 1.87628E-12
 -1      1278 8.02016E-01-1.38436E+00-1.75245E+00-5.03516E-01-7.93365E-13 7.65499E-13
 -1      1279-1.87373E+00-1.51133E+01-3.07932E+00 4.14872E+00 8.59757E-13-9.19265E-14
 -1      1280-1.16595E+00-2.49918E+01-3.83581E+00 2.45893E+00 1.67372E-12-3.09142E-13
 -1      1281 2.22656E+01 1.83812E+00-7.25872E-01-2.79096E+00-5.84532E-14 8.31668E-13
 -1      1282 2.03583E+01 4.69011E+00-4.86574E-02-3.30778E+00-1.46411E-13-1.04042E-13
 -1      1283 2.08656E+01 4.81057E+00-1.13388E-01-4.16190E+00-1.91069E-13 1.06387E-13
 -1      1284 1.95313E+01 4.99330E+00-1.95955E-02-2.65562E+00-1.39985E-13-3.96228E-13
 -1      1285 1.98289E+01 5.09010E+00 2.40981E-04-3.04658E+00-1.62328E-13-2.74149E-13
 -1      1286 2.05249E+01 3.95282E+00-2.58974E-02-3.07585E+00-2.51299E-13-9.83796E-14
 -1      1287 1.91839E+01 5.08405E+00-3.66098E-03-2.07125E+00-1.04276E-13-5.31013E-13
 -1      1288 1.93331E+01 5.13922E+00 1.05821E-02-2.36444E+00-1.22253E-13-4.70242E-13
 -1      1289 1.97538E+01 4.36590E+00-2.42618E-02-2.49059E+00-2.17243E-13-3.31270E-13
 -1      1290 1.90090E+01 5.13090E+00 3.28129E-03-1.56575E+00-6.92840E-14-5.94700E-13
 -1      1291 1.90863E+01 5.16073E+00 1.25509E-02-1.81569E+00-8.20663E-14-5.67657E-13
 -1      1292 1.93924E+01 4.55553E+00-1.95694E-02-1.93209E+00-1.54706E-13-4.45963E-13
 -1      1293 1.89164E+01 5.16064E+00 6.62796E-03-1.11786E+00-4.13437E-14-6.09445E-13
 -1      1294 1.89584E+01 5.17684E+00 1.27230E-02-1.33944E+00-5.16817E-14-6.01632E-13
 -1      1295 1.92061E+01 4.66125E+00-1.60658E-02-1.44587E+00-1.03216E-13-4.94209E-13
 -1      1296 1.88654E+01 5.18052E+00 8.21936E-03-6.94298E-01-1.39051E-14-6.07058E-13
 -1      1297 1.88882E+01 5.18932E+00 1.20466E-02-9.04644E-01-2.33468E-14-6.13310E-13
 -1      1298 1.91040E+01 4.72659E+00-1.39491E-02-1.00492E+00-5.48838E-14-5.14706E-13
 -1      1299 1.88416E+01 5.19249E+00 9.30435E-03-2.89350E-01 1.63511E-14-5.94120E-13
 -1      1300 1.88514E+01 5.19629E+00 1.10846E-02-4.91594E-01 6.13658E-15-5.98776E-13
 -1      1301 1.90486E+01 4.76562E+00-1.29100E-02-5.89151E-01-8.88200E-15-5.02959E-13
 -1      1302 1.88379E+01 5.19744E+00 1.02339E-02 1.08309E-01 4.27635E-14-5.81124E-13
 -1      1303 1.88376E+01 5.19731E+00 1.01627E-02-9.14861E-02 3.40815E-14-5.88314E-13
 -1      1304 1.90245E+01 4.78367E+00-1.24742E-02-1.89204E-01 4.11099E-14-4.97605E-13
 -1      1305 1.88531E+01 5.19593E+00 1.11706E-02 5.08997E-01 6.58818E-14-5.67539E-13
 -1      1306 1.88426E+01 5.19185E+00 9.23939E-03 3.06339E-01 6.06444E-14-5.77143E-13
 -1      1307 1.90253E+01 4.78303E+00-1.24942E-02 2.05931E-01 8.40858E-14-4.82333E-13
 -1      1308 1.88913E+01 5.18819E+00 1.21011E-02 9.23503E-01 8.67301E-14-5.38559E-13
 -1      1309 1.88678E+01 5.17922E+00 8.14898E-03 7.12216E-01 7.88905E-14-5.57877E-13
 -1      1310 1.90511E+01 4.76357E+00-1.29802E-02 6.06573E-01 1.18784E-13-4.68407E-13
 -1      1311 1.89628E+01 5.17513E+00 1.29019E-02 1.35691E+00 1.08917E-13-4.78714E-13
 -1      1312 1.89198E+01 5.15846E+00 6.46302E-03 1.13393E+00 9.95449E-14-5.13038E-13
 -1      1313 1.91082E+01 4.72312E+00-1.40025E-02 1.02012E+00 1.53389E-13-4.35575E-13
 -1      1314 1.90949E+01 5.15660E+00 1.28232E-02 1.84169E+00 1.45817E-13-3.93685E-13
 -1      1315 1.90157E+01 5.12634E+00 3.15468E-03 1.58884E+00 1.29140E-13-4.46582E-13
 -1      1316 1.92131E+01 4.65474E+00-1.61468E-02 1.46341E+00 2.01815E-13-3.72920E-13
 -1      1317 1.93431E+01 5.13329E+00 1.01591E-02 2.39882E+00 1.71065E-13-2.38448E-13
 -1      1318 1.91932E+01 5.07626E+00-4.37218E-03 2.10154E+00 1.57499E-13-3.32533E-13
 -1      1319 1.94052E+01 4.54230E+00-1.99862E-02 1.95919E+00 2.42497E-13-2.76064E-13
 -1      1320 1.98542E+01 5.09922E+00 6.02743E-03 3.08484E+00 1.86878E-13 4.70804E-14
 -1      1321 1.95424E+01 4.98429E+00-2.05464E-02 2.69752E+00 1.68254E-13-1.22409E-13
 -1      1322 1.97739E+01 4.34631E+00-2.45669E-02 2.52907E+00 2.74525E-13-9.77066E-14
 -1      1323 2.11017E+01 4.90683E+00 8.28568E-03 4.05467E+00 1.61926E-13 5.53793E-13
 -1      1324 2.03328E+01 4.73370E+00-4.79833E-02 3.41714E+00 1.57291E-13 2.48364E-13
 -1      1325 2.05631E+01 3.91586E+00-2.24241E-02 3.17932E+00 2.80359E-13 2.18103E-13
 -1      1326 2.72015E+01 3.20537E+00 9.29090E-01 4.58265E+00 7.80348E-14 1.46927E-12
 -1      1327 2.20185E+01 3.52210E+00-1.82012E-01 3.88557E+00 8.37108E-14 8.37830E-13
 -1      1328 2.21106E+01 2.56178E+00-3.25695E-02 3.45734E+00 2.63461E-13 6.77430E-13
 -1      1329 2.14251E+01 3.59617E-01-7.63530E-01 1.18423E+00 1.45245E-13 1.42059E-12
 -1      1330 2.19993E+01 1.31403E-01-4.00865E-01-1.28611E+00-1.58179E-13 8.79130E-13
 -1      1331 2.06762E+01 3.06760E-01-1.64818E-01-8.06099E-01-1.37779E-13 6.96027E-13
 -1      1332 2.00783E+01 1.53515E-01-7.35356E-02-4.02385E-01-1.04507E-13 6.18801E-13
 -1      1333 1.96081E+01 9.11938E-02-1.49233E-02-3.30209E-01-1.04305E-13 4.62803E-13
 -1      1334 2.09702E+01 3.69312E-01-1.04214E-01-1.27452E+00-2.41369E-13 3.30624E-13
 -1      1335 1.92505E+01 6.44410E-02 3.05048E-03-1.35652E-01-8.15589E-14 3.97658E-13
 -1      1336 1.90958E+01 4.11808E-02 1.32212E-02-1.17911E-01-7.51881E-14 2.77327E-13
 -1      1337 1.99189E+01 1.33739E-01-3.51733E-02-5.04504E-01-1.83624E-13 2.11903E-13
 -1      1338 1.89350E+01 3.15012E-02 1.32356E-02-2.85355E-02-5.74566E-14 2.19026E-13
 -1      1339 1.89149E+01 1.94053E-02 1.10384E-02-1.91426E-02-6.29731E-14 1.35759E-13
 -1      1340 1.94412E+01 5.55402E-02-8.44042E-03-1.70853E-01-1.39033E-13 1.16393E-13
 -1      1341 1.88584E+01 1.60185E-02 8.75731E-03 2.45312E-02-3.88736E-14 1.17769E-13
 -1      1342 1.89002E+01 9.07166E-03 6.41734E-03 2.91636E-02-3.38362E-14 6.98729E-14
 -1      1343 1.92313E+01 2.43837E-02-3.53932E-03-1.21257E-02-9.59458E-14 2.79837E-14
 -1      1344 1.88998E+01 7.83559E-03 4.67399E-03 5.03037E-02-4.41921E-14 4.64542E-14
 -1      1345 1.89695E+01 3.48566E-03 3.65208E-03 5.21798E-02-5.58055E-14-2.11419E-14
 -1      1346 1.91737E+01 1.01834E-02-2.21980E-03 6.65751E-02-8.20479E-14 1.74201E-14
 -1      1347 1.89985E+01 3.16556E-03 2.46027E-03 6.09366E-02-4.32106E-14-3.31107E-14
 -1      1348 1.90783E+01 3.25217E-04 2.22650E-03 6.11917E-02-3.14837E-14-8.60423E-14
 -1      1349 1.91990E+01 2.73307E-03-1.31529E-03 1.03323E-01-7.53798E-14-2.98791E-14
 -1      1350 1.91214E+01 4.40981E-04 1.35301E-03 6.28751E-02-1.93281E-14-8.91899E-14
 -1      1351 1.92014E+01-1.43926E-03 1.45720E-03 6.21931E-02-2.81153E-14-1.28889E-13
 -1      1352 1.92671E+01-1.32787E-03-5.59168E-04 1.16547E-01-4.94443E-14-5.01071E-14
 -1      1353 1.92496E+01-1.11021E-03 7.72359E-04 5.98799E-02-5.52132E-14-1.57192E-13
 -1      1354 1.93246E+01-2.33870E-03 9.94960E-04 5.86982E-02-5.17175E-14-2.26847E-13
 -1      1355 1.93546E+01-3.48311E-03-1.23226E-05 1.16307E-01-7.35546E-14-6.85465E-14
 -1      1356 1.93726E+01-1.90811E-03 4.43350E-04 5.43077E-02-4.20930E-14-2.59654E-13
 -1      1357 1.94397E+01-2.67420E-03 6.93801E-04 5.29190E-02-5.56884E-15-2.84842E-13
 -1      1358 1.94474E+01-4.47120E-03 3.24101E-04 1.08629E-01-8.49728E-14-8.95273E-14
 -1      1359 1.94847E+01-2.20365E-03 2.49231E-04 4.77076E-02 5.16156E-15-3.17880E-13
 -1      1360 1.95431E+01-2.63287E-03 4.92485E-04 4.63107E-02-3.08245E-14-3.43421E-13
 -1      1361 1.95375E+01-4.70344E-03 4.91715E-04 9.73637E-02-3.42048E-14-1.69693E-13
 -1      1362 1.95839E+01-2.15546E-03 1.37224E-04 4.11245E-02-3.39419E-14-3.74995E-13
 -1      1363 1.96339E+01-2.33441E-03 3.61152E-04 3.98562E-02-2.08445E-14-3.99698E-13
 -1      1364 1.96209E+01-4.43183E-03 5.35624E-04 8.50653E-02-5.63704E-14-2.76187E-13
 -1      1365 1.96703E+01-1.86449E-03 7.93872E-05 3.52821E-02-1.15201E-14-3.88431E-13
 -1      1366 1.97128E+01-1.85337E-03 2.82445E-04 3.42391E-02-4.35933E-15-3.81114E-13
 -1      1367 1.96960E+01-3.81451E-03 4.90709E-04 7.34790E-02-1.00073E-14-2.58017E-13
 -1      1368 1.97455E+01-1.39179E-03 5.85690E-05 3.07045E-02-1.85651E-14-3.96405E-13
 -1      1369 1.97824E+01-1.23172E-03 2.45061E-04 2.99606E-02-6.23559E-14-4.28589E-13
 -1      1370 1.97633E+01-2.94607E-03 3.80417E-04 6.38404E-02-3.30899E-14-2.67748E-13
 -1      1371 1.98125E+01-7.68863E-04 6.30958E-05 2.78053E-02-4.17240E-14-4.30172E-13
 -1      1372 1.98459E+01-4.86790E-04 2.41188E-04 2.74242E-02-4.17231E-14-4.64709E-13
 -1      1373 1.98246E+01-1.87421E-03 2.18712E-04 5.70841E-02-7.25352E-14-2.73564E-13
 -1      1374 1.98751E+01-4.30866E-06 8.42828E-05 2.69554E-02-3.41582E-14-4.83355E-13
 -1      1375 1.99075E+01 3.83084E-04 2.65128E-04 2.70011E-02-3.34443E-14-5.13059E-13
 -1      1376 1.98827E+01-6.10272E-04 1.21720E-05 5.39964E-02-7.26943E-14-3.16243E-13
 -1      1377 1.99380E+01 9.11305E-04 1.14877E-04 2.85353E-02 2.13822E-14-5.01768E-13
 -1      1378 1.99726E+01 1.39408E-03 3.12257E-04 2.90802E-02 3.49087E-14-4.78577E-13
 -1      1379 1.99413E+01 8.63419E-04-2.38298E-04 5.53324E-02-5.42872E-15-3.33165E-13
 -1      1380 2.00069E+01 2.00142E-03 1.47786E-04 3.29753E-02 2.33268E-14-4.88059E-13
 -1      1381 2.00471E+01 2.57259E-03 3.77981E-04 3.41069E-02-6.87943E-15-4.64458E-13
 -1      1382 2.00050E+01 2.58754E-03-5.36037E-04 6.19054E-02 3.09904E-14-4.62905E-13
 -1      1383 2.00884E+01 3.29928E-03 1.74789E-04 4.07843E-02-1.13389E-14-4.64218E-13
 -1      1384 2.01385E+01 3.95021E-03 4.56415E-04 4.26095E-02 2.39423E-14-4.45031E-13
 -1      1385 2.00792E+01 4.61970E-03-8.87285E-04 7.46520E-02-8.20887E-15-4.12603E-13
 -1      1386 2.01902E+01 4.84239E-03 1.85029E-04 5.25633E-02 7.99003E-15-5.10714E-13
 -1      1387 2.02552E+01 5.55624E-03 5.38569E-04 5.52100E-02-6.06712E-14-5.25179E-13
 -1      1388 2.01704E+01 7.02652E-03-1.29968E-03 9.46698E-02-2.54223E-14-3.94148E-13
 -1      1389 2.03215E+01 6.66346E-03 1.63171E-04 6.89974E-02-6.92502E-15-5.47317E-13
 -1      1390 2.04071E+01 7.40533E-03 6.09798E-04 7.26115E-02 6.24044E-14-5.10514E-13
 -1      1391 2.02860E+01 9.87054E-03-1.78020E-03 1.23217E-01-1.85421E-14-4.66382E-13
 -1      1392 2.04928E+01 8.77437E-03 8.73052E-05 9.08096E-02-9.40990E-15-5.83284E-13
 -1      1393 2.06059E+01 9.47555E-03 6.46507E-04 9.55429E-02-6.59632E-14-5.52331E-13
 -1      1394 2.04348E+01 1.31864E-02-2.33202E-03 1.61652E-01-2.20889E-14-5.22826E-13
 -1      1395 2.07160E+01 1.11370E-02-7.28193E-05 1.18647E-01-7.45142E-14-5.88395E-13
 -1      1396 2.08641E+01 1.16697E-02 6.12743E-04 1.24629E-01-2.72078E-14-6.95369E-13
 -1      1397 2.06264E+01 1.69364E-02-2.94908E-03 2.11259E-01-9.30471E-14-5.32505E-13
 -1      1398 2.10041E+01 1.36108E-02-3.55299E-04 1.52847E-01 5.90686E-14-6.70544E-13
 -1      1399 2.11950E+01 1.37485E-02 4.59053E-04 1.60129E-01 3.88036E-14-6.18564E-13
 -1      1400 2.08710E+01 2.09289E-02-3.60665E-03 2.72893E-01 5.42253E-15-4.25622E-13
 -1      1401 2.13699E+01 1.58627E-02-7.98576E-04 1.93001E-01 2.25733E-14-5.68092E-13
 -1      1402 2.16109E+01 1.52219E-02 1.29708E-04 2.01442E-01 5.25027E-14-4.65842E-13
 -1      1403 2.11788E+01 2.46742E-02-4.24451E-03 3.46290E-01 4.53723E-14-4.48454E-13
 -1      1404 2.18242E+01 1.72209E-02-1.41708E-03 2.37182E-01 1.03178E-13-4.78282E-13
 -1      1405 2.21196E+01 1.51860E-02-4.09374E-04 2.46257E-01 6.46920E-14-3.95605E-13
 -1      1406 2.15584E+01 2.71466E-02-4.73757E-03 4.28850E-01 6.58469E-14-4.23199E-13
 -1      1407 2.23714E+01 1.64638E-02-2.14364E-03 2.80691E-01 1.80151E-15-3.82114E-13
 -1      1408 2.27188E+01 1.21202E-02-1.10355E-03 2.89161E-01-2.66000E-14-4.00640E-13
 -1      1409 2.20137E+01 2.64318E-02-4.84757E-03 5.13628E-01 2.94318E-14-4.94068E-13
 -1      1410 2.30028E+01 1.15817E-02-2.72162E-03 3.14225E-01 1.24950E-14-3.84559E-13
 -1      1411 2.33869E+01 3.73974E-03-1.69125E-03 3.19660E-01 2.62368E-14-4.08579E-13
 -1      1412 2.25396E+01 1.93096E-02-4.15383E-03 5.86312E-01 6.46098E-15-4.74216E-13
 -1      1413 2.36861E+01-3.18937E-04-2.55926E-03 3.21716E-01-1.05291E-14-3.90570E-13
 -1      1414 2.40696E+01-1.28023E-02-1.56939E-03 3.19946E-01-1.19132E-14-3.69432E-13
 -1      1415 2.31151E+01 1.04053E-03-1.98480E-03 6.21425E-01-1.54072E-14-3.75037E-13
 -1      1416 2.43514E+01-2.24824E-02-6.57529E-04 2.79040E-01-4.30385E-14-4.31082E-13
 -1      1417 2.46652E+01-3.97044E-02 2.02754E-04 2.63934E-01-1.38592E-13-5.43756E-13
 -1      1418 2.36940E+01-3.38714E-02 2.56167E-03 5.79253E-01-5.16028E-14-4.40922E-13
 -1      1419 2.48775E+01-5.63761E-02 4.08647E-03 1.56816E-01-1.57701E-13-6.15749E-13
 -1      1420 2.50168E+01-7.53569E-02 4.42479E-03 1.21464E-01-5.36897E-14-7.35643E-13
 -1      1421 2.41964E+01-8.83720E-02 1.02978E-02 4.07951E-01-2.17984E-13-3.82394E-13
 -1      1422 2.50898E+01-9.70536E-02 1.17710E-02-6.70557E-02 6.86881E-14-7.99372E-13
 -1      1423 2.49290E+01-1.09087E-01 1.05391E-02-1.26065E-01-6.74964E-14-8.40227E-13
 -1      1424 2.45047E+01-1.55490E-01 2.09534E-02 5.95466E-02-1.02722E-13-5.01592E-13
 -1      1425 2.47902E+01-1.26754E-01 1.96370E-02-3.80029E-01-1.11791E-13-7.80126E-13
 -1      1426 2.42349E+01-1.17007E-01 1.48258E-02-4.54057E-01-1.24241E-14-9.36626E-13
 -1      1427 2.44767E+01-2.08113E-01 3.14368E-02-4.70099E-01-6.95728E-14-5.48962E-13
 -1      1428 2.38468E+01-1.14146E-01 2.06505E-02-6.99273E-01 4.35494E-14-8.28906E-13
 -1      1429 2.29234E+01-6.92804E-02 1.05555E-02-7.59245E-01 8.96947E-14-8.58050E-13
 -1      1430 2.39947E+01-1.96481E-01 3.41220E-02-1.07964E+00-8.57300E-15-3.74829E-13
 -1      1431 2.23407E+01-3.27117E-02 7.67061E-03-8.64318E-01 8.27793E-14-8.01706E-13
 -1      1432 2.12754E+01 4.15182E-02-6.47155E-03-8.66456E-01 5.50465E-14-7.00412E-13
 -1      1433 2.30595E+01-7.61537E-02 1.84964E-02-1.52278E+00 1.53783E-13-3.29653E-13
 -1      1434 2.06849E+01 9.96375E-02-1.70027E-02-7.13702E-01 1.02949E-13-6.51146E-13
 -1      1435 1.98701E+01 1.67051E-01-2.91599E-02-6.32690E-01 6.79075E-14-5.33670E-13
 -1      1436 2.18988E+01 1.34435E-01-1.77069E-02-1.48460E+00 1.79270E-13-4.95267E-13
 -1      1437 1.95333E+01 2.04939E-01-3.69872E-02-2.37441E-01 3.28765E-14-5.88474E-13
 -1      1438 1.93278E+01 2.19906E-01-3.97698E-02-1.03725E-01 1.98105E-15-5.18491E-13
 -1      1439 2.09665E+01 3.25653E-01-5.54364E-02-8.19863E-01 6.53436E-14-5.62975E-13
 -1      1440 1.94096E+01 2.03438E-01-3.60530E-02 3.45172E-01 9.81576E-14-2.76001E-13
 -1      1441 1.98916E+01 1.54778E-01-2.78298E-02 4.56645E-01 1.33898E-13-1.72869E-13
 -1      1442 2.07106E+01 3.67649E-01-6.39635E-02 2.23260E-01 1.01343E-13-3.79122E-13
 -1      1443 2.03218E+01 9.87139E-02-1.65620E-02 7.27457E-01-9.78497E-14-2.57162E-13
 -1      1444 2.12298E+01 2.16045E-02-2.88487E-03 7.60956E-01-1.65279E-13-4.21607E-13
 -1      1445 2.12316E+01 2.28228E-01-3.58407E-02 1.10697E+00-1.30139E-14-2.23224E-13
 -1      1446 2.17638E+01-2.91704E-02 4.62563E-03 7.56324E-01 2.80323E-14-3.25365E-13
 -1      1447 2.26844E+01-8.94528E-02 1.64314E-02 7.15237E-01 9.93311E-14-3.60378E-13
 -1      1448 2.21968E+01 6.81671E-03 4.55804E-03 1.41716E+00-7.96151E-14-2.39003E-13
 -1      1449 2.30853E+01-1.07733E-01 1.47049E-02 5.07590E-01 8.30794E-14-3.34816E-13
 -1      1450 2.37010E+01-1.31672E-01 2.12689E-02 4.32961E-01-7.84095E-16-2.07973E-13
 -1      1451 2.31096E+01-1.63281E-01 3.01911E-02 1.13846E+00 1.38679E-13-3.26421E-13
 -1      1452 2.38551E+01-1.21836E-01 1.37803E-02 1.61751E-01-3.80668E-14-5.50254E-15
 -1      1453 2.40546E+01-1.16458E-01 1.59356E-02 9.16825E-02 1.06651E-14-1.28566E-13
 -1      1454 2.36261E+01-2.20895E-01 3.49099E-02 5.47153E-01 9.75001E-14-2.33031E-13
 -1      1455 2.39662E+01-9.56262E-02 8.31603E-03-1.38307E-01 4.90727E-14 9.81034E-14
 -1      1456 2.38031E+01-7.63380E-02 8.02508E-03-1.86252E-01 1.19747E-13 1.95816E-13
 -1      1457 2.36543E+01-1.89821E-01 2.68676E-02-5.74745E-02 1.28359E-13-1.18879E-13
 -1      1458 2.35383E+01-5.68715E-02 3.39009E-03-3.32681E-01 3.80460E-14 3.02588E-14
 -1      1459 2.31390E+01-3.49241E-02 2.09638E-03-3.56844E-01-7.12546E-14 9.23532E-14
 -1      1460 2.32761E+01-1.21863E-01 1.52883E-02-5.04394E-01 3.46728E-14-4.78090E-15
 -1      1461 2.27793E+01-2.09314E-02 5.31711E-04-4.19293E-01-2.99142E-14 2.00187E-14
 -1      1462 2.22756E+01-1.02000E-03-1.27491E-03-4.24242E-01-1.30939E-14 5.70793E-14
 -1      1463 2.26416E+01-5.31629E-02 5.07439E-03-7.48776E-01-7.14637E-14-1.10727E-14
 -1      1464 2.18947E+01 8.73624E-03-1.36106E-03-4.16541E-01 4.83055E-14 3.32581E-14
 -1      1465 2.13993E+01 2.60642E-02-3.63423E-03-4.06438E-01 5.36710E-14 1.03972E-13
 -1      1466 2.19017E+01 4.08324E-03-2.87546E-03-8.10354E-01 1.29351E-14 1.04489E-13
 -1      1467 2.10569E+01 3.47513E-02-4.09934E-03-3.40476E-01 9.34196E-14 1.15297E-13
 -1      1468 2.06654E+01 4.99296E-02-5.31221E-03-3.16231E-01 4.93538E-14 2.25863E-13
 -1      1469 2.11843E+01 5.32248E-02-8.97337E-03-7.20569E-01-2.99240E-16 1.73675E-13
 -1      1470 2.04023E+01 6.33241E-02-5.94789E-03-1.97547E-01-3.89922E-14 2.54451E-13
 -1      1471 2.01920E+01 6.43311E-02-1.68220E-03-1.62169E-01-7.09541E-14 2.45364E-13
 -1      1472 2.05850E+01 1.03204E-01-1.24343E-02-5.03942E-01 4.54337E-14 2.44878E-13
 -1      1473 2.00071E+01 2.70337E-02-4.40553E-04 3.73796E-04-2.00616E-13 1.65317E-13
 -1      1474 2.01278E+01 1.16384E-01-6.97976E-03-1.59128E-01-1.75530E-13 9.30276E-14
 -1      1475 2.02571E+01 7.54794E-02-1.52106E-01 4.84173E-01 1.16816E-13 1.15708E-12
 -1      1476 2.15279E+01 2.16124E-01-2.29289E-01 7.21178E-01 1.06679E-13 1.34216E-12
 -1      1477 2.17265E+01 8.81819E-01-8.54546E-02 2.06544E+00 2.11678E-13 9.07108E-13
 -1      1478 1.93280E+01 3.23756E-02-2.13374E-02 1.86337E-01 8.83599E-14 9.23171E-13
 -1      1479 1.97491E+01 1.13608E-01-6.27087E-02 2.38341E-01 8.53519E-14 1.06319E-12
 -1      1480 2.03007E+01 1.87688E-01-5.51859E-02 7.86780E-01 1.78524E-13 7.39864E-13
 -1      1481 1.89454E+01 1.50966E-02 5.66650E-03 5.38659E-02 6.69499E-14 7.53186E-13
 -1      1482 1.90845E+01 5.16092E-02 9.73182E-04 8.01662E-02 6.25541E-14 8.50695E-13
 -1      1483 1.95549E+01 7.18284E-02-1.21499E-02 2.99629E-01 1.46565E-13 5.81110E-13
 -1      1484 1.88340E+01 7.11003E-03 6.97804E-03-8.58880E-03 5.37049E-14 6.28546E-13
 -1      1485 1.88491E+01 2.58384E-02 1.10869E-02 5.79385E-03 5.21571E-14 7.07961E-13
 -1      1486 1.92188E+01 3.10176E-02-2.45587E-03 8.42017E-02 1.13009E-13 4.38804E-13
 -1      1487 1.88589E+01 3.19651E-03 4.78654E-03-3.87879E-02 4.83749E-14 4.95600E-13
 -1      1488 1.88157E+01 1.37815E-02 8.52020E-03-3.06917E-02 4.71431E-14 5.72155E-13
 -1      1489 1.91013E+01 1.32398E-02-1.60859E-03-2.06938E-02 9.48564E-14 3.66645E-13
 -1      1490 1.89518E+01 1.04436E-03 3.29831E-03-5.21655E-02 2.18330E-14 4.16641E-13
 -1      1491 1.88820E+01 7.25294E-03 5.36894E-03-4.77180E-02 3.33425E-14 4.59834E-13
 -1      1492 1.91016E+01 4.51355E-03-1.62242E-03-7.20861E-02 5.84615E-14 2.99788E-13
 -1      1493 1.90747E+01-1.93986E-04 2.51446E-03-5.60903E-02 4.55595E-14 3.44457E-13
 -1      1494 1.89954E+01 3.42769E-03 3.43402E-03-5.38977E-02 1.75894E-14 3.96408E-13
 -1      1495 1.91633E+01-1.25571E-04-1.36664E-03-9.46580E-02 3.46385E-14 2.16185E-13
 -1      1496 1.92062E+01-8.84100E-04 2.04754E-03-5.46182E-02 3.02314E-14 1.99487E-13
 -1      1497 1.91268E+01 1.11414E-03 2.33387E-03-5.38368E-02 4.99744E-14 2.74648E-13
 -1      1498 1.92542E+01-2.61739E-03-9.92682E-04-1.00858E-01 9.25119E-14 1.23025E-13
 -1      1499 1.93337E+01-1.21928E-03 1.69943E-03-5.02179E-02 2.86323E-14 1.17413E-13
 -1      1500 1.92595E+01-2.60892E-04 1.65923E-03-5.02976E-02 2.20071E-14 1.60834E-13
 -1      1501 1.93556E+01-3.84369E-03-6.54493E-04-9.77415E-02 6.46826E-14 3.75461E-14
 -1      1502 1.94509E+01-1.31638E-03 1.40298E-03-4.44774E-02-1.73301E-14 1.80891E-13
 -1      1503 1.93845E+01-1.01611E-03 1.20400E-03-4.50449E-02-6.71826E-15 1.45203E-13
 -1      1504 1.94564E+01-4.27700E-03-3.99390E-04-8.96567E-02 6.76168E-15 5.85296E-15
 -1      1505 1.95548E+01-1.25074E-03 1.13947E-03-3.84510E-02 2.50659E-14 2.12493E-13
 -1      1506 1.94971E+01-1.34655E-03 8.79312E-04-3.92459E-02 1.30259E-15 2.01404E-13
 -1      1507 1.95507E+01-4.19918E-03-2.25777E-04-7.94217E-02-1.68368E-14 5.61010E-14
 -1      1508 1.96453E+01-1.07103E-03 9.03275E-04-3.28547E-02 1.21383E-14 2.15780E-13
 -1      1509 1.95959E+01-1.37709E-03 6.43919E-04-3.36897E-02 1.75922E-14 1.93304E-13
 -1      1510 1.96359E+01-3.78715E-03-1.21045E-04-6.89217E-02 2.15602E-14 9.85913E-14
 -1      1511 1.97237E+01-8.07109E-04 6.90919E-04-2.81908E-02 4.62835E-14 1.82577E-13
 -1      1512 1.96816E+01-1.18742E-03 4.74993E-04-2.89257E-02 5.07000E-14 1.97634E-13
 -1      1513 1.97116E+01-3.15205E-03-7.40400E-05-5.94529E-02 8.70834E-14 1.31353E-13
 -1      1514 1.97927E+01-4.74978E-04 4.98396E-04-2.48335E-02 3.39447E-14 6.47000E-14
 -1      1515 1.97562E+01-8.25481E-04 3.57708E-04-2.53559E-02 3.26208E-14 1.08294E-13
 -1      1516 1.97792E+01-2.35993E-03-7.76667E-05-5.19438E-02 6.36504E-14 5.79776E-14
 -1      1517 1.98561E+01-8.02627E-05 3.20656E-04-2.30918E-02-2.87750E-14 4.28012E-14
 -1      1518 1.98231E+01-3.15776E-04 2.81470E-04-2.33025E-02 2.41250E-14 5.85402E-14
 -1      1519 1.98411E+01-1.44432E-03-1.28899E-04-4.71095E-02 5.65436E-14 6.55608E-14
 -1      1520 1.99183E+01 3.78875E-04 1.51647E-04-2.32544E-02-1.35201E-14 9.36801E-14
 -1      1521 1.98862E+01 3.34823E-04 2.38241E-04-2.30558E-02-6.96545E-14 1.33125E-14
 -1      1522 1.99006E+01-4.15116E-04-2.28366E-04-4.55614E-02-4.80993E-14 6.26386E-14
 -1      1523 1.99846E+01 9.08859E-04-1.54704E-05-2.56215E-02 4.53930E-14-1.30938E-14
 -1      1524 1.99505E+01 1.13212E-03 2.21526E-04-2.49089E-02 7.40830E-14 1.03362E-13
 -1      1525 1.99619E+01 7.34219E-04-3.79860E-04-4.78860E-02 3.00488E-14 2.35708E-15
 -1      1526 2.00611E+01 1.51728E-03-1.87955E-04-3.05216E-02-4.67951E-14-4.83589E-14
 -1      1527 2.00216E+01 2.08939E-03 2.25561E-04-2.91772E-02-1.39286E-14-6.82654E-14
 -1      1528 2.00299E+01 2.01944E-03-5.89665E-04-5.46944E-02 5.38742E-14-4.31491E-14
 -1      1529 2.01550E+01 2.20829E-03-3.72877E-04-3.83106E-02 1.25086E-14-4.32094E-14
 -1      1530 2.01062E+01 3.22080E-03 2.44531E-04-3.62018E-02 1.43246E-14-3.48326E-14
 -1      1531 2.01105E+01 3.45709E-03-8.65484E-04-6.66408E-02-3.66439E-15-2.67823E-14
 -1      1532 2.02741E+01 2.97583E-03-5.76046E-04-4.93477E-02-2.93937E-14-5.55684E-14
 -1      1533 2.02117E+01 4.53197E-03 2.71690E-04-4.63306E-02-3.34293E-14-5.28765E-14
 -1      1534 2.02100E+01 5.05306E-03-1.21462E-03-8.44005E-02-2.40040E-14 1.65862E-14
 -1      1535 2.04272E+01 3.79327E-03-7.99946E-04-6.39347E-02 2.48193E-14-5.61272E-14
 -1      1536 2.03463E+01 6.00543E-03 2.98399E-04-5.98675E-02 3.08706E-14-1.90390E-14
 -1      1537 2.03357E+01 6.78593E-03-1.64074E-03-1.08593E-01-1.04680E-15-3.74143E-14
 -1      1538 2.06235E+01 4.59757E-03-1.03968E-03-8.22013E-02 8.01421E-15-1.49059E-13
 -1      1539 2.05188E+01 7.57782E-03 3.13321E-04-7.69725E-02 1.57058E-14-9.28695E-14
 -1      1540 2.04951E+01 8.58134E-03-2.13828E-03-1.39623E-01 5.49979E-14 4.45739E-14
 -1      1541 2.08717E+01 5.26561E-03-1.27513E-03-1.03908E-01-4.19951E-14-2.14290E-13
 -1      1542 2.07383E+01 9.10475E-03 3.02444E-04-9.74892E-02 1.42742E-14-2.47658E-13
 -1      1543 2.06958E+01 1.02728E-02-2.68281E-03-1.77392E-01 5.29477E-14-1.25429E-13
 -1      1544 2.11790E+01 5.58107E-03-1.45667E-03-1.28127E-01-6.62422E-14-1.06195E-13
 -1      1545 2.10127E+01 1.03086E-02 2.51486E-04-1.20666E-01-1.04799E-13-2.74279E-13
 -1      1546 2.09443E+01 1.15432E-02-3.21522E-03-2.20833E-01-7.90334E-14-2.53378E-13
 -1      1547 2.15482E+01 5.19367E-03-1.48116E-03-1.52769E-01-8.43219E-14 1.00532E-13
 -1      1548 2.13472E+01 1.07079E-02 1.53503E-04-1.44733E-01-6.47300E-14-3.00836E-14
 -1      1549 2.12448E+01 1.18444E-02-3.61731E-03-2.67195E-01-1.17956E-13-2.28549E-13
 -1      1550 2.19742E+01 3.58285E-03-1.15793E-03-1.73923E-01 2.39670E-14 2.40176E-13
 -1      1551 2.17412E+01 9.53769E-03 2.56696E-05-1.66315E-01-2.69541E-14 2.63156E-13
 -1      1552 2.15962E+01 1.03010E-02-3.67843E-03-3.11013E-01-1.07679E-13 9.46344E-14
 -1      1553 2.24381E+01 6.19328E-05-1.75093E-04-1.85090E-01 7.46072E-15 2.51257E-14
 -1      1554 2.21838E+01 5.69890E-03-6.20803E-05-1.79721E-01 9.92133E-14 1.92580E-13
 -1      1555 2.19888E+01 5.63757E-03-3.06069E-03-3.42831E-01 1.20364E-13 8.35421E-14
 -1      1556 2.29006E+01-6.09824E-03 1.89480E-03-1.76593E-01-6.00717E-14 2.04701E-13
 -1      1557 2.26475E+01-2.16377E-03 4.78968E-05-1.76344E-01-1.24984E-13 3.35183E-14
 -1      1558 2.24000E+01-3.76990E-03-1.29023E-03-3.47958E-01-1.03403E-13-6.02686E-15
 -1      1559 2.32947E+01-1.52930E-02 5.46105E-03-1.35899E-01 3.97371E-14 1.68998E-13
 -1      1560 2.30819E+01-1.52677E-02 6.12467E-04-1.44743E-01 7.28931E-15 1.96823E-13
 -1      1561 2.27882E+01-1.94973E-02 2.16344E-03-3.06156E-01-2.32583E-14 1.17293E-14
 -1      1562 2.35231E+01-2.68043E-02 1.05132E-02-5.01907E-02 5.85014E-14-1.19378E-13
 -1      1563 2.34078E+01-3.37132E-02 1.90399E-03-7.25547E-02 1.31380E-13 8.74153E-14
 -1      1564 2.30900E+01-4.19974E-02 7.60981E-03-1.94045E-01 1.51492E-13-1.13784E-13
 -1      1565 2.34672E+01-3.76452E-02 1.58980E-02 8.69717E-02-6.10623E-14-1.55986E-13
 -1      1566 2.35195E+01-5.47726E-02 3.92448E-03 4.81697E-02-5.66006E-14-1.93851E-13
 -1      1567 2.32212E+01-6.85180E-02 1.45734E-02 6.93645E-03 3.91189E-14-1.02544E-13
 -1      1568 2.30186E+01-4.17773E-02 1.86318E-02 2.64136E-01-4.09534E-14-5.61461E-14
 -1      1569 2.33023E+01-7.10098E-02 5.95605E-03 2.11111E-01-5.56968E-14-1.25610E-13
 -1      1570 2.30906E+01-9.04784E-02 2.10577E-02 2.94454E-01-6.40252E-14 8.81066E-15
 -1      1571 2.21383E+01-3.16478E-02 1.43314E-02 4.39845E-01-2.12599E-14 1.86233E-13
 -1      1572 2.26747E+01-7.05599E-02 6.19639E-03 3.83967E-01-4.25311E-14 2.84217E-14
 -1      1573 2.26324E+01-9.22214E-02 2.35594E-02 6.23526E-01-8.13100E-14-1.03955E-13
 -1      1574 2.09286E+01-3.30774E-03-1.96802E-04 5.42874E-01-1.00566E-14 2.53797E-13
 -1      1575 2.16536E+01-4.24580E-02 2.30921E-03 5.04960E-01 2.62368E-14 2.84411E-13
 -1      1576 2.18564E+01-5.71956E-02 1.79954E-02 8.93363E-01-9.23445E-14 1.86681E-13
 -1      1577 1.96698E+01 3.63511E-02-2.22251E-02 4.98390E-01 9.01518E-14 3.37438E-14
 -1      1578 2.04135E+01 1.30197E-02-6.49302E-03 5.01063E-01 1.18031E-14 9.29951E-14
 -1      1579 2.08967E+01 1.96938E-02 3.61993E-03 9.68449E-01 6.23113E-14 1.10356E-13
 -1      1580 1.87572E+01 6.77829E-02-4.05446E-02 2.82076E-01 5.99295E-14-1.68726E-13
 -1      1581 1.92851E+01 7.53072E-02-1.68658E-02 3.33622E-01 6.21603E-14-5.01266E-14
 -1      1582 2.00136E+01 1.15038E-01-1.40540E-02 7.49092E-01 7.23883E-14-5.18925E-14
 -1      1583 1.85185E+01 7.14281E-02-4.26234E-02-3.79187E-02-7.69619E-14 1.29017E-13
 -1      1584 1.86415E+01 1.11469E-01-2.19093E-02 4.46540E-02-9.29517E-14 7.55992E-15
 -1      1585 1.95049E+01 1.79039E-01-2.55743E-02 2.65111E-01-7.48516E-14 1.87776E-13
 -1      1586 1.90190E+01 4.51970E-02-2.57032E-02-3.28101E-01 8.67691E-14 1.14804E-13
 -1      1587 1.87049E+01 1.01203E-01-1.70853E-02-2.49783E-01 5.73604E-14 1.84533E-13
 -1      1588 1.95475E+01 1.69935E-01-2.53337E-02-3.01661E-01-3.19154E-14 2.33414E-13
 -1      1589 2.00200E+01 5.32328E-03 1.43116E-04-4.73845E-01-2.98320E-14 2.10207E-13
 -1      1590 1.94136E+01 5.30165E-02-4.68601E-03-4.29990E-01-1.85498E-14 1.91964E-13
 -1      1591 2.00887E+01 9.13587E-02-1.56438E-02-7.18469E-01 3.24393E-15 5.58298E-13
 -1      1592 2.11217E+01-2.73396E-02 2.09117E-02-4.44868E-01-1.64367E-13 4.80720E-13
 -1      1593 2.04594E+01-4.52368E-03 8.01541E-03-4.43955E-01-7.60433E-14 2.19103E-13
 -1      1594 2.08807E+01-1.11304E-02-3.60388E-03-8.43065E-01-1.23312E-13 6.00141E-13
 -1      1595 2.19713E+01-4.20152E-02 2.90374E-02-2.93032E-01 9.32865E-14 5.40023E-13
 -1      1596 2.14597E+01-4.54012E-02 1.49332E-02-3.23164E-01-5.08673E-14 5.07074E-13
 -1      1597 2.16228E+01-8.71116E-02 5.10050E-03-6.88395E-01-1.42398E-13 5.12524E-13
 -1      1598 2.23880E+01-4.03850E-02 2.60311E-02-9.97763E-02 2.67009E-14 4.70610E-13
 -1      1599 2.21318E+01-6.06439E-02 1.49073E-02-1.41978E-01 3.38445E-14 5.71460E-13
 -1      1600 2.20993E+01-1.14900E-01 8.99376E-03-3.74576E-01 2.17569E-14 4.03061E-13
 -1      1601 2.23645E+01-2.95724E-02 1.75386E-02 7.08538E-02 8.20620E-14 3.40074E-13
 -1      1602 2.23663E+01-5.54131E-02 1.06234E-02 3.16028E-02 1.82905E-13 5.26867E-13
 -1      1603 2.22306E+01-1.02954E-01 9.21701E-03-3.63885E-02 1.73399E-13 5.06808E-13
 -1      1604 2.20027E+01-1.58392E-02 8.21807E-03 1.86741E-01 7.02151E-14 1.89928E-13
 -1      1605 2.22014E+01-3.91632E-02 5.34877E-03 1.58338E-01-6.77531E-14 1.34411E-13
 -1      1606 2.20493E+01-7.07345E-02 7.33633E-03 2.34796E-01 6.00986E-14 4.66622E-13
 -1      1607 2.14480E+01-2.30921E-03-2.31511E-05 2.39668E-01 2.09502E-13-2.22324E-13
 -1      1608 2.17577E+01-1.89492E-02 8.85707E-04 2.24899E-01 2.37191E-13 1.53738E-13
 -1      1609 2.16507E+01-3.35847E-02 4.25114E-03 3.98904E-01 2.07450E-13 1.03200E-13
 -1      1610 2.08512E+01 1.04192E-02-7.09734E-03 2.31808E-01 1.59302E-13-6.40717E-13
 -1      1611 2.11829E+01 2.20624E-03-2.61738E-03 2.31538E-01 2.13528E-13-3.02638E-13
 -1      1612 2.11501E+01 1.65340E-03 8.59093E-05 4.48629E-01 3.73272E-13 7.81996E-14
 -1      1613 2.03534E+01 2.22363E-02-1.13559E-02 1.66746E-01 1.87842E-13-9.60025E-13
 -1      1614 2.06215E+01 2.37418E-02-5.30274E-03 1.82428E-01 1.61820E-13-8.15738E-13
 -1      1615 2.06597E+01 3.51233E-02-4.51727E-03 3.89475E-01 3.58648E-13 7.72637E-14
 -1      1616 2.00724E+01 3.16551E-02-8.91512E-04 6.01979E-02-5.66701E-14-9.91234E-13
 -1      1617 2.01996E+01 4.04683E-02-4.64203E-03 8.75336E-02-3.72705E-15-1.01957E-12
 -1      1618 2.02717E+01 6.45234E-02-6.68642E-03 2.34531E-01 1.30287E-13-1.82193E-13
 -1      1619 2.00071E+01 1.93612E-02 3.03710E-03 1.72591E-03-6.63484E-13-7.57157E-13
 -1      1620 2.00437E+01 2.88547E-01-5.56282E-03 1.43678E-01-2.86716E-13 5.74978E-13
 -1      1621 2.00480E+01 1.44878E-01 1.23984E-03 1.13797E-01-6.97380E-13 2.77901E-13
 -1      1622 2.00331E+01 7.72938E-01-3.03647E-03 2.55771E-01 7.37372E-13 5.24103E-13
 -1      1623 2.00410E+01 4.82854E-01-4.10786E-03 2.35572E-01-7.25487E-14 6.52091E-13
 -1      1624 2.00830E+01 4.33383E-01-9.25647E-03 3.69228E-01 1.77143E-13 1.01552E-12
 -1      1625 2.00194E+01 1.43269E+00-1.26762E-03 3.36673E-01 9.77720E-13 5.14285E-14
 -1      1626 2.00291E+01 1.03894E+00-3.26931E-03 3.23383E-01 8.80225E-13 2.28822E-13
 -1      1627 2.00550E+01 8.85256E-01-8.61395E-03 5.60492E-01 4.75029E-13 6.40194E-13
 -1      1628 2.00032E+01 2.20041E+00-3.99123E-04 3.78950E-01 6.22936E-13-1.97986E-13
 -1      1629 2.00146E+01 1.75138E+00-2.27803E-03 3.73682E-01 8.68867E-13 1.57230E-13
 -1      1630 2.00289E+01 1.46123E+00-5.33372E-03 6.86376E-01 3.83821E-13 7.22144E-14
 -1      1631 1.99841E+01 2.97319E+00 1.43563E-04 3.74422E-01 2.24171E-13-2.55161E-13
 -1      1632 1.99967E+01 2.53226E+00-1.46960E-03 3.78851E-01 5.73857E-13-4.72077E-13
 -1      1633 1.99996E+01 2.10469E+00-4.06235E-04 7.31221E-01 3.02758E-13-5.06047E-13
 -1      1634 1.99635E+01 3.67106E+00 9.61504E-04 3.15432E-01 3.19493E-13 1.91175E-13
 -1      1635 1.99763E+01 3.28764E+00-2.99280E-04 3.31200E-01 1.75773E-13 1.81270E-14
 -1      1636 1.99668E+01 2.74506E+00 5.49054E-03 6.80444E-01 2.50904E-13-1.36983E-13
 -1      1637 1.99466E+01 4.16748E+00 1.84707E-03 2.02443E-01 1.53870E-13-8.13785E-14
 -1      1638 1.99562E+01 3.91300E+00 1.02817E-03 2.28641E-01 2.91836E-13 1.85556E-13
 -1      1639 1.99337E+01 3.29787E+00 1.17182E-02 5.24235E-01-4.82123E-14 1.69417E-13
 -1      1640 1.99380E+01 4.37072E+00 2.40112E-03 4.93635E-02 1.13823E-13-6.54589E-14
 -1      1641 1.99418E+01 4.29412E+00 2.16664E-03 8.21313E-02 9.52754E-14-1.32457E-13
 -1      1642 1.99082E+01 3.66561E+00 1.66476E-02 2.73972E-01 4.00851E-15-3.51917E-13
 -1      1643 1.99408E+01 4.23438E+00 2.25415E-03-1.17855E-01-1.07462E-13-1.55724E-13
 -1      1644 1.99375E+01 4.35565E+00 2.71464E-03-8.46110E-02 2.53842E-14 6.18837E-14
 -1      1645 1.98977E+01 3.77803E+00 1.86863E-02-3.41016E-02-6.54510E-14-9.62034E-14
 -1      1646 1.99544E+01 3.77333E+00 1.38842E-03-2.68220E-01-6.89481E-13-4.31353E-13
 -1      1647 1.99450E+01 4.07648E+00 2.62998E-03-2.40917E-01-1.23932E-13-4.81910E-13
 -1      1648 1.99057E+01 3.60711E+00 1.70630E-02-3.45574E-01-3.36694E-13-4.53566E-13
 -1      1649 1.99753E+01 3.07477E+00 2.67991E-04-3.73603E-01-1.03098E-12 5.96311E-16
 -1      1650 1.99617E+01 3.50311E+00 1.91300E-03-3.57181E-01-6.68653E-13-4.07016E-13
 -1      1651 1.99310E+01 3.18160E+00 1.24340E-02-6.01727E-01-1.74405E-13-5.39882E-13
 -1      1652 2.00000E+01 2.22792E+00-1.26272E-03-4.21084E-01-6.40189E-13 1.90909E-13
 -1      1653 1.99843E+01 2.72704E+00 9.07175E-04-4.16879E-01-1.05762E-12 3.79071E-13
 -1      1654 1.99663E+01 2.56933E+00 5.73424E-03-7.61160E-01-2.00086E-13 2.49875E-13
 -1      1655 2.00247E+01 1.37867E+00-3.34752E-03-4.02864E-01-3.90799E-13 6.85500E-14
 -1      1656 2.00087E+01 1.86151E+00-8.06715E-04-4.11106E-01-6.11556E-13 2.03727E-13
 -1      1657 2.00079E+01 1.86141E+00-1.46232E-03-8.01319E-01-2.47504E-13 3.60102E-13
 -1      1658 2.00517E+01 6.74742E-01-1.02578E-03-3.16249E-01-2.84668E-13 1.42875E-13
 -1      1659 2.00320E+01 1.04923E+00-3.82317E-03-3.37955E-01-3.26602E-13 8.97902E-14
 -1      1660 2.00537E+01 1.16953E+00-7.65121E-03-7.12682E-01-1.57313E-13 9.91590E-14
 -1      1661 2.01007E+01 2.69393E-01 5.82469E-03-2.38980E-01-2.35826E-13-3.50731E-14
 -1      1662 2.00905E+01 4.74672E-01-2.93229E-03-2.98066E-01-2.36773E-13 1.84228E-15
 -1      1663 2.01379E+01 6.43066E-01-1.10834E-02-5.90222E-01-1.66370E-13 1.19162E-13
 -1      1664 2.02867E+01 2.93967E-01-2.62581E-03-4.61748E-01-1.20065E-13 6.11301E-14
 -1      1665-6.59805E-01-1.56666E+01-1.78489E+00-1.11053E+00 5.15699E-13 1.05110E-13
 -1      1666-6.44895E-01-1.78434E+01-1.97608E+00 2.88035E-01 7.89480E-13-2.61458E-13
 -1      1667 1.08250E+00-8.90187E+00-1.28631E+00 1.61572E-01 7.25198E-13 4.41064E-13
 -1      1668 4.02124E-01-1.41875E+01-1.84417E+00-3.85583E-01 5.49338E-13 3.37945E-13
 -1      1669 7.17259E+00-1.16264E+00-5.33897E-01 4.58657E+00 9.57900E-13 9.23928E-13
 -1      1670 4.10045E+00-6.78219E+00-1.29586E+00 1.74798E+00 6.64468E-13 5.76650E-13
 -1      1671 1.68872E+01 4.93134E+00 2.40146E-01 9.59099E+00 1.26821E-12 1.68732E-12
 -1      1672 1.06061E+01 1.27113E+00-6.45068E-01 5.82592E+00 1.02807E-12 1.11522E-12
 -1      1673 3.07835E+01 6.51234E+00 9.29850E-01 1.26651E+01 1.12443E-12 1.52389E-12
 -1      1674 2.18883E+01 6.07180E+00 1.17864E-01 1.04981E+01 1.30784E-12 1.45683E-12
 -1      1675 4.49437E+01 5.06898E+00 1.47787E+00 1.02030E+01 7.65304E-13 1.34670E-12
 -1      1676 3.60107E+01 6.50616E+00 8.31245E-01 1.14848E+01 9.85934E-13 1.54854E-12
 -1      1677 5.42953E+01 3.68850E+00 1.88647E+00 4.51058E+00 4.41897E-13 4.58800E-13
 -1      1678 4.92336E+01 5.10947E+00 1.53426E+00 9.22564E+00 7.37604E-13 1.06770E-12
 -1      1679 5.35811E+01 3.98774E+00 1.72219E+00-3.82486E+00 7.40519E-14 9.93650E-15
 -1      1680 5.45390E+01 3.72422E+00 1.77888E+00 1.76744E+00 1.27176E-13 1.58026E-13
 -1      1681 4.56255E+01 5.65985E+00 1.39163E+00-1.06424E+01 2.55518E-13-2.77334E-13
 -1      1682 5.23568E+01 3.91196E+00 1.81719E+00-6.70757E+00 8.27116E-14-1.62093E-13
 -1      1683 3.16484E+01 6.87478E+00 6.62015E-01-1.21416E+01 3.78586E-13-5.04707E-13
 -1      1684 4.10570E+01 5.79449E+00 1.42685E+00-1.20916E+01 2.38587E-13-3.38285E-13
 -1      1685 1.71056E+01 4.76080E+00-2.18665E-01-8.80168E+00 6.28830E-13-4.37206E-13
 -1      1686 2.59878E+01 6.45959E+00 7.45432E-01-1.20512E+01 3.64153E-13-4.51861E-13
 -1      1687 7.11664E+00-1.49554E+00-9.64656E-01-3.80388E+00 6.56142E-13-4.66627E-13
 -1      1688 1.22145E+01 3.26870E+00-6.40450E-02-7.54478E+00 6.15286E-13-4.88387E-13
 -1      1689 2.18720E+00-9.76102E+00-1.49824E+00-6.23777E-01 1.80078E-13-3.73562E-13
 -1      1690 4.19344E+00-3.89479E+00-8.02697E-01-2.66157E+00 5.13367E-13-5.53335E-13
 -1      1691-2.46182E-01-1.60651E+01-1.89461E+00 2.18394E-01-3.80307E-13-1.26843E-13
 -1      1692-7.78694E-02-1.18303E+01-1.48053E+00 7.23847E-01-1.13243E-14-2.62956E-13
 -1      1693-7.97329E-01-1.71371E+01-1.89055E+00-8.77299E-01-3.80307E-13-2.63400E-14
 -1      1694-7.76422E-01-1.69178E+01-1.86004E+00 7.69957E-01-3.41283E-13 3.40006E-14
 -1      1695-2.71673E-01-1.24434E+01-1.56800E+00-1.04870E+00-3.60600E-13-6.23390E-14
 -1      1696-3.57592E-01-1.64499E+01-1.93264E+00-3.89858E-01-2.78222E-13-1.08358E-13
 -1      1697 3.76593E+00-4.62100E+00-9.07900E-01 2.22128E+00-3.17746E-13-1.33782E-13
 -1      1698 1.95093E+00-1.03161E+01-1.54994E+00 3.68211E-01-2.90434E-13-8.12406E-14
 -1      1699 1.13420E+01 1.94848E+00-2.27543E-01 6.72199E+00-3.92575E-13-2.64011E-13
 -1      1700 6.96246E+00-2.56026E+00-1.00769E+00 3.42373E+00-4.05675E-13-2.38698E-13
 -1      1701 2.35451E+01 5.90062E+00 5.60150E-01 1.12975E+01-2.28040E-13-8.88178E-14
 -1      1702 1.55413E+01 3.76586E+00-3.48252E-01 7.94789E+00-4.52083E-13-1.64757E-13
 -1      1703 3.89396E+01 5.71317E+00 1.29655E+00 1.19695E+01-4.94049E-14-3.62155E-13
 -1      1704 2.92410E+01 6.34296E+00 4.69652E-01 1.13482E+01-9.44800E-14-2.36255E-13
 -1      1705 5.13853E+01 4.17161E+00 1.83053E+00 7.93043E+00-1.32512E-13-2.47136E-13
 -1      1706 4.38330E+01 5.85888E+00 1.28098E+00 1.10947E+01-1.44204E-13-3.34954E-13
 -1      1707 5.57273E+01 3.54339E+00 1.88763E+00-2.17559E-01-1.57929E-13-1.69725E-14
 -1      1708 5.35965E+01 4.14692E+00 1.77685E+00 5.42359E+00-2.31398E-13-2.55074E-13
 -1      1709 5.06039E+01 4.85165E+00 1.56670E+00-7.82915E+00-4.17555E-13 6.19615E-13
 -1      1710 5.48294E+01 3.70030E+00 1.85329E+00-2.79231E+00-2.00645E-13 1.72584E-13
 -1      1711 3.85881E+01 6.55850E+00 9.95391E-01-1.19848E+01-9.26481E-13 1.19282E-12
 -1      1712 4.75502E+01 4.89647E+00 1.65464E+00-1.00821E+01-6.57113E-13 7.60947E-13
 -1      1713 2.42973E+01 6.29755E+00 2.30921E-01-1.10395E+01-1.01463E-12 1.47127E-12
 -1      1714 3.34534E+01 6.50435E+00 1.09983E+00-1.28643E+01-9.87210E-13 1.45750E-12
 -1      1715 1.21098E+01 2.09560E+00-5.93103E-01-6.51367E+00-8.96838E-13 1.13964E-12
 -1      1716 1.90756E+01 5.32532E+00 3.35543E-01-1.02742E+01-1.04594E-12 1.45306E-12
 -1      1717 4.25985E+00-5.59547E+00-1.29446E+00-1.81801E+00 6.99441E-14 6.22669E-13
 -1      1718 7.78556E+00 1.82809E-01-4.79298E-01-5.03320E+00-7.34079E-13 1.14952E-12
 -1      1719 8.62265E-01-1.34712E+01-1.68682E+00 1.78682E-02 1.09623E-12 1.25691E-13
 -1      1720 1.78829E+00-7.90750E+00-1.14876E+00-8.08064E-01 2.62124E-13 4.98851E-13
 -1      1721-6.36758E-01-1.75457E+01-1.92979E+00-2.40957E-01 8.18748E-13-3.79641E-13
 -1      1722-6.69810E-01-1.52033E+01-1.71130E+00 1.12243E+00 1.02268E-12-2.75918E-13
 -1      1723 2.38984E+01 9.53941E-01 2.67696E-01 7.64640E+00 6.65468E-13 9.52682E-13
 -1      1724 1.40764E+01-3.62228E+00-3.77635E-01 6.46097E+00 5.97744E-13 1.05821E-12
 -1      1725 2.00499E+01 5.41113E-02-4.21085E-03 5.72885E-02-7.72958E-13-1.55387E-13
 -1      1726 2.01157E+01 1.67098E-01-3.95959E-03 1.94071E-01-1.74175E-14 2.40351E-13
 -1      1727 2.94138E-01-1.12328E+01-1.31263E+00 2.14167E+00 7.21090E-13 2.26708E-13
 -1      1728 5.98630E+00-7.73047E+00-8.31294E-01 4.71694E+00 5.84199E-13 5.29864E-13
 -1      1729-1.44151E+00-1.22446E+01-1.39387E+00-2.54315E-02 6.27387E-13-4.21829E-13
 -1      1730 3.43387E+01 4.03319E+00 8.45383E-01 6.79764E+00 7.36189E-13 9.64895E-13
 -1      1731 4.23761E+01 6.10512E+00 1.17223E+00 4.36579E+00 8.65752E-13 7.06768E-13
 -1      1732 4.68459E+01 7.45241E+00 1.53142E+00 1.58251E+00 5.91471E-13 3.49082E-13
 -1      1733 4.60237E+01 7.23175E+00 1.48943E+00-2.41006E+00 1.88238E-13-1.73972E-13
 -1      1734 4.07717E+01 5.71017E+00 1.22279E+00-5.91588E+00 2.26388E-13-1.41664E-13
 -1      1735 3.09209E+01 3.28530E+00 6.60491E-01-7.56002E+00 2.16438E-13-2.11164E-13
 -1      1736 1.98016E+01-5.02529E-01-1.21198E-02-7.20765E+00 3.73590E-13-2.37366E-13
 -1      1737 1.01925E+01-5.12908E+00-6.19004E-01-5.64307E+00 1.32006E-13-2.49578E-13
 -1      1738 3.11714E+00-8.89736E+00-9.81702E-01-3.71010E+00-1.01585E-13-5.16434E-13
 -1      1739-8.88079E-01-1.17651E+01-1.33854E+00-1.16368E+00-2.90629E-13-1.32339E-13
 -1      1740-1.06382E+00-1.18923E+01-1.36303E+00 7.97593E-01-1.80467E-13-3.14193E-14
 -1      1741 2.75961E+00-9.24949E+00-1.03074E+00 3.31927E+00-1.72418E-13 6.80012E-15
 -1      1742 9.89678E+00-5.68974E+00-6.16636E-01 5.41415E+00-1.33227E-13-1.46605E-13
 -1      1743 1.87504E+01-1.55168E+00-1.36883E-01 6.79854E+00-3.11862E-13-6.32827E-15
 -1      1744 2.94687E+01 2.29381E+00 5.36198E-01 7.16030E+00-5.60663E-14-1.83187E-14
 -1      1745 3.94606E+01 5.06409E+00 1.09272E+00 5.78820E+00-7.11167E-14-1.17684E-13
 -1      1746 4.62059E+01 6.83973E+00 1.50726E+00 2.99629E+00-1.68532E-13-1.91624E-13
 -1      1747 4.72066E+01 7.60042E+00 1.55064E+00-7.14253E-01-4.06120E-13 7.86454E-14
 -1      1748 4.38851E+01 6.70108E+00 1.39260E+00-4.11436E+00-7.17093E-13 3.71370E-13
 -1      1749 3.63829E+01 4.50290E+00 9.99194E-01-6.82476E+00-6.86368E-13 5.99742E-13
 -1      1750 2.59160E+01 1.35811E+00 3.73994E-01-7.62286E+00-4.72733E-13 9.12492E-13
 -1      1751 1.52827E+01-2.81006E+00-3.03130E-01-6.56247E+00-1.68421E-13 8.84848E-13
 -1      1752 6.59116E+00-7.38995E+00-8.71545E-01-4.69454E+00 3.32623E-13 9.09939E-13
 -1      1753 8.93030E-01-1.05081E+01-1.12829E+00-2.60166E+00 6.46705E-13 2.18658E-13
 -1      1754 2.28583E+01 1.98496E+00-2.35534E-02-2.72289E+00-1.93671E-13 6.64691E-13
 -1      1755 1.98253E+01 3.71352E+00-3.53830E-02-2.15400E+00-2.25727E-13-2.91805E-13
 -1      1756 2.00574E+01 3.56266E+00-4.02516E-02-2.44620E+00-2.67696E-13-2.24196E-13
 -1      1757 2.03625E+01 3.18149E+00-4.58125E-02-2.58574E+00-2.71271E-13-1.26399E-13
 -1      1758 2.05825E+01 2.80981E+00-1.42527E-01-2.85400E+00-2.87520E-13-2.98372E-16
 -1      1759 2.04235E+01 2.69308E+00-4.10893E-03-2.22541E+00-2.76133E-13-1.62016E-13
 -1      1760 1.93556E+01 4.18861E+00-2.00299E-02-1.27131E+00-1.06769E-13-4.06019E-13
 -1      1761 1.94290E+01 4.14909E+00-1.69352E-02-1.49580E+00-1.34353E-13-3.95625E-13
 -1      1762 1.92594E+01 4.29444E+00-1.67560E-02-8.60093E-01-5.66027E-14-4.14495E-13
 -1      1763 1.93020E+01 4.27050E+00-1.42372E-02-1.07097E+00-8.02336E-14-4.11822E-13
 -1      1764 1.95280E+01 3.78283E+00-8.93338E-03-1.12024E+00-1.03038E-13-3.97453E-13
 -1      1765 1.92082E+01 4.35490E+00-1.48026E-02-4.67027E-01 5.08241E-15-4.03365E-13
 -1      1766 1.92300E+01 4.34203E+00-1.33104E-02-6.67424E-01-2.02955E-14-4.12314E-13
 -1      1767 1.94310E+01 3.90300E+00-9.15796E-03-7.33573E-01-4.19373E-14-3.95918E-13
 -1      1768 1.91889E+01 4.38051E+00-1.36749E-02-8.36599E-02 6.39400E-14-3.98471E-13
 -1      1769 1.91953E+01 4.37658E+00-1.32248E-02-2.79210E-01 3.74860E-14-4.04567E-13
 -1      1770 1.93809E+01 3.96744E+00-9.15710E-03-3.58475E-01 2.09516E-14-3.91093E-13
 -1      1771 1.91969E+01 4.37519E+00-1.31769E-02 2.98321E-01 1.13619E-13-3.85273E-13
 -1      1772 1.91893E+01 4.37966E+00-1.37601E-02 1.02603E-01 8.90270E-14-3.98036E-13
 -1      1773 1.93662E+01 3.98682E+00-9.15071E-03 1.05801E-02 7.96961E-14-3.89345E-13
 -1      1774 1.92340E+01 4.33799E+00-1.33358E-02 6.87287E-01 1.49818E-13-3.69494E-13
 -1      1775 1.92109E+01 4.35170E+00-1.49208E-02 4.86378E-01 1.30949E-13-3.77512E-13
 -1      1776 1.93835E+01 3.96409E+00-9.19214E-03 3.79857E-01 1.27459E-13-3.74185E-13
 -1      1777 1.93072E+01 4.26460E+00-1.44171E-02 1.08514E+00 1.91666E-13-3.33587E-13
 -1      1778 1.92640E+01 4.28908E+00-1.69741E-02 8.77089E-01 1.70930E-13-3.55745E-13
 -1      1779 1.94361E+01 3.89661E+00-9.19692E-03 7.52250E-01 1.72168E-13-3.48699E-13
 -1      1780 1.94383E+01 4.13743E+00-1.74103E-02 1.51530E+00 2.51698E-13-2.67439E-13
 -1      1781 1.93621E+01 4.18002E+00-2.05003E-02 1.28570E+00 2.21600E-13-3.08302E-13
 -1      1782 1.95354E+01 3.77275E+00-9.24245E-03 1.13620E+00 2.23515E-13-3.00742E-13
 -1      1783 1.96670E+01 3.92094E+00-2.52003E-02 1.98043E+00 2.92036E-13-1.73552E-13
 -1      1784 1.95344E+01 3.99771E+00-2.68988E-02 1.72308E+00 2.64041E-13-2.32453E-13
 -1      1785 1.97083E+01 3.56575E+00-8.69912E-03 1.53605E+00 2.73985E-13-2.35204E-13
 -1      1786 2.00752E+01 3.52268E+00-4.51915E-02 2.47284E+00 3.21569E-13 2.19963E-15
 -1      1787 1.98354E+01 3.68313E+00-3.97187E-02 2.18376E+00 3.01067E-13-1.03573E-13
 -1      1788 2.00042E+01 3.22271E+00-5.27126E-03 1.93542E+00 3.13605E-13-1.17160E-13
 -1      1789 2.09202E+01 2.68179E+00-5.76547E-02 2.85844E+00 3.04329E-13 3.32415E-13
 -1      1790 2.04129E+01 3.09690E+00-5.04260E-02 2.61672E+00 3.04539E-13 1.40207E-13
 -1      1791 2.05168E+01 2.60986E+00 3.18686E-03 2.24535E+00 3.23813E-13 8.05536E-14
 -1      1792 2.17303E+01 1.21300E+00-1.22097E-01 2.33037E+00 2.50265E-13 7.10348E-13
 -1      1793 2.12739E+01 2.26306E+00 1.19709E-04 2.74105E+00 2.75797E-13 4.67126E-13
 -1      1794 2.09366E+01 1.68501E+00-2.29671E-02 2.14089E+00 2.95264E-13 3.36658E-13
 -1      1795 2.09515E+01 7.78685E-01-6.24593E-02 1.52469E+00 2.41716E-13 6.29509E-13
 -1      1796 2.17962E+01 2.45830E+00 9.09224E-02-3.04876E+00-2.53946E-13 2.46220E-13
 -1      1797 2.01003E+01 2.97913E-01-8.92262E-03 6.57577E-01 2.06606E-13 5.05821E-13
 -1      1798 2.06526E+01 4.40394E-01-1.24700E-02 1.03459E+00 2.11407E-13 5.84896E-13
 -1      1799 2.07439E+01 8.45117E-01 2.25362E-03 1.41577E+00 2.50931E-13 4.07679E-13
 -1      1800 2.15065E+01 1.74240E+00 7.94439E-02-2.33781E+00-2.66506E-13 1.40131E-13
 -1      1801 2.05195E+01 5.00823E-01 3.24244E-02-9.22027E-01-2.16140E-13 1.10768E-13
 -1      1802 2.00876E+01 3.51878E-01 7.50724E-03-6.30028E-01-1.90632E-13 4.83034E-14
 -1      1803 1.98939E+01 2.56544E-01 2.73992E-02-3.92035E-01-1.62020E-13 3.61889E-14
 -1      1804 1.97023E+01 1.77505E-01 1.03208E-02-2.54857E-01-1.37446E-13-4.64385E-15
 -1      1805 2.01975E+01 4.81005E-01-6.68289E-03-7.23067E-01-2.09138E-13-6.01420E-14
 -1      1806 1.95797E+01 1.32939E-01 1.66288E-02-1.21044E-01-1.16626E-13-1.11456E-15
 -1      1807 1.95012E+01 9.31365E-02 6.91858E-03-5.02142E-02-8.65761E-14-3.28839E-14
 -1      1808 1.98714E+01 2.42889E-01-6.22090E-03-2.97130E-01-1.54880E-13-6.38990E-14
 -1      1809 1.94362E+01 6.82989E-02 8.68788E-03 2.32632E-02-7.08023E-14-4.35923E-14
 -1      1810 1.94213E+01 4.65499E-02 4.11304E-03 5.93653E-02-8.29083E-14-5.39137E-14
 -1      1811 1.96885E+01 1.25209E-01-4.65521E-03-6.01604E-02-1.03083E-13-8.15632E-14
 -1      1812 1.93950E+01 3.21892E-02 4.25209E-03 9.79403E-02-9.51324E-14-5.88466E-14
 -1      1813 1.94143E+01 1.97595E-02 2.44000E-03 1.14605E-01-6.25938E-14-7.40646E-14
 -1      1814 1.96016E+01 6.06677E-02-3.43574E-03 6.91753E-02-9.56151E-14-8.23829E-14
 -1      1815 1.94123E+01 1.11639E-02 1.86529E-03 1.32433E-01-5.13551E-14-5.69608E-14
 -1      1816 1.94489E+01 4.04310E-03 1.45804E-03 1.37796E-01-2.79665E-14-6.59535E-14
 -1      1817 1.95769E+01 2.38075E-02-2.33422E-03 1.35334E-01-6.10184E-14-7.19471E-14
 -1      1818 1.94612E+01-1.07740E-03 5.68184E-04 1.43194E-01-7.31431E-14-5.75226E-14
 -1      1819 1.95050E+01-4.96229E-03 8.56466E-04 1.42006E-01-8.43185E-14-7.27937E-14
 -1      1820 1.95900E+01 2.45523E-03-1.45015E-03 1.63587E-01-5.01843E-14-7.86558E-14
 -1      1821 1.95250E+01-7.83931E-03-1.43630E-04 1.40153E-01-1.13540E-13-5.56224E-14
 -1      1822 1.95701E+01-9.64776E-03 4.82753E-04 1.35404E-01-8.78298E-14-6.59158E-14
 -1      1823 1.96244E+01-9.51738E-03-8.18955E-04 1.69196E-01-1.02686E-13-1.27887E-13
 -1      1824 1.95934E+01-1.10170E-02-5.15436E-04 1.29686E-01-7.01210E-14-8.66333E-14
 -1      1825 1.96366E+01-1.14520E-02 2.63816E-04 1.23344E-01-5.37459E-14-1.20303E-13
 -1      1826 1.96694E+01-1.54684E-02-4.04232E-04 1.61908E-01-1.14259E-13-1.15209E-13
 -1      1827 1.96608E+01-1.17825E-02-6.76268E-04 1.16041E-01-8.81787E-14-1.55363E-13
 -1      1828 1.97005E+01-1.12868E-02 1.59737E-04 1.09438E-01-6.25335E-14-1.97412E-13
 -1      1829 1.97182E+01-1.74138E-02-1.54721E-04 1.48190E-01-1.03556E-13-1.10064E-13
 -1      1830 1.97243E+01-1.08838E-02-7.01593E-04 1.02122E-01-2.69516E-14-2.02371E-13
 -1      1831 1.97602E+01-9.73424E-03 1.46514E-04 9.61876E-02-1.27865E-14-2.07548E-13
 -1      1832 1.97670E+01-1.66207E-02-2.69666E-05 1.32450E-01-7.58359E-14-1.33978E-13
 -1      1833 1.97830E+01-8.79152E-03-6.38816E-04 8.99794E-02-8.46805E-15-2.35609E-13
 -1      1834 1.98156E+01-7.15013E-03 2.09971E-04 8.53917E-02-1.99735E-14-2.40771E-13
 -1      1835 1.98142E+01-1.38870E-02 1.10288E-05 1.17773E-01-3.90051E-14-1.89447E-13
 -1      1836 1.98376E+01-5.78080E-03-5.18562E-04 8.11351E-02-6.63290E-14-2.16337E-13
 -1      1837 1.98680E+01-3.72473E-03 3.43167E-04 7.84287E-02-7.47065E-14-1.91734E-13
 -1      1838 1.98596E+01-9.68871E-03-1.85171E-05 1.06412E-01-3.53829E-14-1.80753E-13
 -1      1839 1.98900E+01-1.98090E-03-3.60504E-04 7.68181E-02-9.77319E-14-2.19899E-13
 -1      1840 1.99199E+01 4.77349E-04 5.44813E-04 7.64667E-02-9.42837E-14-2.11922E-13
 -1      1841 1.99040E+01-4.26610E-03-1.00800E-04 1.00129E-01-1.02968E-13-1.83552E-13
 -1      1842 1.99429E+01 2.59012E-03-1.76966E-04 7.81416E-02-6.94371E-14-1.70267E-13
 -1      1843 1.99743E+01 5.48774E-03 8.17949E-04 8.06194E-02-1.69399E-14-2.29623E-13
 -1      1844 1.99493E+01 2.31876E-03-2.26387E-04 1.00444E-01-6.64572E-14-1.62074E-13
 -1      1845 1.99998E+01 7.99845E-03 2.44987E-05 8.62358E-02-6.42861E-15-2.72727E-13
 -1      1846 2.00352E+01 1.14092E-02 1.16855E-03 9.20633E-02 2.24604E-14-2.76457E-13
 -1      1847 1.99980E+01 1.01393E-02-3.89510E-04 1.08825E-01-6.63119E-14-1.10364E-13
 -1      1848 2.00649E+01 1.43695E-02 2.39002E-04 1.02342E-01 6.08456E-14-3.15513E-13
 -1      1849 2.01074E+01 1.83895E-02 1.60365E-03 1.12117E-01 2.78130E-14-2.75479E-13
 -1      1850 2.00535E+01 1.93661E-02-5.86554E-04 1.26821E-01 2.75103E-14-1.55117E-13
 -1      1851 2.01434E+01 2.18589E-02 4.62373E-04 1.27871E-01-4.77385E-14-3.02348E-13
 -1      1852 2.01965E+01 2.65871E-02 2.12850E-03 1.42278E-01-5.46030E-14-3.55378E-13
 -1      1853 2.01196E+01 3.02249E-02-8.14635E-04 1.56144E-01-2.39566E-14-2.77522E-13
 -1      1854 2.02412E+01 3.06117E-02 6.89172E-04 1.64405E-01-7.15874E-14-3.94608E-13
 -1      1855 2.03089E+01 3.61184E-02 2.74172E-03 1.84199E-01-3.04868E-14-4.00119E-13
 -1      1856 2.02009E+01 4.29388E-02-1.07019E-03 1.98695E-01-8.90385E-14-3.81179E-13
 -1      1857 2.03650E+01 4.06956E-02 9.10509E-04 2.13634E-01 1.40268E-14-4.36256E-13
 -1      1858 2.04519E+01 4.69682E-02 3.42724E-03 2.39577E-01-4.35520E-14-4.62933E-13
 -1      1859 2.03025E+01 5.76351E-02-1.34762E-03 2.56497E-01-4.07288E-14-4.18724E-13
 -1      1860 2.05223E+01 5.19859E-02 1.11170E-03 2.77164E-01-1.17271E-13-4.04966E-13
 -1      1861 2.06332E+01 5.88336E-02 4.14104E-03 3.09875E-01-5.30374E-14-4.22471E-13
 -1      1862 2.04300E+01 7.41873E-02-1.63830E-03 3.31500E-01-5.79636E-14-3.85544E-13
 -1      1863 2.07209E+01 6.39664E-02 1.27013E-03 3.56114E-01-7.13036E-15-4.01353E-13
 -1      1864 2.08610E+01 7.08567E-02 4.79037E-03 3.95788E-01 3.97928E-14-3.80176E-13
 -1      1865 2.05896E+01 9.19396E-02-1.93043E-03 4.25163E-01-3.37335E-14-3.73563E-13
 -1      1866 2.09690E+01 7.53913E-02 1.35458E-03 4.50382E-01 6.20333E-14-3.60616E-13
 -1      1867 2.11426E+01 8.11809E-02 5.20379E-03 4.96274E-01 4.74299E-14-3.48851E-13
 -1      1868 2.07872E+01 1.09240E-01-2.21071E-03 5.37679E-01 7.95959E-14-2.98049E-13
 -1      1869 2.12737E+01 8.37399E-02 1.32864E-03 5.57348E-01 5.24682E-14-3.88133E-13
 -1      1870 2.14835E+01 8.62653E-02 5.09428E-03 6.06902E-01 6.41024E-14-4.61831E-13
 -1      1871 2.10288E+01 1.22685E-01-2.46904E-03 6.66638E-01 8.72634E-14-3.16922E-13
 -1      1872 2.16400E+01 8.44103E-02 1.16320E-03 6.69758E-01 6.88989E-14-4.42734E-13
 -1      1873 2.18850E+01 7.99471E-02 4.02776E-03 7.17250E-01 5.63052E-14-4.18374E-13
 -1      1874 2.13191E+01 1.25991E-01-2.70619E-03 8.04845E-01 8.40120E-14-3.57423E-13
 -1      1875 2.20683E+01 6.97163E-02 8.63055E-04 7.72521E-01 3.52070E-14-4.20610E-13
 -1      1876 2.23408E+01 5.24743E-02 1.43204E-03 8.07175E-01 3.58914E-14-3.52615E-13
 -1      1877 2.16612E+01 1.08569E-01-2.93966E-03 9.37032E-01 9.76096E-14-2.64128E-13
 -1      1878 2.25514E+01 2.81285E-02 5.04130E-04 8.38472E-01-1.40697E-15-3.12192E-13
 -1      1879 2.28333E+01-9.63664E-03-3.28329E-03 8.42417E-01-2.31783E-14-2.78590E-13
 -1      1880 2.20556E+01 5.43458E-02-3.19021E-03 1.03541E+00 1.66880E-14-2.83020E-13
 -1      1881 2.30693E+01-5.48811E-02 2.39118E-04 8.24150E-01-4.18671E-14-2.97363E-13
 -1      1882 2.33280E+01-1.20727E-01-1.03773E-02 7.71619E-01-1.17742E-13-3.48197E-13
 -1      1883 2.24989E+01-5.73968E-02-3.40913E-03 1.05483E+00-7.47588E-14-2.11775E-13
 -1      1884 2.35829E+01-1.91304E-01 1.65115E-04 6.69176E-01-1.74112E-13-3.00834E-13
 -1      1885 2.37689E+01-2.85888E-01-1.90255E-02 5.30254E-01-1.61371E-13-2.16171E-13
 -1      1886 2.29806E+01-2.45143E-01-3.28080E-03 9.30519E-01-7.44947E-14-1.59108E-13
 -1      1887 2.40246E+01-3.75408E-01-5.31322E-05 3.07824E-01-1.50282E-13-2.18659E-13
 -1      1888 2.40758E+01-4.79522E-01-2.63292E-02 6.24365E-02-9.53092E-14-1.97308E-13
 -1      1889 2.34759E+01-5.05375E-01-1.85540E-03 5.85514E-01-1.30566E-13-6.77292E-14
 -1      1890 2.42905E+01-5.57490E-01-1.69488E-03-2.93747E-01-7.20292E-14-1.30340E-13
 -1      1891 2.41505E+01-6.16933E-01-2.66461E-02-6.27540E-01 1.08368E-14-7.30587E-14
 -1      1892 2.39293E+01-7.77436E-01 2.34108E-03-3.80124E-02-5.21770E-14 1.65785E-13
 -1      1893 2.42488E+01-6.19012E-01-6.42940E-03-1.06551E+00-1.64140E-14-9.49093E-14
 -1      1894 2.39006E+01-5.49295E-01-1.43414E-02-1.39574E+00 4.02092E-14-3.02518E-14
 -1      1895 2.42355E+01-9.07384E-01 1.02021E-02-9.09701E-01-8.41488E-14 1.01889E-13
 -1      1896 2.37954E+01-4.00555E-01-1.52535E-02-1.75223E+00 7.37188E-14-1.10779E-13
 -1      1897 2.33044E+01-1.47326E-01 7.69695E-03-1.90732E+00 2.10401E-13-1.37218E-13
 -1      1898 2.42429E+01-6.71616E-01 1.73211E-02-1.80963E+00 1.01594E-14 5.11310E-14
 -1      1899 2.29902E+01 1.54909E-01-2.18661E-02-1.93529E+00 1.16553E-13-2.56276E-13
 -1      1900 2.25143E+01 5.08373E-01 2.31976E-02-1.74858E+00 8.91631E-14-2.90712E-13
 -1      1901 2.38519E+01 3.89918E-02 8.73675E-03-2.28402E+00 9.31390E-14 7.34998E-14
 -1      1902 2.21698E+01 8.09897E-01-1.42839E-02-1.29972E+00 9.16420E-14-3.33657E-13
 -1      1903 2.19020E+01 1.03114E+00 1.65452E-02-7.78586E-01-7.59288E-14-3.53224E-13
 -1      1904 2.32141E+01 9.74077E-01-1.88954E-02-1.85177E+00 7.13665E-14-1.32001E-13
 -1      1905 2.18008E+01 1.09889E+00 8.03834E-03-2.46972E-02 8.93764E-14-3.58093E-13
 -1      1906 2.18547E+01 1.00531E+00-5.94928E-03 5.70865E-01 1.86576E-13-2.57729E-13
 -1      1907 2.27720E+01 1.53551E+00-4.29569E-02-4.95883E-01 5.26107E-14-2.59245E-13
 -1      1908 2.20649E+01 7.81786E-01 2.41165E-02 1.19537E+00 1.23811E-13-2.50388E-13
 -1      1909 2.23923E+01 4.52072E-01-2.17211E-02 1.54374E+00-7.07767E-15-2.08181E-13
 -1      1910 2.28796E+01 1.29757E+00-3.28071E-02 1.06935E+00 1.34392E-13-3.57418E-13
 -1      1911 2.26979E+01 1.19955E-01 1.67891E-02 1.71890E+00 1.30972E-15-1.04796E-13
 -1      1912 2.31245E+01-2.01955E-01-2.10816E-02 1.69511E+00 7.76728E-14 2.42618E-14
 -1      1913 2.33831E+01 4.44618E-01-1.99217E-03 1.94581E+00 1.23531E-13-2.31992E-13
 -1      1914 2.32759E+01-4.28711E-01-5.31852E-03 1.44471E+00 2.58300E-14-7.52714E-14
 -1      1915 2.36140E+01-5.81623E-01-1.24295E-02 1.15929E+00 9.95263E-14-1.25090E-13
 -1      1916 2.38115E+01-4.31291E-01 1.47835E-02 1.81403E+00 3.91921E-14 7.73014E-14
 -1      1917 2.35400E+01-6.39542E-01-2.26308E-02 7.18675E-01 6.44658E-14-2.06959E-13
 -1      1918 2.36813E+01-6.27809E-01-4.82593E-03 3.59666E-01 4.20584E-14-1.76603E-13
 -1      1919 2.38643E+01-8.84522E-01 1.38118E-02 1.01430E+00-1.79717E-15-8.31672E-14
 -1      1920 2.34473E+01-5.72855E-01-2.70258E-02-5.71049E-02 2.04451E-13-2.95875E-13
 -1      1921 2.33773E+01-4.77759E-01-1.22905E-03-3.56927E-01 2.27172E-13-6.13142E-14
 -1      1922 2.35521E+01-8.91062E-01 5.94184E-03 6.27651E-02 9.37644E-14-1.62304E-13
 -1      1923 2.30709E+01-3.83166E-01-2.18396E-02-6.47886E-01 1.34118E-13 8.26184E-14
 -1      1924 2.28372E+01-2.73271E-01 4.58652E-04-8.36938E-01 1.06653E-13 2.26329E-13
 -1      1925 2.30234E+01-6.50636E-01-3.55315E-04-7.05510E-01 2.65370E-13 3.93325E-14
 -1      1926 2.25174E+01-1.82542E-01-1.29839E-02-9.86372E-01 4.39102E-14 3.58819E-13
 -1      1927 2.21905E+01-8.85932E-02 2.27148E-03-1.06520E+00 3.43328E-14 4.01396E-13
 -1      1928 2.24126E+01-3.51198E-01-3.27305E-03-1.17596E+00 1.02210E-13 3.55219E-13
 -1      1929 2.18874E+01-1.44294E-02-4.77955E-03-1.09409E+00-2.54381E-14 3.09346E-13
 -1      1930 2.15355E+01 6.04526E-02 4.55368E-03-1.08071E+00-4.06703E-14 2.93108E-13
 -1      1931 2.18021E+01-8.51455E-02-4.15486E-03-1.36137E+00-9.79447E-15 3.92728E-13
 -1      1932 2.12629E+01 1.21835E-01 7.34215E-04-1.01495E+00-8.09717E-14 3.63793E-13
 -1      1933 2.09428E+01 1.84631E-01 6.61340E-03-9.25395E-01-2.25184E-14 3.25768E-13
 -1      1934 2.12369E+01 1.30889E-01-4.11157E-03-1.31346E+00-3.07407E-14 4.75217E-13
 -1      1935 2.07332E+01 2.26865E-01 3.09941E-03-7.90448E-01-3.55532E-14 2.05756E-13
 -1      1936 2.04825E+01 2.79121E-01 9.37186E-03-6.42801E-01-1.38986E-14 1.13412E-13
 -1      1937 2.03956E+01 4.04169E-01-3.03307E-03-7.55269E-01-1.77813E-13 2.58358E-13
 -1      1938 2.07647E+01 3.02650E-01-4.05058E-03-1.08929E+00-6.95143E-14 3.84669E-13
 -1      1939 1.96171E+01 1.41989E-01 7.87725E-03 2.60022E-01 1.72097E-13 3.77920E-13
 -1      1940 1.98895E+01 2.04054E-01 1.64317E-02 4.32983E-01 1.82429E-13 4.54428E-13
 -1      1941 2.01012E+01 3.50506E-01-1.52627E-03 6.55681E-01 2.22765E-13 3.14572E-13
 -1      1942 1.93742E+01 7.18627E-02 6.94127E-03 5.71247E-02 1.49232E-13 2.82905E-13
 -1      1943 1.94895E+01 1.01749E-01 1.41939E-02 1.45600E-01 1.46166E-13 3.34124E-13
 -1      1944 1.97081E+01 1.65119E-01-1.94294E-03 2.57020E-01 1.90780E-13 2.54598E-13
 -1      1945 1.92832E+01 3.60894E-02 4.42458E-03-4.82490E-02 8.88534E-14 2.32240E-13
 -1      1946 1.93137E+01 5.19023E-02 8.33558E-03-1.09488E-03 1.12519E-13 2.65388E-13
 -1      1947 1.95074E+01 8.06039E-02-2.82392E-03 4.51196E-02 1.38191E-13 1.74573E-13
 -1      1948 1.92809E+01 1.61841E-02 2.85942E-03-1.00684E-01 4.77094E-14 1.46459E-13
 -1      1949 1.92661E+01 2.50273E-02 4.35287E-03-7.61009E-02 7.07427E-14 1.92750E-13
 -1      1950 1.94279E+01 3.74165E-02-2.84156E-03-6.66970E-02 9.87981E-14 8.12679E-14
 -1      1951 1.93276E+01 4.61530E-03 1.98816E-03-1.22813E-01 1.11726E-13 7.95010E-14
 -1      1952 1.92896E+01 9.61867E-03 2.15288E-03-1.11386E-01 4.70643E-14 1.30985E-13
 -1      1953 1.94209E+01 1.36507E-02-2.31457E-03-1.22248E-01 8.08131E-14-2.75507E-15
 -1      1954 1.93987E+01-2.06860E-03 1.45242E-03-1.27217E-01 7.69260E-14 2.63676E-14
 -1      1955 1.93505E+01 6.30823E-04 9.61538E-04-1.23653E-01 1.23427E-13 6.59365E-14
 -1      1956 1.94552E+01 1.83279E-04-1.69831E-03-1.44951E-01 1.38576E-13-5.14019E-14
 -1      1957 1.94792E+01-5.67431E-03 1.08160E-03-1.21524E-01 5.55654E-14-4.46409E-14
 -1      1958 1.94283E+01-4.42194E-03 2.99422E-04-1.22574E-01 7.09487E-14 2.61217E-15
 -1      1959 1.95107E+01-7.23625E-03-1.18256E-03-1.48366E-01 1.02654E-13-1.76754E-14
 -1      1960 1.95601E+01-7.25392E-03 8.12873E-04-1.10629E-01-4.56979E-14-2.22896E-14
 -1      1961 1.95110E+01-6.93007E-03-6.82212E-05-1.14176E-01-8.53907E-15-2.64229E-14
 -1      1962 1.95751E+01-1.08549E-02-8.00519E-04-1.40913E-01-7.91468E-18-4.68710E-14
 -1      1963 1.96368E+01-7.46363E-03 6.21184E-04-9.77844E-02 6.55522E-15 4.66908E-14
 -1      1964 1.95915E+01-7.73821E-03-2.55128E-04-1.02398E-01-3.53659E-14-1.00617E-14
 -1      1965 1.96411E+01-1.19863E-02-5.34166E-04-1.28070E-01-4.70587E-14-5.50311E-15
 -1      1966 1.97071E+01-6.72292E-03 4.93609E-04-8.52073E-02 6.48242E-14 3.64010E-14
 -1      1967 1.96664E+01-7.38244E-03-3.23053E-04-8.98943E-02 4.89892E-14 6.09357E-14
 -1      1968 1.97044E+01-1.14445E-02-3.58880E-04-1.13521E-01 3.12934E-14-2.10225E-14
 -1      1969 1.97709E+01-5.29507E-03 4.22229E-04-7.44569E-02 1.40087E-13 3.75703E-14
 -1      1970 1.97346E+01-6.20363E-03-3.09256E-04-7.85013E-02 1.08579E-13 5.70858E-14
 -1      1971 1.97636E+01-9.74200E-03-2.54545E-04-9.98078E-02 1.17949E-13-2.75247E-14
 -1      1972 1.98294E+01-3.33318E-03 4.02260E-04-6.66859E-02 8.76679E-14 4.88631E-15
 -1      1973 1.97966E+01-4.40883E-03-2.37318E-04-6.95428E-02 7.90156E-14 3.89544E-14
 -1      1974 1.98186E+01-7.19032E-03-2.06686E-04-8.87531E-02 1.04232E-13 2.01951E-14
 -1      1975 1.98851E+01-9.10374E-04 4.31323E-04-6.28197E-02-3.01776E-14 6.71973E-14
 -1      1976 1.98544E+01-2.10902E-03-1.22089E-04-6.40374E-02 2.68110E-14 1.54493E-14
 -1      1977 1.98707E+01-3.95945E-03-2.05465E-04-8.17411E-02 6.45133E-14-3.28592E-14
 -1      1978 1.99410E+01 1.95739E-03 5.08779E-04-6.36847E-02 9.24323E-16 9.76949E-15
 -1      1979 1.99105E+01 6.54323E-04 2.74021E-05-6.28480E-02 8.18371E-15 7.60547E-14
 -1      1980 1.99221E+01-1.17861E-04-2.44601E-04-7.99204E-02 2.99366E-15 1.14936E-14
 -1      1981 2.00013E+01 5.29046E-03 6.34865E-04-7.00951E-02 7.38311E-14-3.16644E-14
 -1      1982 1.99686E+01 3.88707E-03 2.05809E-04-6.67859E-02 1.59437E-14-3.58588E-14
 -1      1983 1.99758E+01 4.33542E-03-3.20480E-04-8.43443E-02 7.34587E-14 4.17093E-16
 -1      1984 2.00706E+01 9.12263E-03 8.09424E-04-8.28991E-02 2.10474E-14-6.28091E-14
 -1      1985 2.00331E+01 7.62003E-03 4.09562E-04-7.66743E-02 8.35314E-14-3.53729E-14
 -1      1986 2.00355E+01 9.43945E-03-4.31328E-04-9.60587E-02 9.39249E-14-5.34532E-14
 -1      1987 2.01543E+01 1.34719E-02 1.02994E-03-1.02979E-01-1.19956E-14-8.49595E-14
 -1      1988 2.01088E+01 1.18821E-02 6.34866E-04-9.33687E-02-2.22657E-14-8.35432E-14
 -1      1989 2.01055E+01 1.52348E-02-5.76370E-04-1.16134E-01 1.15693E-14-1.21018E-13
 -1      1990 2.02584E+01 1.82992E-02 1.28841E-03-1.31185E-01-2.39382E-14-8.37575E-14
 -1      1991 2.02015E+01 1.66638E-02 8.75323E-04-1.17722E-01-2.00372E-14-3.38696E-14
 -1      1992 2.01908E+01 2.17146E-02-7.54942E-04-1.45632E-01-5.47518E-14-9.40466E-14
 -1      1993 2.03894E+01 2.34477E-02 1.56660E-03-1.68190E-01-3.24544E-14-4.04268E-14
 -1      1994 2.03174E+01 2.18648E-02 1.11891E-03-1.50474E-01-4.02247E-14-7.59235E-14
 -1      1995 2.02968E+01 2.87538E-02-9.65422E-04-1.85480E-01-4.56907E-14-5.32048E-14
 -1      1996 2.05539E+01 2.85504E-02 1.82917E-03-2.14200E-01 1.43910E-13-6.22263E-14
 -1      1997 2.04631E+01 2.72139E-02 1.34411E-03-1.92035E-01 7.66649E-14-1.40677E-14
 -1      1998 2.04292E+01 3.60042E-02-1.20385E-03-2.36216E-01 5.74453E-14-6.41803E-14
 -1      1999 2.07581E+01 3.28962E-02 2.01459E-03-2.68487E-01 2.80672E-14-2.40170E-13
 -1      2000 2.06450E+01 3.21523E-02 1.51520E-03-2.42105E-01 1.11634E-13-1.32030E-13
 -1      2001 2.05936E+01 4.27375E-02-1.46201E-03-2.97548E-01 1.39919E-13-1.73678E-13
 -1      2002 2.10068E+01 3.52424E-02 2.02522E-03-3.28648E-01-1.03549E-13-4.17260E-13
 -1      2003 2.08689E+01 3.56650E-02 1.57740E-03-2.99071E-01-1.22038E-13-3.78890E-13
 -1      2004 2.07949E+01 4.76216E-02-1.72436E-03-3.67650E-01-5.94719E-14-2.87811E-13
 -1      2005 2.13015E+01 3.35862E-02 1.72115E-03-3.89518E-01-1.56986E-13-1.59407E-13
 -1      2006 2.11382E+01 3.60619E-02 1.45367E-03-3.59101E-01-1.45963E-13-2.93883E-13
 -1      2007 2.10365E+01 4.84281E-02-1.96274E-03-4.42107E-01-1.96318E-13-2.54062E-13
 -1      2008 2.16383E+01 2.49558E-02 9.28295E-04-4.41728E-01-3.71665E-16-4.90901E-14
 -1      2009 2.14526E+01 3.07419E-02 1.04750E-03-4.14897E-01-1.33965E-13-1.29187E-13
 -1      2010 2.13187E+01 4.17141E-02-2.12675E-03-5.12459E-01-1.46963E-13-1.83689E-13
 -1      2011 2.20044E+01 5.40911E-03-5.20042E-04-4.70060E-01 1.12219E-13 1.00904E-13
 -1      2012 2.18051E+01 1.60642E-02 2.58235E-04-4.54172E-01 1.81377E-13 5.96565E-14
 -1      2013 2.16367E+01 2.26419E-02-2.12719E-03-5.64413E-01 1.08821E-13-8.95594E-14
 -1      2014 2.23749E+01-2.93506E-02-2.68187E-03-4.52273E-01-1.29044E-13-4.59854E-14
 -1      2015 2.21784E+01-1.23654E-02-9.83344E-04-4.58284E-01-8.20186E-14 1.10589E-15
 -1      2016 2.19780E+01-1.46640E-02-1.81175E-03-5.76178E-01-1.05143E-14 1.05686E-13
 -1      2017 2.27084E+01-8.20333E-02-5.32930E-03-3.59914E-01 1.16910E-13 7.19910E-17
 -1      2018 2.25412E+01-5.84044E-02-2.65210E-03-4.02068E-01 1.55344E-15-1.70246E-14
 -1      2019 2.23196E+01-7.54554E-02-9.40075E-04-5.18064E-01 4.57360E-15 3.87312E-14
 -1      2020 2.29464E+01-1.49675E-01-7.74319E-03-1.63961E-01 1.74516E-13 2.19031E-14
 -1      2021 2.28447E+01-1.22240E-01-4.55851E-03-2.57054E-01 1.61208E-13 1.80862E-14
 -1      2022 2.26247E+01-1.60287E-01 8.06617E-04-3.55759E-01 1.92118E-13 1.37755E-13
 -1      2023 2.30166E+01-2.17328E-01-8.67231E-03 1.50947E-01-5.85391E-14 1.83972E-14
 -1      2024 2.30222E+01-1.94792E-01-6.30388E-03-1.28959E-03 2.57259E-14 1.73962E-14
 -1      2025 2.28414E+01-2.57766E-01 3.69037E-03-6.09551E-02 6.97897E-14 1.66960E-13
 -1      2026 2.28479E+01-2.52759E-01-6.79336E-03 5.61449E-01-6.02868E-14-9.59285E-14
 -1      2027 2.29964E+01-2.51006E-01-7.36247E-03 3.61123E-01-5.29065E-14 7.08157E-15
 -1      2028 2.29044E+01-3.35595E-01 7.55796E-03 3.66809E-01-3.93513E-14 1.59579E-14
 -1      2029 2.23993E+01-2.11641E-01-1.81701E-03 9.77727E-01-1.58660E-13 7.16788E-14
 -1      2030 2.27024E+01-2.48797E-01-6.76213E-03 7.73490E-01-1.35907E-13-2.55239E-14
 -1      2031 2.27494E+01-3.39851E-01 1.12342E-02 8.68374E-01-1.14845E-13 3.58654E-16
 -1      2032 2.17049E+01-6.43726E-02 3.35862E-03 1.24025E+00-3.40806E-14 2.54980E-13
 -1      2033 2.21278E+01-1.46891E-01-4.42798E-03 1.10981E+00-7.57814E-14 2.62510E-13
 -1      2034 2.23449E+01-2.13245E-01 1.25142E-02 1.30138E+00-1.42355E-13 2.55135E-13
 -1      2035 2.09097E+01 1.65228E-01 4.40312E-03 1.17306E+00 9.05213E-14 2.21793E-13
 -1      2036 2.13630E+01 6.02654E-02-8.26345E-05 1.20063E+00 5.15408E-14 3.18575E-13
 -1      2037 2.17401E+01 5.14753E-02 6.61561E-03 1.46172E+00 5.96207E-14 4.11476E-13
 -1      2038 2.02660E+01 3.74182E-01-3.50405E-04 7.04912E-01 5.94056E-14 2.20783E-13
 -1      2039 2.06182E+01 3.00509E-01 5.78785E-03 9.20263E-01 4.95992E-14 1.83614E-13
 -1      2040 2.11043E+01 3.75173E-01-3.45747E-03 1.17957E+00 9.28623E-14 4.48896E-13
 -1      2041 2.00269E+01 4.36799E-01-6.87230E-03-2.22643E-02-2.45512E-13 2.99438E-13
 -1      2042 2.01579E+01 4.43268E-01 1.09621E-02 3.08720E-01-8.90468E-14 3.18664E-13
 -1      2043 2.06854E+01 5.91084E-01-1.21992E-02 4.72476E-01-1.26333E-13 3.93147E-13
 -1      2044 2.02808E+01 3.14163E-01-8.26748E-03-7.02909E-01 1.93101E-14 4.75325E-13
 -1      2045 2.01490E+01 3.99113E-01 1.24552E-02-3.97224E-01-1.41113E-13 3.05105E-13
 -1      2046 2.06647E+01 5.72025E-01-1.16213E-02-3.91593E-01-1.95968E-13 5.53474E-13
 -1      2047 2.08844E+01 8.33790E-02-3.36541E-03-1.06201E+00-1.88759E-13 5.18216E-13
 -1      2048 2.05549E+01 1.97380E-01 8.75162E-03-9.01466E-01-7.85197E-14 4.44140E-13
 -1      2049 2.10191E+01 3.29378E-01-2.77053E-03-1.04344E+00-1.14173E-13 4.98451E-13
 -1      2050 2.15577E+01-1.29204E-01 3.26167E-03-1.01550E+00-1.13443E-13 7.06143E-13
 -1      2051 2.11668E+01-4.31867E-02 1.35512E-03-1.03186E+00-1.51161E-13 6.40862E-13
 -1      2052 2.15412E+01-1.30421E-03 4.72284E-03-1.24784E+00-2.21407E-13 4.71234E-13
 -1      2053 2.20509E+01-2.42699E-01 6.91782E-03-6.74438E-01-1.02748E-14 5.93984E-13
 -1      2054 2.17338E+01-2.10513E-01-5.90075E-03-8.16927E-01-7.65707E-14 6.37871E-13
 -1      2055 2.19878E+01-2.60873E-01 6.00201E-03-1.01795E+00-2.96447E-14 6.22288E-13
 -1      2056 2.22448E+01-2.53045E-01 6.77298E-03-2.25689E-01 6.03510E-15 3.96127E-13
 -1      2057 2.20815E+01-2.66302E-01-9.98506E-03-4.14805E-01-1.93838E-14 4.12293E-13
 -1      2058 2.22096E+01-3.71075E-01 3.40900E-03-5.39774E-01 2.09164E-14 5.86352E-13
 -1      2059 2.21435E+01-1.97915E-01 4.68105E-03 1.78899E-01 2.04218E-13 4.82869E-13
 -1      2060 2.21481E+01-2.34955E-01-1.03138E-02 6.85380E-03 1.27958E-13 4.57717E-13
 -1      2061 2.21765E+01-3.48204E-01 6.83002E-04-2.16994E-02 1.96312E-13 5.29302E-13
 -1      2062 2.18208E+01-1.16748E-01 2.58630E-03 4.59537E-01 1.74209E-13 3.81014E-13
 -1      2063 2.19614E+01-1.59622E-01-7.99006E-03 3.38549E-01 2.62347E-13 6.91320E-13
 -1      2064 2.19340E+01-2.49741E-01-7.52123E-04 3.95835E-01 2.65236E-13 6.09218E-13
 -1      2065 2.13748E+01-3.28410E-02 1.46305E-03 5.93260E-01 3.59393E-13 1.75487E-13
 -1      2066 2.15972E+01-7.26634E-02-4.51563E-03 5.34370E-01 2.32571E-13 2.29912E-13
 -1      2067 2.15572E+01-1.26184E-01-1.25389E-03 6.51215E-01 3.51711E-13 5.16210E-13
 -1      2068 2.09001E+01 4.61755E-02 1.11549E-03 5.84748E-01 2.28460E-13 2.82733E-13
 -1      2069 2.11465E+01 1.14164E-02-1.16275E-03 5.88446E-01 3.14271E-13 2.01616E-13
 -1      2070 2.11227E+01-3.79413E-03-1.51630E-03 7.34465E-01 3.15265E-13 3.70679E-13
 -1      2071 2.04798E+01 1.18680E-01 2.24732E-03 4.48276E-01 3.31962E-13 5.14462E-13
 -1      2072 2.06954E+01 8.75791E-02 8.94478E-04 5.12065E-01 2.98029E-13 4.58727E-13
 -1      2073 2.06969E+01 1.07681E-01-2.11736E-03 6.58592E-01 3.13272E-13 5.56650E-13
 -1      2074 2.02143E+01 1.65296E-01 4.52687E-03 2.79365E-01 1.09031E-13 4.64331E-13
 -1      2075 2.03718E+01 1.43915E-01 1.42654E-03 3.82813E-01 3.84308E-13 5.91413E-13
 -1      2076 2.03878E+01 1.89711E-01-3.03345E-03 5.06885E-01 3.78410E-13 1.00909E-12
 -1      2077 2.01963E+01 2.54129E-01 7.52421E-04 3.48519E-01 2.67911E-13 8.95124E-13
 -1      2078 2.00688E+01 1.45860E+00 1.04648E-03 9.41863E-01 2.71970E-13 7.71332E-14
 -1      2079 2.01088E+01 1.15954E+00 3.97342E-03 8.90901E-01 1.54015E-13 2.51882E-13
 -1      2080 2.01429E+01 9.50542E-01 3.48691E-03 8.03163E-01 2.89472E-13 4.22334E-13
 -1      2081 2.01750E+01 6.97827E-01 4.61827E-03 7.10512E-01 1.46816E-13 9.99097E-13
 -1      2082 2.01855E+01 9.14975E-01-3.55852E-03 1.06212E+00 3.44563E-14 2.98341E-13
 -1      2083 2.01798E+01 5.69106E-01 4.03594E-03 5.92989E-01 2.45996E-13 1.06934E-12
 -1      2084 2.02010E+01 3.76717E-01 4.63250E-03 4.74850E-01 2.57392E-13 9.16797E-13
 -1      2085 2.02851E+01 3.49423E-01 2.72266E-03 5.68606E-01 3.74657E-13 9.10107E-13
 -1      2086 2.02557E+01 5.89209E-01-1.07453E-03 8.32486E-01 9.57375E-14 9.78269E-13
 -1      2087 1.99761E+01 1.99810E+00-3.59433E-03 9.75887E-01 1.78881E-13-6.93303E-13
 -1      2088 2.00259E+01 1.69007E+00 1.94451E-03 9.75726E-01 2.25525E-13-2.37600E-13
 -1      2089 2.00677E+01 1.35411E+00-2.15202E-03 1.19930E+00 3.32822E-14-1.43971E-13
 -1      2090 1.98672E+01 2.52895E+00-8.58082E-03 8.79853E-01 1.16190E-13-1.61849E-13
 -1      2091 1.99241E+01 2.24140E+00-8.00626E-04 9.39916E-01 1.18166E-13-1.97083E-13
 -1      2092 1.99230E+01 1.83000E+00 6.70058E-04 1.19994E+00 1.35600E-13-4.49339E-13
 -1      2093 1.97630E+01 2.96460E+00-1.22922E-02 6.42469E-01-4.64039E-17 6.74053E-14
 -1      2094 1.98148E+01 2.74564E+00-4.34048E-03 7.63560E-01 1.08685E-13 2.07829E-14
 -1      2095 1.97632E+01 2.29147E+00 4.77742E-03 1.03146E+00 1.01717E-13-1.17048E-13
 -1      2096 1.96901E+01 3.22834E+00-1.36058E-02 2.85063E-01-2.05666E-13-3.74542E-13
 -1      2097 1.97224E+01 3.11526E+00-8.18929E-03 4.53300E-01-1.36712E-13-1.66659E-13
 -1      2098 1.96206E+01 2.66019E+00 9.09612E-03 6.89489E-01-1.54409E-13-1.29759E-13
 -1      2099 1.96714E+01 3.26473E+00-1.22943E-02-1.36598E-01-2.73405E-13-1.19914E-13
 -1      2100 1.96736E+01 3.27985E+00-1.14173E-02 5.07706E-02-1.31807E-13-3.42909E-13
 -1      2101 1.95330E+01 2.86287E+00 1.19399E-02 2.13029E-01-3.38333E-13-2.85352E-13
 -1      2102 1.97142E+01 3.05919E+00-8.99628E-03-5.45105E-01-3.08805E-13-3.73279E-13
 -1      2103 1.96852E+01 3.20340E+00-1.27619E-02-3.73449E-01-2.63055E-13-1.84223E-13
 -1      2104 1.95278E+01 2.85240E+00 1.20338E-02-3.17829E-01-2.65744E-13-2.92811E-13
 -1      2105 1.98059E+01 2.65360E+00-4.52748E-03-8.60496E-01 3.57422E-14-3.52982E-13
 -1      2106 1.97537E+01 2.89964E+00-1.16842E-02-7.37069E-01-5.51946E-14-2.00778E-13
 -1      2107 1.96089E+01 2.62917E+00 9.60986E-03-8.00251E-01 5.30631E-14-1.01112E-13
 -1      2108 1.99271E+01 2.10378E+00 4.21090E-05-1.04148E+00 5.93614E-14 4.99177E-13
 -1      2109 1.98628E+01 2.42165E+00-8.22249E-03-9.81681E-01 8.68355E-14-9.55312E-15
 -1      2110 1.97544E+01 2.23593E+00 5.20340E-03-1.15118E+00 1.64395E-13-2.16194E-13
 -1      2111 2.00557E+01 1.50337E+00 4.17315E-03-1.05936E+00 2.28147E-13 3.47552E-13
 -1      2112 1.99894E+01 1.84105E+00-3.59352E-03-1.07274E+00 1.36519E-13 3.81059E-13
 -1      2113 1.99367E+01 1.74029E+00 9.90135E-04-1.32033E+00 2.38957E-13 3.75253E-13
 -1      2114 2.01827E+01 9.26547E-01 3.98525E-03-9.20129E-01-1.32294E-13 4.19630E-15
 -1      2115 2.01125E+01 1.24358E+00-7.83762E-04-1.00198E+00-2.35185E-15-4.73612E-14
 -1      2116 2.01262E+01 1.22126E+00-1.87275E-03-1.28926E+00 9.19898E-14 2.49063E-14
 -1      2117 1.04188E+01-5.59460E+00-1.11135E-01 6.68129E+00 2.48357E-13 4.05675E-13
 -1      2118 6.61673E+00-7.14586E+00-3.80461E-01 5.30430E+00 3.25906E-13 1.96662E-13
 -1      2119 4.28209E-01-7.45649E+00-3.78073E-01 9.67192E-01 4.82975E-13-1.06248E-13
 -1      2120 5.09322E-01-7.22980E+00-3.31476E-01-7.75859E-01 3.27710E-13-3.44391E-13
 -1      2121 3.79126E+00-6.86616E+00-2.68505E-01 4.40440E+00 6.39488E-13 2.21989E-13
 -1      2122 1.65649E+00-7.84033E+00-4.42538E-01 2.94204E+00 6.65856E-13 1.21125E-13
 -1      2123 7.29845E+00-5.64669E+00-1.29495E-01 6.06699E+00 2.87326E-13-1.17739E-13
 -1      2124 1.89541E+01-3.31233E+00 1.02245E-02 7.07039E+00 2.28706E-13 9.24594E-13
 -1      2125 1.44818E+01-5.42044E+00-2.78821E-01 6.36377E+00 2.58238E-13 6.18783E-13
 -1      2126 2.75810E+01-5.57561E-01 1.61452E-01 6.16454E+00 3.71148E-13 3.59157E-13
 -1      2127 2.26622E+01-2.52085E+00-1.70441E-01 5.94507E+00 2.87326E-13 5.00822E-13
 -1      2128 1.95183E+01 4.01549E+00-2.70550E-02-1.70342E+00-1.65441E-13-3.71005E-13
 -1      2129 1.96464E+01 3.94541E+00-2.47439E-02-1.95473E+00-2.06985E-13-3.27214E-13
 -1      2130 1.99724E+01 3.24651E+00-1.36517E-02-1.91947E+00-2.34167E-13-2.80677E-13
 -1      2131 1.96976E+01 3.58506E+00-7.04839E-03-1.52167E+00-1.65429E-13-3.61650E-13
 -1      2132 3.94606E+01 6.07739E+00 4.52870E-01 1.83628E+00 8.93230E-13 1.56652E-13
 -1      2133 3.59563E+01 4.85056E+00 1.42032E-01 2.20501E+00 7.69107E-13 2.16882E-13
 -1      2134 3.97737E+01 7.36908E+00 2.56481E-01 9.57161E-02 5.41567E-13 1.74912E-13
 -1      2135 3.98644E+01 6.86255E+00 3.14005E-01 1.27656E+00 7.61002E-13 3.05617E-13
 -1      2136 3.54095E+01 7.09134E+00 2.71311E-01-1.53033E-01 6.94445E-13-1.73139E-13
 -1      2137 3.91483E+01 6.35045E+00 3.12227E-01-1.49772E+00 2.00950E-13 4.46310E-14
 -1      2138 3.96934E+01 7.04228E+00 2.51403E-01-2.05470E-01 2.94986E-13 1.83187E-13
 -1      2139 3.50024E+01 3.75630E+00 1.46169E-01-3.50270E+00 1.18378E-13 7.66054E-15
 -1      2140 3.85682E+01 4.90802E+00 3.49755E-01-2.59962E+00 1.71640E-13-3.46390E-14
 -1      2141 2.77064E+01 9.09531E-02-6.61125E-02-5.11571E+00 9.73666E-14-4.04121E-14
 -1      2142 3.27997E+01 1.91969E+00 2.97659E-01-4.91631E+00 7.89924E-14 1.18794E-14
 -1      2143 1.95293E+01-3.80258E+00-2.24864E-01-5.97336E+00 2.48024E-13-8.90954E-14
 -1      2144 2.46363E+01-1.73248E+00 1.30010E-01-6.33991E+00 2.23710E-13 4.96825E-14
 -1      2145 1.17234E+01-5.88640E+00-2.53184E-01-6.16551E+00-1.36169E-13-1.98563E-13
 -1      2146 1.60740E+01-4.10403E+00-3.55763E-03-6.90838E+00 6.48370E-14-8.58202E-14
 -1      2147 2.07171E+01-5.28683E+00-1.49324E-02-6.12330E+00-6.57807E-14-9.55347E-14
 -1      2148 4.29584E+00-6.73466E+00-3.03048E-01-4.36945E+00-2.46914E-13-4.75536E-13
 -1      2149 7.42152E+00-5.45460E+00-9.20199E-02-6.01731E+00-1.18294E-13-4.72844E-13
 -1      2150 8.33374E-02-8.03624E+00-4.88592E-01-1.09788E+00-1.94650E-13-3.03646E-14
 -1      2151 1.11909E+00-7.38530E+00-4.03854E-01-2.57204E+00-2.47802E-13-1.02363E-13
 -1      2152 1.03672E+00-7.41677E+00-3.87081E-01 2.21685E+00-1.16351E-13 6.79456E-14
 -1      2153 7.84014E-02-7.96236E+00-4.86953E-01 6.84201E-01-1.99118E-13-5.93969E-15
 -1      2154 6.45526E+00-5.99362E+00-1.95975E-01 5.38716E+00-4.14113E-14-3.26683E-14
 -1      2155 3.33849E+00-7.48007E+00-4.53799E-01 3.75549E+00-4.42424E-14 2.50910E-14
 -1      2156 1.45320E+01-4.66538E+00-9.35768E-02 6.65218E+00-1.24456E-13-2.31565E-13
 -1      2157 1.03624E+01-6.33547E+00-3.45051E-01 5.74679E+00-9.32032E-14-7.04575E-14
 -1      2158 2.34423E+01-2.18936E+00 7.47579E-02 6.39212E+00-2.47691E-13 2.04392E-13
 -1      2159 1.86095E+01-4.20580E+00-2.64266E-01 5.87776E+00-2.53686E-13 6.83342E-14
 -1      2160 3.16679E+01 7.35162E-01 2.10388E-01 4.64118E+00 5.55112E-14 6.25056E-14
 -1      2161 2.67371E+01-1.04178E+00-9.73355E-02 4.97179E+00-9.88098E-15 8.16014E-14
 -1      2162 3.83135E+01 4.31493E+00 4.06830E-01 2.68696E+00 8.09353E-14-2.70339E-14
 -1      2163 3.42176E+01 2.86142E+00 9.70257E-02 3.20513E+00 1.02460E-13 6.76126E-14
 -1      2164 4.10864E+01 6.61738E+00 3.70907E-01 5.90386E-01-8.17124E-14-2.21489E-14
 -1      2165 3.96149E+01 5.89339E+00 3.41913E-01 1.88499E+00 2.30926E-14 2.64233E-14
 -1      2166 3.97186E+01 7.20136E+00 2.32898E-01-8.46394E-01-5.54501E-13 2.54657E-13
 -1      2167 4.06250E+01 7.30445E+00 3.68111E-01 7.47835E-02-3.94074E-13 1.26288E-14
 -1      2168 3.69943E+01 4.92524E+00 1.44625E-01-2.09273E+00-8.01276E-13 1.58651E-13
 -1      2169 3.91179E+01 6.05974E+00 2.50041E-01-1.10200E+00-6.78346E-13 1.30729E-13
 -1      2170 3.16875E+01 1.21831E+00-8.99538E-03-3.87888E+00-3.85580E-13 1.67644E-13
 -1      2171 3.56217E+01 2.80070E+00 2.04733E-01-3.14178E+00-5.66137E-13-5.41234E-14
 -1      2172 2.42202E+01-2.25581E+00-1.76245E-01-5.57059E+00 1.21958E-13 5.23914E-13
 -1      2173 2.91982E+01-3.66897E-01 1.47853E-01-5.62959E+00-9.86988E-14 4.25771E-13
 -1      2174 1.54640E+01-5.23598E+00-3.26007E-01-6.19790E+00 4.24882E-13 5.54334E-13
 -1      2175 2.03908E+01-3.18384E+00 1.31834E-02-6.93342E+00 2.07834E-13 5.75651E-13
 -1      2176 7.92068E+00-6.89205E+00-3.26030E-01-5.68741E+00 4.90163E-13 8.09380E-13
 -1      2177 1.16026E+01-5.41768E+00-1.64612E-01-6.58142E+00 3.39284E-13 7.98889E-13
 -1      2178 1.63680E+01-5.97920E+00-6.80106E-02-6.87570E+00 6.85008E-13 4.03670E-13
 -1      2179 1.39497E+00-7.98367E+00-4.91026E-01-2.63429E+00 3.79585E-13-2.77556E-16
 -1      2180 3.73858E+00-6.92646E+00-3.49885E-01-4.37869E+00 4.26659E-13 5.37792E-13
 -1      2181 3.40703E+01 2.35250E+00 1.56252E-01 3.52895E+00 3.56756E-13 5.11036E-13
 -1      2182 3.03073E+01 9.44684E-01 5.21545E-02 4.73345E+00 4.19303E-13 5.61551E-13
 -1      2183 2.95779E+01-1.47779E+00 1.64286E-01 3.41061E+00 6.69464E-14 1.16407E-13
 -1      2184 2.07345E+01 1.10865E+00-2.06939E-02-1.61659E+00-2.49877E-13 8.00020E-14
 -1      2185 3.25938E+01 3.58351E+00-1.69137E-01-6.56927E-01 4.66349E-13-4.37289E-13
 -1      2186 3.41880E+01 3.04695E+00 1.33342E-01 1.50485E+00 4.57190E-13-3.41394E-14
 -1      2187 3.17503E+01 1.25139E+00 7.46668E-02 4.97263E-01 1.04430E-13-3.26350E-13
 -1      2188 2.06251E+01 1.33054E+00-1.85090E-02-1.67876E+00-2.67834E-13-5.28570E-14
 -1      2189 2.59571E+00-5.08184E+00-1.82292E-01 2.57210E+00 4.14113E-13 1.32228E-13
 -1      2190 1.46835E+01-6.00874E+00-9.52233E-02 7.00341E+00-5.01266E-14 4.11171E-13
 -1      2191 2.02420E+01 7.29859E-01 5.08991E-03-8.89777E-01-1.00529E-13 1.07383E-13
 -1      2192 2.31581E+00-5.15734E+00-1.73286E-01-2.14657E+00 1.26649E-13-1.22347E-13
 -1      2193 2.31706E+01-4.48424E+00 3.71553E-02 5.83746E+00-6.32827E-15 2.78444E-13
 -1      2194 7.33188E+00-6.26781E+00-1.73016E-01-5.64506E+00 4.61298E-13 7.26613E-13
 -1      2195 1.09332E+01-5.59397E+00-1.39030E-01-6.93019E+00 5.65326E-13 5.87475E-13
 -1      2196 7.18524E+00-4.75554E+00 8.99739E-02-5.71914E+00 3.43781E-13 4.82836E-13
 -1      2197 2.45578E+01-4.40259E+00 6.83668E-02-5.32058E+00 5.73541E-13 2.24654E-13
 -1      2198 3.09236E+01-1.08451E+00 1.76338E-01-2.43503E+00 3.12667E-14-8.03801E-14
 -1      2199 3.42508E+01 3.37544E+00 2.26397E-01-1.11365E-01-3.92159E-13-1.82743E-13
 -1      2200 3.57785E+01 7.13250E+00 2.51731E-01 2.11691E-01-5.79092E-13 2.26541E-13
 -1      2201 3.68250E+01 7.79891E+00 3.35869E-01-2.30794E-01-1.82798E-13 2.53103E-13
 -1      2202 3.62200E+01 5.20459E+00 3.33699E-01 6.45020E-02 9.87543E-14 1.24456E-13
 -1      2203 3.26745E+01 7.09285E-01 2.09238E-01 1.53999E+00 1.83548E-13 1.70974E-13
 -1      2204 2.67936E+01-3.31683E+00 7.19115E-02 4.22391E+00-2.20379E-14 1.80522E-13
 -1      2205 1.90587E+01-5.46917E+00-3.95811E-02 6.22451E+00-8.58758E-14 8.49321E-14
 -1      2206 1.04418E+01-5.85425E+00-9.70048E-02 6.32497E+00-8.10463E-15 4.66294E-15
 -1      2207 3.75715E+00-5.30301E+00-1.64250E-01 3.93039E+00-1.24067E-14 6.40044E-14
 -1      2208 1.10856E+00-5.44736E+00-2.64314E-01-2.50046E-01-1.81508E-13-6.07292E-14
 -1      2209 1.20677E+01-5.54418E+00-7.16015E-02-6.76182E+00-2.46303E-13-2.68979E-13
 -1      2210 2.76002E+01-2.66635E+00 8.93848E-02-3.88370E+00 6.70852E-14 1.06248E-13
 -1      2211 3.31777E+01 1.90949E+00 2.53920E-01-1.72553E+00 3.01981E-14 1.62093E-14
 -1      2212 3.60002E+01 7.95232E+00 2.72871E-01 2.05598E-01 4.72511E-13 1.35669E-13
 -1      2213 3.56149E+01 5.99073E+00 3.24854E-01-4.38825E-02 1.92291E-13 1.65701E-13
 -1      2214 4.44985E+00-4.75598E+00-7.65042E-02-4.52889E+00-1.67366E-13-3.24740E-13
 -1      2215 2.01462E+01 5.06326E-01 3.72937E-03 6.78934E-01 2.22093E-13 1.61624E-13
 -1      2216 2.04143E+01 6.99877E-01 2.07891E-02 9.70486E-01 2.43975E-13 1.98197E-13
 -1      2217 1.95615E+01 3.51577E+00-1.10984E-02-5.91902E-01-2.29899E-14-3.68210E-13
 -1      2218 1.95970E+01 3.46988E+00-1.04430E-02-7.76373E-01-6.47214E-14-3.73564E-13
 -1      2219 1.96433E+01 3.38182E+00-1.26718E-02-9.41027E-01-8.59134E-14-3.77146E-13
 -1      2220 1.97044E+01 3.30073E+00-1.25711E-02-1.13047E+00-1.15852E-13-3.81840E-13
 -1      2221 1.97884E+01 3.03289E+00 2.97385E-04-7.93056E-01-6.78551E-14-3.47585E-13
 -1      2222 1.95145E+01 3.59813E+00-9.62240E-03 9.95158E-02 9.57923E-14-3.71826E-13
 -1      2223 1.95138E+01 3.59897E+00-9.63334E-03-8.01242E-02 6.10088E-14-3.61873E-13
 -1      2224 1.95405E+01 3.55871E+00-9.72524E-03 4.45928E-01 1.34697E-13-3.51084E-13
 -1      2225 1.95231E+01 3.58128E+00-1.01425E-02 2.64930E-01 1.14607E-13-3.75487E-13
 -1      2226 1.96808E+01 3.22075E+00-9.02358E-04 1.69740E-01 9.83122E-14-3.56294E-13
 -1      2227 1.96020E+01 3.46221E+00-1.06140E-02 7.90242E-01 1.90233E-13-3.32295E-13
 -1      2228 1.95659E+01 3.50921E+00-1.12103E-02 6.08652E-01 1.51813E-13-3.47368E-13
 -1      2229 1.97174E+01 3.15724E+00-5.02931E-04 4.88563E-01 1.34296E-13-3.36116E-13
 -1      2230 1.97122E+01 3.28854E+00-1.29547E-02 1.14388E+00 2.52366E-13-2.59218E-13
 -1      2231 1.96498E+01 3.37185E+00-1.28751E-02 9.54487E-01 2.13216E-13-2.92853E-13
 -1      2232 1.97940E+01 3.02364E+00 2.68565E-04 8.04593E-01 2.02903E-13-2.93077E-13
 -1      2233 1.98908E+01 3.00308E+00-1.81723E-02 1.49112E+00 2.90742E-13-2.05370E-13
 -1      2234 1.97916E+01 3.14432E+00-1.51757E-02 1.30063E+00 2.61786E-13-2.44214E-13
 -1      2235 1.99227E+01 2.79861E+00 1.95864E-03 1.11112E+00 2.51779E-13-2.34172E-13
 -1      2236 2.01686E+01 2.54366E+00-2.84025E-02 1.79552E+00 3.21415E-13-8.69530E-14
 -1      2237 2.00177E+01 2.78298E+00-1.70888E-02 1.62103E+00 2.99956E-13-1.57263E-13
 -1      2238 2.01167E+01 2.44810E+00 5.84469E-03 1.37704E+00 2.84682E-13-1.67007E-13
 -1      2239 5.11435E+00-3.53042E+00 7.47888E-02 4.01819E+00 3.48499E-13 8.77631E-14
 -1      2240 3.73768E+00-2.94160E+00 9.77652E-02 1.63852E+00 2.65829E-13 1.72196E-13
 -1      2241 1.98687E+01 2.68113E-01 4.72271E-03 2.86513E-01 2.08013E-13 1.00372E-13
 -1      2242 2.00296E+01 3.67870E-01 2.01688E-02 4.43616E-01 2.15778E-13 1.49691E-13
 -1      2243 2.02092E+01 6.34466E-01-2.22632E-03 7.06020E-01 2.41977E-13 3.14566E-14
 -1      2244 2.03972E+01 8.56893E-01 1.28840E-02-1.00196E+00-2.08877E-13-1.11227E-13
 -1      2245 2.01857E+01 6.25493E-01-5.62567E-03-6.88412E-01-1.80382E-13-1.18813E-13
 -1      2246 2.01283E+01 4.69738E-01 1.78013E-02-4.80677E-01-1.55765E-13-9.65634E-14
 -1      2247 1.99810E+01 3.46936E-01 4.17359E-04-3.05569E-01-1.35413E-13-1.08305E-13
 -1      2248 2.02379E+01 7.24706E-01-9.78838E-03-6.91803E-01-1.64808E-13-1.51580E-13
 -1      2249 1.99185E+01 2.59525E-01 1.09793E-02-1.67383E-01-1.17960E-13-8.70869E-14
 -1      2250 1.98392E+01 1.87895E-01 7.49467E-04-7.02231E-02-8.83481E-14-1.09610E-13
 -1      2251 2.00766E+01 4.17435E-01-4.07943E-03-3.11198E-01-1.29733E-13-1.42611E-13
 -1      2252 1.97947E+01 1.38298E-01 6.43831E-03 1.16766E-02-8.81705E-14-9.82442E-14
 -1      2253 1.97595E+01 9.59789E-02 7.59942E-04 6.48893E-02-9.36145E-14-8.96203E-14
 -1      2254 1.99581E+01 2.26919E-01-3.57837E-03-7.29340E-02-9.66016E-14-1.36244E-13
 -1      2255 1.97335E+01 6.61682E-02 3.59829E-03 1.10532E-01-7.29942E-14-9.94373E-14
 -1      2256 1.97260E+01 4.07829E-02 6.42030E-04 1.37094E-01-3.71255E-14-1.19830E-13
 -1      2257 1.98822E+01 1.14581E-01-2.91281E-03 6.74927E-02-9.98442E-14-1.41927E-13
 -1      2258 1.97143E+01 2.26957E-02 1.86727E-03 1.59445E-01-7.02359E-14-1.38196E-13
 -1      2259 1.97234E+01 7.66911E-03 5.25313E-04 1.69712E-01-8.28949E-14-1.66773E-13
 -1      2260 1.98425E+01 4.68619E-02-2.13012E-03 1.43799E-01-7.76633E-14-1.77577E-13
 -1      2261 1.97216E+01-2.98898E-03 8.03544E-04 1.77406E-01-7.12075E-14-1.75181E-13
 -1      2262 1.97399E+01-1.13312E-02 4.27565E-04 1.77953E-01-9.12288E-14-1.70864E-13
 -1      2263 1.98286E+01 6.35984E-03-1.46028E-03 1.78875E-01-9.05320E-14-1.91256E-13
 -1      2264 1.97444E+01-1.70706E-02 1.55536E-04 1.76896E-01-1.11418E-13-1.57051E-13
 -1      2265 1.97671E+01-2.09632E-02 3.59789E-04 1.72059E-01-1.06874E-13-1.40918E-13
 -1      2266 1.98317E+01-1.65725E-02-9.55943E-04 1.88349E-01-1.00034E-13-1.81170E-13
 -1      2267 1.97753E+01-2.33569E-02-2.24337E-04 1.66320E-01-9.35399E-14-1.37025E-13
 -1      2268 1.97995E+01-2.42195E-02 3.28730E-04 1.59040E-01-1.12204E-13-1.35976E-13
 -1      2269 1.98452E+01-2.77958E-02-6.04930E-04 1.82976E-01-1.15442E-13-1.52338E-13
 -1      2270 1.98098E+01-2.42860E-02-4.27668E-04 1.51457E-01-1.09528E-13-1.22947E-13
 -1      2271 1.98340E+01-2.30330E-02 3.37568E-04 1.43777E-01-5.45843E-14-1.09171E-13
 -1      2272 1.98648E+01-3.10221E-02-3.77809E-04 1.70227E-01-1.00554E-13-1.31355E-13
 -1      2273 1.98454E+01-2.14311E-02-5.15060E-04 1.36370E-01-7.05529E-14-1.46752E-13
 -1      2274 1.98690E+01-1.86369E-02 3.88273E-04 1.29752E-01-4.53407E-14-1.48315E-13
 -1      2275 1.98877E+01-2.86429E-02-2.46300E-04 1.55370E-01-9.15096E-14-1.15269E-13
 -1      2276 1.98811E+01-1.57741E-02-5.28126E-04 1.24002E-01-1.12128E-14-1.74464E-13
 -1      2277 1.99042E+01-1.17697E-02 4.83398E-04 1.19547E-01-3.17660E-14-1.47074E-13
 -1      2278 1.99124E+01-2.21701E-02-1.87662E-04 1.42208E-01-5.06995E-14-1.64470E-13
 -1      2279 1.99169E+01-7.86843E-03-4.95881E-04 1.16608E-01-1.06840E-13-9.83436E-14
 -1      2280 1.99402E+01-2.80341E-03 6.26792E-04 1.15211E-01-1.32373E-13-1.12118E-13
 -1      2281 1.99384E+01-1.24896E-02-1.84647E-04 1.33606E-01-6.42280E-14-1.19927E-13
 -1      2282 1.99539E+01 2.05337E-03-4.38680E-04 1.16062E-01-9.79353E-14-1.03323E-13
 -1      2283 1.99784E+01 8.16678E-03 8.23595E-04 1.18535E-01-4.77016E-14-6.79528E-14
 -1      2284 1.99661E+01-2.46048E-05-2.24404E-04 1.31873E-01-9.57040E-14-2.40424E-14
 -1      2285 1.99936E+01 1.40004E-02-3.70875E-04 1.24093E-01-7.94015E-14-9.42534E-14
 -1      2286 2.00209E+01 2.12508E-02 1.07975E-03 1.31245E-01-6.02881E-14-9.80425E-14
 -1      2287 1.99964E+01 1.51488E-02-2.97186E-04 1.39050E-01-9.26126E-14-6.67726E-14
 -1      2288 2.00383E+01 2.81554E-02-3.02715E-04 1.42449E-01-3.66219E-14-1.36741E-13
 -1      2289 2.00701E+01 3.66978E-02 1.40103E-03 1.55147E-01-3.35509E-15-1.92416E-13
 -1      2290 2.00305E+01 3.32067E-02-3.95077E-04 1.57119E-01-7.67027E-14-1.38758E-13
 -1      2291 2.00907E+01 4.48065E-02-2.41644E-04 1.73005E-01-4.88461E-14-2.37985E-13
 -1      2292 2.01292E+01 5.48202E-02 1.79138E-03 1.92204E-01-8.32198E-14-2.93472E-13
 -1      2293 2.00704E+01 5.44849E-02-5.10869E-04 1.88137E-01-6.59392E-14-2.10273E-13
 -1      2294 2.01540E+01 6.42606E-02-1.93015E-04 2.17808E-01-9.63947E-14-3.30671E-13
 -1      2295 2.02017E+01 7.58907E-02 2.25014E-03 2.44539E-01-1.10810E-13-3.25709E-13
 -1      2296 2.01180E+01 7.93693E-02-6.37154E-04 2.34303E-01-1.30184E-13-2.32696E-13
 -1      2297 2.02318E+01 8.67171E-02-1.59981E-04 2.79034E-01-7.94123E-14-3.66595E-13
 -1      2298 2.02913E+01 9.99798E-02 2.76756E-03 3.14339E-01-4.74945E-14-3.96088E-13
 -1      2299 2.01756E+01 1.08140E-01-7.65927E-04 2.97940E-01-1.18757E-13-2.32943E-13
 -1      2300 2.03281E+01 1.12063E-01-1.42096E-04 3.58823E-01-1.08213E-14-3.30957E-13
 -1      2301 2.04023E+01 1.26689E-01 3.31771E-03 4.03604E-01-2.74032E-14-2.77400E-13
 -1      2302 2.02458E+01 1.40725E-01-8.89335E-04 3.81353E-01-7.39697E-17-2.30230E-13
 -1      2303 2.04471E+01 1.39531E-01-1.31681E-04 4.58930E-01-2.38894E-14-2.84017E-13
 -1      2304 2.05390E+01 1.54700E-01 3.84780E-03 5.13656E-01 2.65739E-14-2.38843E-13
 -1      2305 2.03313E+01 1.76297E-01-1.00280E-03 4.86519E-01-5.31969E-15-1.75182E-13
 -1      2306 2.05934E+01 1.67128E-01-1.06478E-04 5.80071E-01 5.08296E-14-2.16322E-13
 -1      2307 2.07058E+01 1.81043E-01 4.26273E-03 6.44266E-01 1.42749E-13-2.10755E-13
 -1      2308 2.04349E+01 2.12599E-01-1.11260E-03 6.14516E-01 3.72306E-14-1.48642E-13
 -1      2309 2.07718E+01 1.90720E-01-1.66019E-05 7.20815E-01 1.13410E-13-2.77630E-13
 -1      2310 2.09069E+01 1.99941E-01 4.40483E-03 7.92208E-01 6.41385E-14-2.77448E-13
 -1      2311 2.05600E+01 2.44870E-01-1.25095E-03 7.64569E-01 1.03106E-13-2.32553E-13
 -1      2312 2.09877E+01 2.02641E-01 2.35932E-04 8.75781E-01 6.25146E-14-2.68486E-13
 -1      2313 2.11467E+01 2.01151E-01 4.03071E-03 9.48991E-01 9.71967E-14-2.67553E-13
 -1      2314 2.07108E+01 2.64208E-01-1.50189E-03 9.32517E-01 4.11243E-14-2.47156E-13
 -1      2315 2.12475E+01 1.89817E-01 8.23612E-04 1.03286E+00 1.16710E-13-3.26222E-13
 -1      2316 2.14305E+01 1.67942E-01 2.79230E-03 1.09753E+00 9.81382E-14-3.00699E-13
 -1      2317 2.08940E+01 2.55314E-01-2.03791E-03 1.10849E+00 7.67881E-14-3.22556E-13
 -1      2318 2.15602E+01 1.31806E-01 2.01387E-03 1.16924E+00 9.54532E-14-3.01903E-13
 -1      2319 2.17651E+01 7.55719E-02 2.40562E-04 1.20770E+00 3.20604E-14-2.88401E-13
 -1      2320 2.11209E+01 1.94003E-01-3.15323E-03 1.27352E+00 1.06022E-13-3.53888E-13
 -1      2321 2.19389E+01 2.84769E-04 4.14227E-03 1.24624E+00-1.73330E-14-1.63718E-13
 -1      2322 2.21606E+01-1.07170E-01-4.11697E-03 1.23153E+00-1.12790E-14-9.58369E-14
 -1      2323 2.14114E+01 4.59891E-02-5.24170E-03 1.39490E+00 9.37016E-14-2.23649E-13
 -1      2324 2.24003E+01-2.36132E-01 7.41240E-03 1.20420E+00-4.85573E-14-9.43954E-14
 -1      2325 2.26287E+01-4.07553E-01-1.06421E-02 1.10026E+00-6.73064E-14-1.39630E-14
 -1      2326 2.17974E+01-2.28958E-01-8.60826E-03 1.42048E+00-9.79121E-15 6.99868E-14
 -1      2327 2.29592E+01-5.93829E-01 1.12777E-02 9.60834E-01-6.46260E-14 3.49686E-14
 -1      2328 2.31745E+01-8.18741E-01-1.87200E-02 7.29399E-01-1.01733E-14 1.45485E-13
 -1      2329 2.23229E+01-6.58936E-01-1.29440E-02 1.27317E+00-4.06849E-14 1.83302E-13
 -1      2330 2.36033E+01-1.03074E+00 1.32758E-02 4.26092E-01-5.55450E-14 1.03739E-13
 -1      2331 2.37698E+01-1.24334E+00-2.56273E-02 4.88281E-02-1.05785E-13 1.81887E-13
 -1      2332 2.30262E+01-1.21104E+00-1.59439E-02 8.52609E-01-7.78123E-14 3.56020E-13
 -1      2333 2.42491E+01-1.38258E+00 7.98742E-03-4.43839E-01-1.38418E-13 1.41026E-13
 -1      2334 2.43149E+01-1.43019E+00-2.42685E-02-9.23198E-01-1.14884E-13 1.18064E-13
 -1      2335 2.38898E+01-1.71453E+00-1.38396E-02 6.94785E-02-1.56286E-13 7.63250E-14
 -1      2336 2.46994E+01-1.32038E+00-1.00164E-02-1.52889E+00-7.67372E-14 2.15166E-13
 -1      2337 2.46172E+01-1.00086E+00-8.13689E-03-1.95006E+00 6.98922E-14 1.81987E-13
 -1      2338 2.47630E+01-1.79663E+00-4.21174E-03-1.06069E+00-9.32278E-14 3.31179E-13
 -1      2339 2.46911E+01-4.82487E-01-4.46888E-02-2.38687E+00 2.68509E-14 1.25103E-13
 -1      2340 2.44784E+01 2.51149E-01 1.03796E-02-2.46887E+00 2.70652E-14 6.51597E-14
 -1      2341 2.53153E+01-9.57162E-01 5.70878E-03-2.21087E+00-4.09638E-14 2.78451E-13
 -1      2342 2.42070E+01 1.04871E+00-6.93624E-02-2.31848E+00 4.39648E-14-2.64487E-14
 -1      2343 2.39871E+01 1.81973E+00 6.20218E-03-1.85097E+00-6.90767E-15-5.03768E-14
 -1      2344 2.52541E+01 8.49925E-01-1.23630E-02-2.63585E+00 2.89907E-14 6.60583E-14
 -1      2345 2.37139E+01 2.35601E+00-5.09953E-02-9.92881E-01-7.26016E-14-1.40326E-13
 -1      2346 2.36489E+01 2.53109E+00-3.10916E-02-1.42888E-01-3.78933E-14-1.51259E-13
 -1      2347 2.48170E+01 2.70436E+00-4.92536E-02-1.62748E+00-7.82777E-14-1.08712E-13
 -1      2348 2.37382E+01 2.30227E+00-7.88363E-03 8.76655E-01 5.16739E-14-2.46214E-13
 -1      2349 2.38601E+01 1.72901E+00-6.43265E-02 1.56640E+00 4.40308E-14-3.30346E-13
 -1      2350 2.46520E+01 3.09041E+00-7.21379E-02 4.21242E-01-6.15202E-14-2.02498E-13
 -1      2351 2.41540E+01 9.54196E-01 1.40644E-02 2.04528E+00 1.22697E-13-4.55487E-13
 -1      2352 2.43369E+01 1.27875E-01-5.90587E-02 2.19334E+00 6.89674E-14-3.26076E-13
 -1      2353 2.49825E+01 1.71820E+00-3.47447E-02 2.02054E+00 5.26697E-14-3.03403E-13
 -1      2354 2.44042E+01-5.64821E-01 4.14090E-04 1.96163E+00 9.16680E-14-2.32549E-13
 -1      2355 2.44892E+01-1.09071E+00-2.98107E-02 1.64274E+00 1.13331E-13-1.39912E-13
 -1      2356 2.52215E+01-2.86213E-01-7.53457E-04 2.17508E+00 9.95367E-14-3.56749E-13
 -1      2357 2.42013E+01-1.37306E+00-1.77515E-02 1.05389E+00 2.75977E-14 9.64214E-15
 -1      2358 2.41297E+01-1.47226E+00-1.62657E-03 5.57275E-01 1.15498E-14-1.68398E-15
 -1      2359 2.48726E+01-1.59511E+00 5.17629E-03 1.22217E+00 1.48414E-13-6.00379E-14
 -1      2360 2.36482E+01-1.41581E+00-2.41536E-02-1.65322E-02 4.66059E-14-5.65704E-15
 -1      2361 2.34523E+01-1.25429E+00 1.04789E-02-4.65390E-01 1.17883E-13 3.21457E-14
 -1      2362 2.40374E+01-1.87424E+00-4.37849E-03-8.12208E-03 8.13184E-14 2.52653E-13
 -1      2363 2.29644E+01-1.04832E+00-2.08492E-02-8.63994E-01 1.59346E-13-1.91594E-14
 -1      2364 2.27007E+01-8.07376E-01 1.19249E-02-1.16918E+00 2.34043E-13-9.30035E-14
 -1      2365 2.30783E+01-1.49635E+00-1.21400E-02-9.85017E-01 1.03192E-13 4.32540E-14
 -1      2366 2.22963E+01-5.84838E-01-1.36297E-02-1.37802E+00 2.51157E-13-9.65244E-15
 -1      2367 2.20113E+01-3.62926E-01 1.01289E-02-1.52988E+00 8.85652E-14 1.51433E-13
 -1      2368 2.22335E+01-9.04671E-01-1.24979E-02-1.57219E+00 2.72287E-13-1.10368E-13
 -1      2369 2.17013E+01-1.76970E-01-7.03824E-03-1.58700E+00 2.99964E-14 2.58407E-13
 -1      2370 2.14237E+01 5.08056E-04 8.21899E-03-1.60979E+00 2.19773E-14 2.89643E-13
 -1      2371 2.15711E+01-3.49728E-01-9.12146E-03-1.81547E+00 1.22090E-13-2.01353E-13
 -1      2372 2.11863E+01 1.49659E-01-2.10131E-03-1.55402E+00-3.24005E-14 3.12441E-13
 -1      2373 2.09363E+01 2.87021E-01 6.63289E-03-1.47170E+00-7.78501E-15 2.52181E-13
 -1      2374 2.10673E+01 1.00720E-01-5.49388E-03-1.79802E+00 2.88167E-14-6.85378E-16
 -1      2375 9.65822E+00-4.42937E+00 5.16720E-02 6.42328E+00 1.39555E-13-3.25712E-13
 -1      2376 6.96427E+00-4.16814E+00 6.84314E-02 5.24664E+00 3.68650E-13-3.38590E-13
 -1      2377 7.61835E+00-2.71807E+00 1.60005E-01 4.43505E+00 1.13146E-13-1.51212E-13
 -1      2378 1.96205E+01 7.25005E-02 2.07069E-03-6.47724E-02 1.26770E-13-8.21419E-15
 -1      2379 1.96481E+01 1.04174E-01 6.91141E-03-1.86547E-02 1.46985E-13 5.94239E-14
 -1      2380 1.95967E+01 3.08150E-02 1.34639E-03-1.30524E-01 1.01598E-13-7.23710E-14
 -1      2381 1.95938E+01 4.96394E-02 3.68598E-03-1.07976E-01 1.01288E-13-4.31748E-14
 -1      2382 1.97659E+01 8.98170E-02-3.18634E-03-7.00323E-02 1.50753E-13-4.14506E-14
 -1      2383 1.96086E+01 6.04187E-03 8.93848E-04-1.59268E-01 1.32882E-13-7.23634E-14
 -1      2384 1.95887E+01 1.71411E-02 1.82454E-03-1.50875E-01 1.10164E-13-8.58226E-14
 -1      2385 1.97317E+01 3.61092E-02-2.30071E-03-1.42577E-01 1.14636E-13-8.57654E-14
 -1      2386 1.96410E+01-8.15288E-03 5.93127E-04-1.65612E-01 6.76852E-14-3.99720E-14
 -1      2387 1.96126E+01-1.95531E-03 7.31635E-04-1.65588E-01 1.03813E-13-3.95172E-14
 -1      2388 1.97285E+01 4.41039E-03-1.53940E-03-1.74884E-01 8.15042E-14-6.42793E-14
 -1      2389 1.96838E+01-1.54254E-02 3.98124E-04-1.59080E-01-2.22943E-14-3.54979E-14
 -1      2390 1.96520E+01-1.24574E-02 8.64469E-05-1.63677E-01 4.74143E-14-1.83143E-14
 -1      2391 1.97443E+01-1.34502E-02-9.75826E-04-1.82604E-01 4.68656E-14-2.40441E-14
 -1      2392 1.97304E+01-1.80356E-02 2.87134E-04-1.46061E-01-2.05777E-14-9.32651E-14
 -1      2393 1.96984E+01-1.72495E-02-2.78418E-04-1.52768E-01-4.58119E-14-9.04041E-14
 -1      2394 1.97708E+01-2.22403E-02-5.90021E-04-1.76175E-01 9.60370E-15-8.39220E-14
 -1      2395 1.97773E+01-1.74307E-02 2.46635E-04-1.30939E-01 5.44069E-14-1.11708E-13
 -1      2396 1.97467E+01-1.81543E-02-4.60565E-04-1.38030E-01 2.17316E-14-9.94195E-14
 -1      2397 1.98027E+01-2.49140E-02-3.44324E-04-1.62709E-01 2.52420E-14-1.79981E-13
 -1      2398 1.98229E+01-1.45382E-02 2.67497E-04-1.16795E-01 1.04881E-13-6.20168E-14
 -1      2399 1.97942E+01-1.63451E-02-5.21979E-04-1.23047E-01 8.06833E-14-6.20109E-14
 -1      2400 1.98366E+01-2.33569E-02-2.04886E-04-1.47144E-01 5.31064E-14-1.31623E-13
 -1      2401 1.98669E+01-9.92808E-03 3.44256E-04-1.05868E-01 9.83910E-14 1.31062E-14
 -1      2402 1.98398E+01-1.25631E-02-5.03920E-04-1.10378E-01 1.38884E-13-1.29324E-14
 -1      2403 1.98709E+01-1.87666E-02-1.45645E-04-1.32988E-01 8.89368E-14-5.58132E-14
 -1      2404 1.99103E+01-3.91522E-03 4.74545E-04-9.98873E-02 6.08695E-14-2.35411E-14
 -1      2405 1.98840E+01-7.24621E-03-4.34190E-04-1.01938E-01 1.02666E-13-3.72488E-15
 -1      2406 1.99055E+01-1.18679E-02-1.47583E-04-1.22832E-01 8.75264E-14-4.46967E-14
 -1      2407 1.99548E+01 3.36723E-03 6.58222E-04-1.00301E-01-2.09053E-16-1.75579E-14
 -1      2408 1.99280E+01-6.14418E-04-3.31424E-04-9.92670E-02 1.08375E-14-3.17178E-15
 -1      2409 1.99407E+01-3.04942E-03-1.97013E-04-1.18701E-01 5.22780E-14-1.99337E-14
 -1      2410 2.00030E+01 1.19064E-02 8.96029E-04-1.08437E-01 8.60324E-14-2.41881E-14
 -1      2411 1.99739E+01 7.26382E-03-2.07949E-04-1.03724E-01 3.53799E-14 3.45463E-15
 -1      2412 1.99779E+01 7.53505E-03-2.84220E-04-1.22316E-01 3.90608E-14-6.06273E-14
 -1      2413 2.00577E+01 2.17467E-02 1.18777E-03-1.25596E-01 7.12845E-14-4.10825E-15
 -1      2414 2.00245E+01 1.64109E-02-7.17887E-05-1.16607E-01 1.33471E-13 6.09205E-14
 -1      2415 2.00190E+01 1.98792E-02-4.02119E-04-1.35258E-01 7.33545E-14 3.77944E-14
 -1      2416 2.01227E+01 3.29161E-02 1.52975E-03-1.53078E-01-4.94173E-14-3.06910E-14
 -1      2417 2.00830E+01 2.68731E-02 7.17777E-05-1.39213E-01-1.04517E-15-9.02713E-15
 -1      2418 2.00663E+01 3.40317E-02-5.44986E-04-1.59063E-01 1.09902E-14 1.32197E-13
 -1      2419 2.02020E+01 4.53270E-02 1.91099E-03-1.92122E-01-7.10258E-14 3.19632E-14
 -1      2420 2.01532E+01 3.86368E-02 2.18995E-04-1.72816E-01-8.57447E-14-1.29289E-14
 -1      2421 2.01226E+01 4.99839E-02-7.07513E-04-1.95226E-01-7.68045E-14 7.20926E-14
 -1      2422 2.02999E+01 5.86366E-02 2.30785E-03-2.43727E-01-2.24319E-14 2.51928E-14
 -1      2423 2.02393E+01 5.15126E-02 3.66756E-04-2.18554E-01-3.34422E-15 2.46925E-14
 -1      2424 2.01910E+01 6.75188E-02-8.84173E-04-2.45104E-01-2.12564E-14 4.72826E-14
 -1      2425 2.04210E+01 7.20425E-02 2.67644E-03-3.08326E-01 1.40224E-13-1.66236E-13
 -1      2426 2.03459E+01 6.49679E-02 5.12173E-04-2.77178E-01 3.69976E-14-1.01878E-13
 -1      2427 2.02751E+01 8.59941E-02-1.06914E-03-3.09676E-01 7.77427E-14-1.18715E-13
 -1      2428 2.05697E+01 8.39878E-02 2.94271E-03-3.85224E-01 1.04825E-13-8.60245E-14
 -1      2429 2.04775E+01 7.78834E-02 6.52811E-04-3.48616E-01 1.69815E-13-9.69817E-14
 -1      2430 2.03783E+01 1.04030E-01-1.25721E-03-3.89122E-01 1.13259E-13-1.73259E-13
 -1      2431 2.07498E+01 9.17548E-02 2.99069E-03-4.71742E-01-1.37007E-13-9.29309E-14
 -1      2432 2.06387E+01 8.82067E-02 7.87988E-04-4.31268E-01 4.38412E-14-3.57070E-14
 -1      2433 2.05046E+01 1.19064E-01-1.44623E-03-4.82134E-01 2.81146E-14 2.19188E-14
 -1      2434 2.09639E+01 9.09550E-02 2.65183E-03-5.61964E-01-2.11689E-13-1.79434E-13
 -1      2435 2.08332E+01 9.24920E-02 9.21458E-04-5.20965E-01-2.28023E-13-1.61736E-13
 -1      2436 2.06574E+01 1.26759E-01-1.64113E-03-5.84892E-01-1.05985E-13-7.88074E-15
 -1      2437 2.12124E+01 7.50182E-02 1.70237E-03-6.45064E-01-5.18531E-14-2.57724E-13
 -1      2438 2.10637E+01 8.53676E-02 1.06506E-03-6.09487E-01-1.60830E-13-2.38357E-13
 -1      2439 2.08405E+01 1.20299E-01-1.85849E-03-6.89620E-01-9.41425E-14-2.47780E-13
 -1      2440 2.14925E+01 3.50014E-02-1.16285E-04-7.03330E-01 1.26569E-14-6.75342E-14
 -1      2441 2.13306E+01 5.91157E-02 1.24035E-03-6.82689E-01-2.33373E-14-2.72393E-13
 -1      2442 2.10572E+01 8.97944E-02-2.12664E-03-7.82696E-01-6.57170E-14-2.62726E-13
 -1      2443 2.17969E+01-3.95369E-02-3.02801E-03-7.10427E-01-2.68167E-14-1.41088E-13
 -1      2444 2.16312E+01 3.85917E-03 1.46962E-03-7.18470E-01 3.82325E-14-7.90581E-14
 -1      2445 2.13106E+01 2.23597E-02-2.46872E-03-8.42512E-01 1.88656E-14-2.76786E-13
 -1      2446 2.21116E+01-1.57194E-01-7.05628E-03-6.31239E-01 5.78075E-14-9.11918E-14
 -1      2447 2.19571E+01-9.06106E-02 1.73708E-03-6.85477E-01-6.31740E-14-3.20174E-14
 -1      2448 2.16028E+01-9.58823E-02-2.84590E-03-8.37680E-01-4.22996E-14-2.71645E-13
 -1      2449 2.24131E+01-3.16963E-01-1.17305E-02-4.26028E-01 8.76139E-14 1.37443E-13
 -1      2450 2.22916E+01-2.29622E-01 1.91232E-03-5.44538E-01 1.32062E-13 7.41885E-14
 -1      2451 2.19329E+01-2.73752E-01-3.02532E-03-7.27187E-01-1.26994E-14-1.30028E-13
 -1      2452 2.26651E+01-4.94789E-01-1.57182E-02-6.31524E-02 4.23758E-14 1.95449E-13
 -1      2453 2.26042E+01-4.03149E-01 1.58586E-03-2.56536E-01 1.50866E-13 2.32457E-13
 -1      2454 2.22919E+01-5.02357E-01-2.40290E-03-4.65700E-01 5.36756E-14 1.08680E-13
 -1      2455 2.28150E+01-6.26973E-01-1.65093E-02 4.55186E-01 8.11330E-15 6.06095E-14
 -1      2456 2.28436E+01-5.69975E-01-9.53886E-05 1.98125E-01-4.41379E-14 1.24007E-13
 -1      2457 2.26514E+01-7.35362E-01-4.56941E-05-1.91676E-02 3.14579E-14 2.09098E-13
 -1      2458 2.27974E+01-6.07596E-01-1.08151E-02 1.05237E+00-1.83166E-13 1.43900E-13
 -1      2459 2.29343E+01-6.43934E-01-4.21832E-03 7.82534E-01-8.12128E-14 1.17962E-13
 -1      2460 2.29488E+01-8.67772E-01 4.79295E-03 6.01893E-01-6.73862E-14 1.45808E-13
 -1      2461 2.25648E+01-3.35946E-01 2.53016E-03 1.54711E+00-1.81058E-13 3.22545E-13
 -1      2462 2.27999E+01-5.11336E-01-9.04091E-03 1.36067E+00-2.31697E-13 1.54565E-13
 -1      2463 2.30843E+01-7.57515E-01 1.00868E-02 1.28814E+00-2.03918E-13 3.05328E-13
 -1      2464 2.21254E+01 1.99822E-01 1.54578E-02 1.68187E+00 8.01702E-14 4.67571E-13
 -1      2465 2.24087E+01-9.91967E-02-1.52459E-02 1.69664E+00-5.49900E-14 3.82848E-13
 -1      2466 2.29673E+01-2.77278E-01 1.40725E-02 1.81005E+00-1.71646E-13 3.33898E-13
 -1      2467 2.16284E+01 8.01351E-01 2.06908E-02 1.25341E+00-5.73387E-14 5.64027E-13
 -1      2468 2.18687E+01 5.09154E-01-1.31230E-02 1.52729E+00 7.86324E-14 5.59440E-13
 -1      2469 2.25885E+01 4.95304E-01 4.18761E-03 1.84071E+00-7.69653E-15 3.99753E-13
 -1      2470 2.13222E+01 1.12245E+00 9.65257E-03 3.25115E-01-2.08968E-13 5.66754E-13
 -1      2471 2.14244E+01 1.01938E+00-1.78225E-03 7.80817E-01-8.35148E-14 5.81373E-13
 -1      2472 2.21464E+01 1.24167E+00-9.86694E-03 1.18726E+00-5.83431E-14 5.96297E-13
 -1      2473 2.13894E+01 9.46476E-01-7.87076E-03-6.96766E-01-1.12058E-13 5.22466E-13
 -1      2474 2.13231E+01 1.09904E+00 1.28483E-02-2.62476E-01-2.33025E-13 6.40361E-13
 -1      2475 2.19485E+01 1.50692E+00-1.87985E-02 4.00428E-02-1.09670E-13 5.32499E-13
 -1      2476 2.17695E+01 3.91773E-01-1.66216E-02-1.34568E+00-7.60451E-14 4.73725E-13
 -1      2477 2.15798E+01 6.99786E-01 2.04928E-02-1.11959E+00 1.28127E-14 5.51282E-13
 -1      2478 2.21253E+01 1.12433E+00-1.02109E-02-1.05641E+00-4.62122E-14 4.37498E-13
 -1      2479 2.22024E+01-2.06696E-01-1.46384E-02-1.40507E+00-2.01066E-13 3.44089E-13
 -1      2480 2.19820E+01 7.94386E-02 1.36482E-02-1.43829E+00-2.29914E-13 2.97745E-13
 -1      2481 2.24987E+01 3.38118E-01 6.60213E-03-1.58332E+00-3.93964E-14 2.96254E-13
 -1      2482 2.24488E+01-5.79139E-01-8.27771E-03-9.86968E-01-8.11942E-14 4.85192E-13
 -1      2483 2.22899E+01-4.28657E-01-9.52744E-04-1.20254E+00-9.27158E-14 3.97267E-13
 -1      2484 2.27670E+01-4.16860E-01 1.40694E-02-1.43115E+00-1.85963E-13 1.40907E-13
 -1      2485 2.24288E+01-6.68608E-01-2.54044E-03-3.65777E-01 1.21588E-13 4.82580E-13
 -1      2486 2.23780E+01-6.56849E-01-1.24098E-02-6.44997E-01 6.99159E-14 5.23257E-13
 -1      2487 2.27582E+01-8.39042E-01 9.67777E-03-8.32199E-01-2.50217E-14 3.11942E-13
 -1      2488 2.21880E+01-5.59426E-01 1.17074E-03 2.22785E-01 1.50226E-13 6.18634E-13
 -1      2489 2.22471E+01-6.33835E-01-1.63349E-02-2.74512E-02 1.60298E-13 6.31320E-13
 -1      2490 2.24982E+01-8.95593E-01 2.82286E-03-1.14203E-01 6.33987E-14 3.45322E-13
 -1      2491 2.18138E+01-3.60582E-01 3.21038E-03 6.50984E-01 2.86879E-13 8.18627E-13
 -1      2492 2.19570E+01-4.68144E-01-1.44932E-02 4.77395E-01 1.77035E-13 8.42363E-13
 -1      2493 2.20933E+01-7.12821E-01-1.71320E-03 4.96933E-01 4.37337E-14 6.74516E-13
 -1      2494 2.13849E+01-1.44997E-01 4.54542E-03 8.79373E-01 4.51009E-13 7.26830E-13
 -1      2495 2.15766E+01-2.54502E-01-1.01576E-02 7.96170E-01 4.22202E-13 9.11602E-13
 -1      2496 2.16406E+01-4.30292E-01-3.54730E-03 9.01606E-01 3.20481E-13 1.02322E-12
 -1      2497 2.09579E+01 5.68694E-02 5.92073E-03 9.15538E-01 2.98195E-13 7.81717E-13
 -1      2498 2.11632E+01-4.42096E-02-5.77227E-03 9.18764E-01 4.06888E-13 8.10810E-13
 -1      2499 2.11988E+01-1.35729E-01-3.73464E-03 1.08335E+00 4.89916E-13 1.12450E-12
 -1      2500 2.05658E+01 2.33069E-01 5.77787E-03 7.82099E-01 2.39452E-13 8.52815E-13
 -1      2501 2.07590E+01 1.47412E-01-2.09648E-03 8.61240E-01 1.87080E-13 7.81322E-13
 -1      2502 2.07967E+01 1.39550E-01-2.30265E-03 1.06264E+00 2.70568E-13 8.65787E-13
 -1      2503 2.03946E+01 3.05755E-01 1.57977E-03 6.43715E-01 3.57190E-13 8.31456E-13
 -1      2504 1.98198E+01 1.65544E+00-8.75064E-03 1.36871E+00 1.07105E-13-3.86700E-13
 -1      2505 1.99512E+01 1.43626E+00 5.14482E-03 1.40952E+00 1.59762E-13-5.74595E-13
 -1      2506 1.95543E+01 2.06008E+00-1.27632E-02 1.13731E+00 3.44202E-15-1.01156E-13
 -1      2507 1.96903E+01 1.87080E+00 3.65488E-03 1.27343E+00 4.41719E-14-5.85565E-14
 -1      2508 1.96751E+01 1.47634E+00 2.36158E-04 1.50807E+00 6.89529E-14-2.95163E-13
 -1      2509 2.02550E+01 8.57910E-01 5.58475E-04 1.26316E+00 6.12620E-14 1.58220E-13
 -1      2510 2.03329E+01 6.58403E-01 4.85906E-03 1.16214E+00 8.47920E-14 3.98903E-13
 -1      2511 2.00642E+01 1.23735E+00-3.54872E-03 1.39632E+00-2.76910E-14-2.89556E-13
 -1      2512 2.01683E+01 1.02271E+00 5.43757E-03 1.35602E+00-8.30673E-14 1.77343E-13
 -1      2513 2.02824E+01 7.31996E-01-1.59572E-03 1.47247E+00 6.80312E-14 2.31984E-14
 -1      2514 2.00117E+01 1.08019E+00-9.49076E-04 1.58808E+00 1.48131E-14-2.69539E-13
 -1      2515 1.93286E+01 2.37718E+00-1.38753E-02 7.02031E-01-3.03961E-13-1.56865E-13
 -1      2516 1.94354E+01 2.24902E+00-7.09241E-05 9.26310E-01-1.75777E-13-2.13956E-13
 -1      2517 1.93369E+01 1.86355E+00 4.94314E-03 1.18782E+00-9.77833E-14-4.06217E-13
 -1      2518 1.92108E+01 2.53301E+00-1.14602E-02 1.18921E-01-3.22884E-13-3.39497E-13
 -1      2519 1.92546E+01 2.49113E+00-5.31049E-03 3.98040E-01-4.05703E-13-1.62240E-13
 -1      2520 1.90745E+01 2.15417E+00 9.79996E-03 6.39599E-01-2.50328E-13-2.02529E-13
 -1      2521 1.92415E+01 2.48366E+00-6.58802E-03-5.05291E-01-1.23636E-13-7.16402E-14
 -1      2522 1.92069E+01 2.53826E+00-1.03187E-02-2.23412E-01-2.74645E-13-1.23394E-13
 -1      2523 1.89675E+01 2.26792E+00 1.18009E-02-5.25542E-02-1.94836E-13-1.60955E-13
 -1      2524 1.94113E+01 2.24143E+00-8.25896E-04-1.03934E+00 3.34050E-13 1.89651E-13
 -1      2525 1.93090E+01 2.38009E+00-1.31309E-02-8.11963E-01 8.30535E-14 1.22438E-13
 -1      2526 1.90541E+01 2.17237E+00 1.03892E-02-7.47500E-01 1.09631E-13 1.36976E-13
 -1      2527 1.96786E+01 1.85100E+00 3.86927E-03-1.40296E+00 2.18066E-13-1.34294E-13
 -1      2528 1.95338E+01 2.05478E+00-1.25746E-02-1.26175E+00 2.75068E-13-2.71014E-13
 -1      2529 1.93087E+01 1.89331E+00 5.53087E-03-1.31155E+00 3.43236E-13 3.89118E-14
 -1      2530 1.99789E+01 1.39284E+00 6.27303E-03-1.53842E+00 2.91878E-13 5.17204E-13
 -1      2531 1.98243E+01 1.62881E+00-9.08389E-03-1.50355E+00 2.12300E-13 3.66528E-13
 -1      2532 1.96695E+01 1.50081E+00 3.21133E-05-1.65114E+00 2.40045E-13 1.35632E-13
 -1      2533 2.02673E+01 9.40133E-01 7.92185E-03-1.44948E+00-4.60118E-14-3.00324E-13
 -1      2534 2.01241E+01 1.17887E+00-3.36149E-03-1.51744E+00 1.69629E-13 6.30639E-14
 -1      2535 2.00587E+01 1.08590E+00-1.29616E-04-1.72975E+00 2.49757E-13 1.21752E-13
 -1      2536 2.04022E+01 6.56373E-01 9.26284E-04-1.09024E+00-1.42827E-13 1.41438E-13
 -1      2537 3.44102E+00-3.13853E+00 7.27701E-02-1.33941E+00-9.44383E-15-2.07001E-13
 -1      2538 4.55017E+00-3.76835E+00 4.33421E-02-3.69220E+00-9.02334E-14-7.21645E-16
 -1      2539 1.97019E+01 1.43187E-01 3.25807E-03 6.12349E-02 1.41721E-13 6.63020E-14
 -1      2540 1.97807E+01 1.98027E-01 1.23829E-02 1.47392E-01 1.69790E-13 9.90787E-14
 -1      2541 1.98471E+01 1.80795E-01-3.86088E-03 6.68378E-02 1.74586E-13 4.04299E-15
 -1      2542 1.83972E+01-5.72279E+00 2.87329E-03 6.98890E+00-2.09888E-13 2.72345E-13
 -1      2543 1.42716E+01-5.56867E+00 6.22113E-02 7.06278E+00-7.22755E-14 1.76095E-13
 -1      2544 2.05461E+01 1.95494E+00-1.38818E-02-1.89898E+00-2.58186E-13-1.53816E-13
 -1      2545 2.04123E+01 1.21525E+00-6.08834E-03-1.28753E+00-2.37572E-13-1.37248E-13
 -1      2546 2.03779E+01 1.37451E+00 5.44744E-03-1.23590E+00-2.15061E-13-1.86190E-13
 -1      2547 2.02877E+01 2.38480E+00-5.26891E-03-1.84434E+00-2.54781E-13-2.11296E-13
 -1      2548 2.31409E+01-5.52280E+00 1.03124E-02-5.19065E+00 7.77683E-13 2.18020E-13
 -1      2549 2.65146E+01-4.56430E+00-8.40710E-02-4.06972E+00 5.87141E-13 1.09079E-13
 -1      2550 2.62223E+01-4.09918E+00-8.80221E-03-3.24437E+00-6.11872E-14 1.91319E-13
 -1      2551 2.90442E+01-2.40586E+00-6.60496E-02-2.17574E+00-6.52811E-14 6.55587E-14
 -1      2552 1.95211E+01 3.58440E+00-1.00952E-02-2.45512E-01 4.17546E-14-3.60320E-13
 -1      2553 1.95370E+01 3.56372E+00-9.67129E-03-4.26369E-01 3.59733E-15-3.63045E-13
 -1      2554 1.97134E+01 3.16318E+00-5.81273E-04-4.73741E-01-1.32074E-14-3.37450E-13
 -1      2555 1.96793E+01 3.22293E+00-9.25236E-04-1.52200E-01 4.37274E-14-3.40423E-13
 -1      2556 3.24716E+01 4.14031E+00-7.21141E-02 9.17113E-01 2.00728E-13 1.72196E-13
 -1      2557 3.24431E+01 5.70189E+00-1.82460E-01 1.10572E+00 1.81355E-13 2.16938E-13
 -1      2558 3.23290E+01 6.77599E+00-1.44482E-01-5.68722E-01 5.72375E-13-2.11969E-13
 -1      2559 3.22141E+01 5.69909E+00-9.38479E-02-9.55791E-01 5.91249E-13-4.06952E-13
 -1      2560 4.12144E+00-3.33962E+00 9.66275E-02-3.01953E+00-1.29480E-13-2.22267E-13
 -1      2561 6.83075E+00-3.06924E+00 9.30141E-02-4.80147E+00-1.05471E-13-5.13783E-13
 -1      2562 3.24813E+01 7.30084E+00-1.10372E-01 6.40009E-01 2.59071E-13 9.60620E-14
 -1      2563 3.24823E+01 7.53902E+00-1.34629E-01 6.74438E-02 4.41203E-13 3.12250E-15
 -1      2564 3.03295E+01-4.32801E-01-8.88855E-02-7.19665E-01 1.06130E-14 3.94129E-14
 -1      2565 3.19975E+01 1.75687E+00-1.14464E-01 1.42608E-01 6.97081E-14 6.08402E-14
 -1      2566 2.92770E+01-1.87011E+00 2.23976E-02-1.79285E-01-3.61274E-14 9.82547E-15
 -1      2567 1.97863E+01-5.59122E+00 5.97451E-02-6.00230E+00-3.47111E-13 1.77844E-14
 -1      2568 2.29813E+01-5.29585E+00-6.99838E-02-5.32274E+00-1.55542E-13 1.59109E-13
 -1      2569 1.11183E+01-4.24093E+00 1.20151E-01-6.41473E+00-2.37282E-13-3.36176E-13
 -1      2570 1.53609E+01-5.20450E+00 1.92884E-02-6.99474E+00-2.63567E-13-1.28175E-13
 -1      2571 1.82968E+01-5.19997E+00 7.81244E-02-6.20016E+00-3.26794E-13 1.97550E-14
 -1      2572 3.22706E+00-2.92053E+00 1.07905E-01 1.26052E+00-1.74416E-13 6.26721E-14
 -1      2573 3.03880E+00-3.02870E+00 6.40482E-02-1.11794E+00-1.91146E-13 3.65818E-14
 -1      2574 5.45227E+00-1.65342E+00 1.64816E-01-1.69135E+00-1.25677E-13-1.08746E-13
 -1      2575 6.57119E+00-3.55902E+00 6.67248E-02 4.97882E+00-2.66454E-14 1.86628E-13
 -1      2576 4.31657E+00-3.33922E+00 7.30800E-02 3.02115E+00-1.68032E-13 1.32616E-13
 -1      2577 5.87488E+00-1.81496E+00 1.63510E-01 2.21091E+00-1.64320E-13 1.45994E-13
 -1      2578 1.41074E+01-5.39267E+00-5.27090E-03 6.89134E+00-2.00950E-14-4.35624E-14
 -1      2579 1.01651E+01-4.76945E+00 7.32283E-02 6.17481E+00 5.83422E-14 2.63123E-14
 -1      2580 2.21302E+01-5.43320E+00-2.89533E-02 5.54923E+00-1.00142E-13 2.23752E-13
 -1      2581 1.82468E+01-5.80082E+00 2.17320E-02 6.15128E+00-5.88973E-14-5.17641E-15
 -1      2582 2.77672E+01-3.67728E+00-1.21175E-01 2.94971E+00 6.81399E-15-1.38778E-15
 -1      2583 2.48999E+01-4.90228E+00-2.35182E-02 4.09238E+00-2.22100E-13 2.33175E-13
 -1      2584 2.41169E+01-5.48395E+00 7.60322E-02 4.24301E+00-1.87822E-13 2.36824E-13
 -1      2585 3.20691E+01 8.15170E-01-1.11362E-01-3.00161E-01 1.59109E-13 8.18789E-14
 -1      2586 3.02706E+01-1.35208E+00-1.59412E-02 5.47601E-01 9.51982E-14 1.37945E-13
 -1      2587 3.39213E+01 5.33349E+00-1.08744E-01-9.74012E-01 3.79141E-14 3.05145E-13
 -1      2588 3.30118E+01 3.65248E+00-7.02603E-02-8.83253E-01 1.50158E-13 2.61513E-13
 -1      2589 3.28374E+01 7.31902E+00-1.70833E-01-5.18391E-01-2.26263E-13 4.31676E-13
 -1      2590 3.36746E+01 6.65525E+00-4.53197E-02-9.54478E-01-1.99840E-15 3.71175E-13
 -1      2591 3.23518E+01 5.84334E+00-1.33044E-01 9.94165E-01-4.68292E-13 1.60372E-13
 -1      2592 3.27615E+01 7.03615E+00-1.28381E-01 3.82608E-01-3.76643E-13 3.32442E-13
 -1      2593 3.14547E+01 1.34797E+00-7.22445E-02 7.91880E-01-4.43534E-14-2.80942E-13
 -1      2594 3.21117E+01 3.44408E+00-1.73863E-01 1.12895E+00-2.90434E-13-4.03289E-14
 -1      2595 2.89329E+01-3.00723E+00-1.83192E-02-2.06358E+00 2.86708E-13-1.66422E-13
 -1      2596 3.06803E+01-1.27393E+00-1.61640E-01-7.67201E-01 6.57287E-14-4.16972E-13
 -1      2597 1.58141E+01-5.84285E+00 6.07962E-02-6.79513E+00 6.32716E-13 2.23831E-13
 -1      2598 1.94109E+01-5.83456E+00-4.62840E-02-6.68069E+00 7.05658E-13 7.66540E-14
 -1      2599 2.53263E+01-4.66020E+00-6.23254E-02 4.78749E+00-1.56292E-13-1.59428E-13
 -1      2600 2.19660E+01-5.51352E+00 5.43685E-03 5.71071E+00-1.96232E-13-4.77396E-14
 -1      2601 3.00064E+01-1.70100E+00-8.64939E-02 1.86993E+00-9.40359E-14-2.21323E-13
 -1      2602 2.79312E+01-3.30110E+00-9.36072E-03 2.83386E+00-1.51101E-13-1.81521E-13
 -1      2603 2.04887E+01 8.74859E-01-7.32131E-03 1.22765E+00 2.69503E-13 2.24371E-13
 -1      2604 2.08394E+01 1.25689E+00-6.05357E-03 1.72831E+00 2.74916E-13 2.71026E-13
 -1      2605 2.06455E+01 1.71557E+00-1.57921E-02 1.92253E+00 3.09500E-13 1.63043E-13
 -1      2606 2.04477E+01 1.05787E+00-9.39669E-03 1.24256E+00 2.79304E-13 8.31120E-14
 -1      2607 3.05049E+01 6.12024E+00-7.05580E-02 1.27994E+00 1.98452E-13 7.93393E-14
 -1      2608 1.99146E+01 2.81622E+00 3.12338E-03-1.10166E+00-1.27523E-13-3.31634E-13
 -1      2609 1.97809E+01 3.16007E+00-1.49520E-02-1.28633E+00-1.40192E-13-3.53598E-13
 -1      2610 1.98751E+01 3.03536E+00-1.82992E-02-1.48245E+00-1.89863E-13-3.20891E-13
 -1      2611 6.32127E+00-1.34035E+00 1.02344E-01 1.54282E+00 1.42535E-13 4.13253E-13
 -1      2612 4.74873E+00-2.20992E+00 1.58491E-01 1.83111E-01 6.61927E-14 2.57183E-13
 -1      2613 6.16095E+00-1.34649E+00 1.55115E-01-1.24976E+00-1.37668E-13 2.02893E-13
 -1      2614 1.61602E+01-4.85401E+00 5.78926E-02 6.65702E+00-2.15522E-13-1.13715E-13
 -1      2615 1.29442E+01-4.78120E+00 9.74240E-02 6.82712E+00 7.07490E-14-1.67200E-13
 -1      2616 1.19370E+01-3.54219E+00 1.30404E-01 6.28309E+00 2.11622E-13-4.33570E-13
 -1      2617 2.04214E+01 2.11567E+00-1.27771E-02 1.87558E+00 3.09474E-13 2.41179E-14
 -1      2618 3.09524E+01 4.13723E+00-6.32562E-02-1.18769E+00 3.59740E-13-6.44346E-13
 -1      2619 2.24025E+01-5.78861E+00 8.29565E-02-5.40848E+00 6.99218E-13 2.23446E-13
 -1      2620 3.02683E+01-7.82058E-01-6.78267E-02 1.67833E-02-9.42857E-14-6.23002E-13
 -1      2621 7.43862E+00-2.21274E+00 1.52371E-01-4.01930E+00 4.45199E-14-2.15133E-13
 -1      2622 7.00473E+00-3.64096E+00 1.11818E-01-4.79154E+00 1.79967E-13 2.07445E-13
 -1      2623 9.59952E+00-3.54908E+00 1.87175E-02-5.80363E+00 3.38396E-13 1.70003E-13
 -1      2624 2.04356E+01 1.80787E+00 1.25459E-02 1.56338E+00 2.92150E-13-1.35135E-14
 -1      2625 2.04426E+01 3.64870E-01 8.24223E-04 8.59950E-01 2.66646E-13 9.54535E-13
 -1      2626 2.01143E+01 2.62138E+00-1.12046E-02-1.68049E+00-2.29764E-13-2.62474E-13
 -1      2627 2.04196E+01 4.86909E-01 1.54792E-03 9.84401E-01 1.86456E-13 8.60115E-13
 -1      2628 2.06190E+01 4.63034E-01 8.44630E-03-1.23454E+00-2.05187E-13 1.15430E-13
 -1      2629 2.04034E+01 7.43979E-01-1.56741E-03-1.38590E+00-9.21528E-14-2.88446E-13
 -1      2630 2.04418E+01 6.89731E-01-1.00006E-03-1.61932E+00-1.25054E-13-2.12166E-13
 -1      2631 2.08141E+01 3.68814E-01 1.92659E-03-1.38011E+00-1.25837E-13 2.73256E-13
 -1      2632 2.69037E+01-4.44408E+00 3.63551E-02 3.09859E+00-2.82968E-13-3.41810E-13
 -1      2633 1.45867E+01-5.22908E+00 1.01436E-01-6.91529E+00 6.30773E-13 3.88162E-13
 -1      2634 1.99929E+01 3.40002E-01-3.57549E-03 3.05919E-01 2.13140E-13 4.20237E-16
 -1      2635 2.12522E+01-5.79189E+00 5.25899E-02 5.95887E+00-3.27793E-13-1.86358E-13
 -1      2636 2.77487E+01-4.24049E+00 2.85950E-02-2.32361E+00 4.72372E-13 4.81559E-14
 -1      2637 2.53922E+01-4.86888E+00 3.19930E-02-3.44592E+00-1.01627E-13 1.71793E-13
 -1      2638 3.01761E+01-4.64465E-01-4.43543E-02 7.85522E-01 1.37543E-13-1.98508E-13
 -1      2639 3.04289E+01 4.12223E+00-9.68897E-02 1.70270E+00-1.62870E-13-1.20182E-13
 -1      2640 3.07418E+01 6.74618E+00-8.27416E-02-6.67205E-03-2.27041E-13 3.48863E-13
 -1      2641 3.15692E+01 5.68790E+00-8.24483E-03-1.61290E+00-5.15421E-14 3.25823E-13
 -1      2642 2.89111E+01-2.97504E+00 3.48167E-02 8.67800E-01-7.31498E-14 8.49043E-14
 -1      2643 9.70190E+00-3.16006E+00 1.61132E-01-5.75813E+00-1.45162E-13-4.30489E-13
 -1      2644 1.25578E+01-3.27258E+00 8.30327E-02-5.90371E+00-1.58318E-13-1.68310E-13
 -1      2645 8.71428E+00-1.93739E+00 1.58284E-01-4.54986E+00-4.66849E-14-4.64295E-13
 -1      2646 3.01730E+01 6.82121E+00-8.61564E-02-4.86991E-01 3.73424E-13-1.33123E-13
 -1      2647 2.05080E+01 4.12505E-01-1.50901E-03 1.19055E+00 1.98226E-13 6.15226E-13
 -1      2648 3.05987E+01 2.25713E+00-2.33970E-02 1.48665E+00 1.69226E-13 6.78901E-14
 -1      2649 1.01945E+01-3.44326E+00 1.49689E-01 5.52776E+00-4.61298E-14 1.07053E-13
 -1      2650 1.77317E+01-5.35765E+00 1.10580E-01 6.20220E+00-1.74860E-14-7.07073E-14
 -1      2651 3.11743E+01 1.71761E+00-3.32182E-02-1.70929E+00 2.41890E-14 2.37282E-13
 -1      2652 2.07345E+01 4.04724E-01-3.49666E-03-1.63047E+00-9.18000E-14-1.20936E-13
 -1      2653 1.98471E+01 2.76429E+00-6.30336E-03 5.16828E-01 1.47122E-13-3.01827E-13
 -1      2654 1.98224E+01 2.81403E+00-5.70238E-03 3.65798E-01 1.19432E-13-3.15268E-13
 -1      2655 1.98056E+01 2.85154E+00-5.61758E-03 2.30081E-01 9.83211E-14-3.46654E-13
 -1      2656 1.97971E+01 2.86845E+00-5.43449E-03 7.52892E-02 7.63960E-14-3.37053E-13
 -1      2657 1.99522E+01 2.50022E+00 3.64718E-03 2.65556E-01 1.05099E-13-3.13852E-13
 -1      2658 2.00445E+01 2.32347E+00-1.07210E-02 1.04707E+00 2.46126E-13-2.20752E-13
 -1      2659 1.99806E+01 2.47236E+00-6.31788E-03 9.11404E-01 2.34273E-13-2.32918E-13
 -1      2660 2.02167E+01 1.90810E+00-1.19693E-02 1.22852E+00 2.77567E-13-1.43740E-13
 -1      2661 2.01247E+01 2.14586E+00-4.82110E-03 1.13517E+00 2.61534E-13-1.78714E-13
 -1      2662 2.01898E+01 1.88599E+00 6.34856E-03 9.27720E-01 2.40548E-13-1.72020E-13
 -1      2663 2.05134E+01 5.72359E-01 4.58573E-03-1.72962E+00-5.56662E-14-3.70028E-13
 -1      2664 2.03174E+01 7.35401E-01-1.70811E-04-1.81671E+00 5.00004E-14-2.10519E-13
 -1      2665 2.06285E+01 4.42288E-01 1.04786E-03-1.83097E+00-1.06514E-13-3.70557E-13
 -1      2666 2.02116E+01 7.26548E-01-3.49500E-03 6.44171E-01 2.40219E-13-3.79383E-14
 -1      2667 2.03537E+01 9.51413E-01 9.16534E-03 9.07815E-01 2.45555E-13-2.17256E-14
 -1      2668 2.03371E+01 1.50003E+00-1.90600E-03 1.26820E+00 2.75802E-13-3.75711E-14
 -1      2669 2.02241E+01 6.24563E-01 1.11325E-02-4.36785E-01-1.26291E-13-1.71946E-13
 -1      2670 2.01324E+01 4.74556E-01-3.27931E-03-2.78358E-01-1.09798E-13-1.78402E-13
 -1      2671 2.01053E+01 3.62051E-01 6.62498E-03-1.60099E-01-1.02234E-13-1.51889E-13
 -1      2672 2.00465E+01 2.67584E-01-1.58992E-03-6.24813E-02-9.45213E-14-1.62290E-13
 -1      2673 2.01983E+01 5.30070E-01-6.07072E-04-2.64757E-01-1.20081E-13-1.70379E-13
 -1      2674 2.00202E+01 1.97485E-01 4.55968E-03 1.27935E-02-7.82037E-14-1.58994E-13
 -1      2675 1.99844E+01 1.38285E-01-7.89986E-04 6.94789E-02-8.05422E-14-1.38266E-13
 -1      2676 2.01263E+01 2.98362E-01-2.07147E-03-5.73472E-02-9.00768E-14-1.58412E-13
 -1      2677 1.99636E+01 9.44580E-02 2.91812E-03 1.13114E-01-8.61111E-14-1.36585E-13
 -1      2678 1.99456E+01 5.75734E-02-2.60839E-04 1.42851E-01-8.31754E-14-1.75624E-13
 -1      2679 2.00700E+01 1.53151E-01-1.89771E-03 7.06072E-02-9.49803E-14-1.53104E-13
 -1      2680 1.99309E+01 3.05799E-02 1.73131E-03 1.64784E-01-9.23883E-14-1.78604E-13
 -1      2681 1.99253E+01 8.42920E-03 5.12759E-05 1.77255E-01-9.00214E-14-1.75954E-13
 -1      2682 2.00294E+01 6.17457E-02-1.53920E-03 1.42348E-01-1.06056E-13-1.77981E-13
 -1      2683 1.99158E+01-7.35890E-03 9.18684E-04 1.85148E-01-8.40917E-14-1.50543E-13
 -1      2684 1.99183E+01-1.95818E-02 2.33005E-04 1.87059E-01-9.93552E-14-1.43985E-13
 -1      2685 2.00026E+01 6.22798E-03-1.16953E-03 1.76467E-01-6.61661E-14-1.61372E-13
 -1      2686 1.99130E+01-2.77345E-02 3.71191E-04 1.86476E-01-1.02322E-13-1.15924E-13
 -1      2687 1.99204E+01-3.31404E-02 3.43894E-04 1.82504E-01-9.96245E-14-1.11912E-13
 -1      2688 1.99870E+01-2.50077E-02-8.58970E-04 1.86644E-01-1.06794E-13-9.34077E-14
 -1      2689 1.99182E+01-3.59929E-02 1.27117E-05 1.77464E-01-1.13906E-13-1.27426E-13
 -1      2690 1.99286E+01-3.66356E-02 4.21714E-04 1.70904E-01-1.15610E-13-1.42984E-13
 -1      2691 1.99795E+01-3.95076E-02-6.22125E-04 1.82892E-01-1.06183E-13-4.85872E-14
 -1      2692 1.99285E+01-3.57308E-02-2.14759E-04 1.64316E-01-1.20944E-13-1.28921E-13
 -1      2693 1.99406E+01-3.29555E-02 4.90287E-04 1.57527E-01-9.06067E-14-1.67677E-13
 -1      2694 1.99780E+01-4.22722E-02-4.52651E-04 1.72479E-01-1.20711E-13-1.33738E-13
 -1      2695 1.99422E+01-2.92908E-02-3.55287E-04 1.51519E-01-6.27527E-14-1.46469E-13
 -1      2696 1.99555E+01-2.39400E-02 5.65732E-04 1.46241E-01-1.58652E-14-1.19328E-13
 -1      2697 1.99807E+01-3.65923E-02-3.38911E-04 1.60702E-01-7.51607E-14-1.32265E-13
 -1      2698 1.99583E+01-1.81173E-02-4.42213E-04 1.42423E-01 7.63294E-15-1.53259E-13
 -1      2699 1.99725E+01-1.06619E-02 6.59921E-04 1.40004E-01-3.50058E-14-1.11301E-13
 -1      2700 1.99867E+01-2.45467E-02-2.68968E-04 1.51502E-01-2.31448E-14-8.92550E-14
 -1      2701 1.99764E+01-2.98791E-03-5.00799E-04 1.39672E-01-8.10831E-14-6.41230E-14
 -1      2702 1.99919E+01 6.37972E-03 7.82105E-04 1.41242E-01-7.73399E-14-3.24961E-14
 -1      2703 1.99951E+01-7.32186E-03-2.31963E-04 1.47937E-01-6.56179E-15-1.03391E-13
 -1      2704 1.99967E+01 1.58199E-02-5.50312E-04 1.45520E-01-1.06980E-13-2.81023E-14
 -1      2705 2.00140E+01 2.71142E-02 9.39564E-04 1.52118E-01-1.04949E-13-6.34684E-14
 -1      2706 2.00057E+01 1.45628E-02-2.18260E-04 1.52541E-01-9.29167E-14-5.77488E-14
 -1      2707 2.00197E+01 3.83946E-02-6.05550E-04 1.62077E-01-1.11588E-13-8.95974E-14
 -1      2708 2.00396E+01 5.17730E-02 1.13768E-03 1.74737E-01-9.49752E-14-1.12323E-13
 -1      2709 2.00184E+01 4.10790E-02-2.18907E-04 1.67598E-01-1.09145E-13 5.12296E-15
 -1      2710 2.00462E+01 6.50677E-02-6.77855E-04 1.91466E-01-4.25166E-14-8.77789E-14
 -1      2711 2.00697E+01 8.07632E-02 1.37947E-03 2.11271E-01-5.83716E-14-1.33805E-13
 -1      2712 2.00333E+01 7.25323E-02-2.25095E-04 1.95328E-01-1.01314E-13-7.24108E-14
 -1      2713 2.00771E+01 9.62772E-02-7.75445E-04 2.35911E-01-7.01307E-14-1.09285E-13
 -1      2714 2.01055E+01 1.14515E-01 1.66465E-03 2.64003E-01-8.61605E-14-7.52240E-14
 -1      2715 2.00504E+01 1.09399E-01-2.27793E-04 2.38001E-01-5.29982E-14-6.84553E-14
 -1      2716 2.01137E+01 1.32391E-01-9.02813E-04 2.97752E-01-1.18074E-13-3.96385E-14
 -1      2717 2.01480E+01 1.53267E-01 1.98824E-03 3.35294E-01-9.67873E-14-6.68305E-14
 -1      2718 2.00699E+01 1.52120E-01-2.17896E-04 2.97971E-01-6.41699E-14-1.21006E-14
 -1      2719 2.01571E+01 1.73441E-01-1.05872E-03 3.79349E-01-3.89535E-14-1.29316E-13
 -1      2720 2.01986E+01 1.96734E-01 2.33879E-03 4.27420E-01-1.81000E-14-1.14329E-13
 -1      2721 2.00918E+01 2.00811E-01-1.87579E-04 3.77615E-01-1.14396E-13-1.28727E-16
 -1      2722 2.02085E+01 2.18710E-01-1.23188E-03 4.82866E-01-2.72537E-14-1.48192E-13
 -1      2723 2.02585E+01 2.43577E-01 2.69654E-03 5.42249E-01 4.09454E-15-1.48564E-13
 -1      2724 2.01161E+01 2.54817E-01-1.34045E-04 4.79173E-01-7.67007E-14-1.18323E-13
 -1      2725 2.02693E+01 2.66059E-01-1.39298E-03 6.09860E-01 4.34705E-14-1.20507E-13
 -1      2726 2.03293E+01 2.90551E-01 3.03185E-03 6.80690E-01 1.01930E-13-7.01786E-14
 -1      2727 2.01427E+01 3.11995E-01-6.77107E-05 6.04439E-01 3.41194E-14-9.85845E-14
 -1      2728 2.03416E+01 3.10864E-01-1.48092E-03 7.60620E-01 5.03988E-14-1.65580E-13
 -1      2729 2.04132E+01 3.31170E-01 3.30447E-03 8.41820E-01 1.35482E-15-2.26289E-13
 -1      2730 2.01721E+01 3.67606E-01-2.80589E-05 7.54286E-01 2.11432E-14-5.55408E-14
 -1      2731 2.04289E+01 3.44373E-01-1.38081E-03 9.33133E-01 5.42993E-14-2.11606E-13
 -1      2732 2.05144E+01 3.53715E-01 3.46306E-03 1.02156E+00 7.22030E-15-1.86941E-13
 -1      2733 2.02059E+01 4.12591E-01-1.11598E-04 9.27973E-01 2.57181E-14-1.18984E-13
 -1      2734 2.05381E+01 3.51373E-01-8.91108E-04 1.12152E+00 2.82229E-14-1.29487E-13
 -1      2735 2.06415E+01 3.38543E-01 3.43983E-03 1.21071E+00 1.05352E-13-1.64732E-13
 -1      2736 2.02490E+01 4.31089E-01-5.16551E-04 1.12215E+00 8.54276E-14 4.53120E-14
 -1      2737 2.06827E+01 3.07264E-01 3.20788E-04 1.31372E+00 1.42423E-13-1.92597E-13
 -1      2738 2.08111E+01 2.55099E-01 3.12612E-03 1.39217E+00 1.38435E-13-1.40721E-13
 -1      2739 2.03131E+01 3.97195E-01-1.60426E-03 1.32943E+00 1.15716E-13 1.26640E-13
 -1      2740 2.08884E+01 1.75454E-01 2.77156E-03 1.48786E+00 1.66756E-13-1.51431E-13
 -1      2741 2.10537E+01 6.03089E-02 2.30435E-03 1.53676E+00 1.51663E-13-5.26040E-14
 -1      2742 2.04220E+01 2.71585E-01-3.95485E-03 1.53602E+00 1.49890E-13 4.77624E-14
 -1      2743 2.11995E+01-9.20912E-02 7.19228E-03 1.60663E+00 4.81323E-14 2.16019E-14
 -1      2744 2.14196E+01-2.97072E-01 5.07410E-04 1.59720E+00-2.07131E-14 6.97868E-14
 -1      2745 2.06203E+01 3.17579E-04-8.32855E-03 1.71733E+00 1.15509E-13-1.47917E-14
 -1      2746 2.16841E+01-5.44383E-01 1.43170E-02 1.60851E+00 4.74922E-14 1.53145E-13
 -1      2747 2.19784E+01-8.56799E-01-3.62391E-03 1.49977E+00 7.07516E-14 3.70448E-13
 -1      2748 2.09826E+01-4.77943E-01-1.53762E-02 1.82928E+00 1.13296E-13 2.90898E-14
 -1      2749 2.24284E+01-1.19764E+00 2.38331E-02 1.39285E+00-1.41817E-13 2.77432E-13
 -1      2750 2.28011E+01-1.58760E+00-1.12540E-02 1.13356E+00-1.89374E-13 1.14267E-13
 -1      2751 2.16200E+01-1.20603E+00-2.53101E-02 1.79111E+00-8.49704E-14 1.63993E-13
 -1      2752 2.34828E+01-1.94579E+00 3.10992E-02 8.17336E-01-1.72646E-13 8.01711E-14
 -1      2753 2.38990E+01-2.27415E+00-2.09851E-02 3.70038E-01-1.55017E-13 3.65112E-14
 -1      2754 2.26593E+01-2.11784E+00-3.47644E-02 1.45051E+00-2.03827E-13 2.98004E-14
 -1      2755 2.47489E+01-2.43314E+00 2.23410E-02-2.29561E-01-9.18840E-14 2.27758E-13
 -1      2756 2.51032E+01-2.39515E+00-2.75529E-02-8.10109E-01-5.37790E-14 2.46867E-13
 -1      2757 2.41026E+01-2.88151E+00-4.85183E-02 6.06174E-01-5.24841E-14 1.63639E-13
 -1      2758 2.59210E+01-1.99888E+00-9.52155E-03-1.67727E+00-7.33671E-14 3.19324E-13
 -1      2759 2.60023E+01-1.18491E+00-3.29834E-02-2.17305E+00-4.39163E-14 2.17414E-13
 -1      2760 2.58634E+01-2.78650E+00-5.12711E-02-8.19513E-01-5.54036E-14 2.65739E-13
 -1      2761 2.63337E+01 3.01406E-02-1.00281E-01-2.70922E+00-1.47937E-14 2.64214E-13
 -1      2762 2.62185E+01 1.53433E+00-3.51744E-02-2.65966E+00-4.97311E-14 1.62665E-13
 -1      2763 2.70711E+01-8.39584E-01-6.12333E-02-2.30844E+00-8.13863E-14 2.87572E-13
 -1      2764 2.54948E+01 4.19793E+00-1.08905E-01-3.91160E-02-1.39999E-13-4.62946E-14
 -1      2765 2.55757E+01 3.75984E+00-1.21332E-01 9.96516E-01-1.19529E-13-1.17351E-13
 -1      2766 2.58662E+01 2.77408E+00-3.85229E-02 1.94246E+00 3.96905E-15-9.12014E-14
 -1      2767 2.60135E+01 1.28773E+00-1.20495E-01 2.35938E+00 3.95725E-14-1.18589E-13
 -1      2768 2.59907E+01-7.56017E-02-1.86508E-02 2.22226E+00 5.93241E-14-2.21254E-13
 -1      2769 2.59423E+01-1.27447E+00-6.08755E-02 1.90423E+00 1.08700E-13-9.38728E-14
 -1      2770 2.69908E+01 6.09842E-01-6.93987E-02 2.30627E+00 3.53537E-14-6.78207E-14
 -1      2771 2.54127E+01-2.01068E+00-2.65999E-02 1.14923E+00 1.49793E-13-1.26643E-13
 -1      2772 2.51136E+01-2.39137E+00-1.76119E-04 5.23720E-01 2.31989E-13-1.69357E-14
 -1      2773 2.62608E+01-2.05105E+00-2.83570E-02 1.23321E+00 1.24883E-13-6.15306E-14
 -1      2774 2.43008E+01-2.42531E+00-2.33707E-02-2.05175E-01 1.65374E-13-8.55661E-14
 -1      2775 2.38770E+01-2.23297E+00 2.76413E-02-7.51515E-01 1.02167E-13 2.02512E-14
 -1      2776 2.48390E+01-2.85872E+00-1.93219E-02-2.87037E-01 2.11078E-13-2.73662E-13
 -1      2777 2.31200E+01-1.94170E+00-1.85347E-02-1.21839E+00 1.18540E-13 8.05571E-14
 -1      2778 2.27010E+01-1.54551E+00 2.58286E-02-1.57115E+00 1.82205E-13 8.53050E-15
 -1      2779 2.33058E+01-2.46765E+00-3.15227E-02-1.42511E+00 1.19494E-13-1.55907E-13
 -1      2780 2.21510E+01-1.18683E+00-1.06924E-02-1.78682E+00 1.85990E-13-6.47758E-14
 -1      2781 2.18009E+01-8.02508E-01 1.81526E-02-1.95786E+00 1.78277E-13-1.90227E-14
 -1      2782 2.20970E+01-1.59447E+00-2.73729E-02-2.02762E+00 1.33160E-13-5.02703E-14
 -1      2783 2.14477E+01-4.92840E-01-5.03272E-03-2.00374E+00 1.81692E-13-2.17131E-13
 -1      2784 2.11795E+01-1.87862E-01 1.19705E-02-2.03467E+00 1.11629E-13-2.44830E-13
 -1      2785 2.12864E+01-7.41368E-01-1.79682E-02-2.22713E+00 8.47210E-14-2.04040E-13
 -1      2786 2.09713E+01 2.16097E-02-1.79500E-03-2.00039E+00 9.64809E-14-3.50577E-13
 -1      2787 2.07646E+01 2.55396E-01 6.81491E-03-1.92570E+00-1.17530E-13-3.39138E-13
 -1      2788 2.04839E+01 3.83868E-01-5.26247E-03-2.04160E+00-9.76071E-14-4.49106E-13
 -1      2789 2.07936E+01-9.93161E-02-1.04858E-02-2.19635E+00 6.57146E-14-3.90675E-13
 -1      2790 2.73211E+01-4.14343E+00-1.11879E-01 1.83352E+00-2.19835E-13-4.29656E-13
 -1      2791 2.55519E+01-5.10713E+00 4.66147E-02 3.44615E+00-2.25778E-13-2.84467E-13
 -1      2792 1.98535E+01 4.98599E-02 7.08374E-05-1.42669E-01 1.16027E-13-5.01487E-14
 -1      2793 1.98674E+01 8.14783E-02 3.16191E-03-1.14159E-01 1.34132E-13-2.84850E-14
 -1      2794 1.98902E+01 1.18871E-01-2.49229E-04-6.95083E-02 1.33742E-13-4.37031E-14
 -1      2795 1.99260E+01 1.70329E-01 5.20076E-03-1.39523E-02 1.64244E-13-2.46603E-14
 -1      2796 1.99909E+01 1.35758E-01-2.35331E-03-7.12280E-02 1.41104E-13-7.29670E-14
 -1      2797 1.98430E+01-1.57921E-02 3.07928E-04-1.85393E-01 1.58933E-14-2.27277E-14
 -1      2798 1.98341E+01-5.33472E-03 8.78160E-04-1.84170E-01 3.17538E-14-3.06147E-14
 -1      2799 1.98556E+01-2.75777E-02 3.49892E-04-1.80059E-01 5.45468E-14-7.03808E-14
 -1      2800 1.98418E+01-2.28370E-02 2.90709E-04-1.84550E-01 5.78809E-14-2.88920E-14
 -1      2801 1.99214E+01-2.11840E-02-8.94589E-04-1.89441E-01 5.82285E-14-4.00125E-14
 -1      2802 1.98740E+01-3.10338E-02 3.85205E-04-1.67597E-01 3.34708E-14-1.11942E-13
 -1      2803 1.98578E+01-3.02416E-02-7.67889E-05-1.74631E-01 2.50184E-14-1.07450E-13
 -1      2804 1.99228E+01-3.42601E-02-6.09424E-04-1.84829E-01 7.39091E-14-4.03264E-14
 -1      2805 1.98956E+01-2.86225E-02 4.30074E-04-1.53136E-01 3.77517E-14-7.02576E-14
 -1      2806 1.98784E+01-3.06236E-02-2.94364E-04-1.60479E-01 4.62102E-14-9.99834E-14
 -1      2807 1.99302E+01-3.73356E-02-4.16475E-04-1.73208E-01 3.07277E-14-3.74321E-14
 -1      2808 1.99192E+01-2.19278E-02 4.94754E-04-1.40387E-01 7.45047E-14-5.08449E-14
 -1      2809 1.99015E+01-2.59888E-02-4.12295E-04-1.46417E-01 5.56108E-14-5.40747E-14
 -1      2810 1.99416E+01-3.33144E-02-2.97008E-04-1.59889E-01 2.92220E-14-4.47693E-14
 -1      2811 1.99443E+01-1.19117E-02 5.86571E-04-1.32129E-01 5.71016E-14-6.02550E-14
 -1      2812 1.99261E+01-1.75998E-02-4.66856E-04-1.35619E-01 7.89346E-14-6.51112E-14
 -1      2813 1.99557E+01-2.40539E-02-2.34661E-04-1.48756E-01 7.48249E-14-1.04751E-14
 -1      2814 1.99712E+01 9.09161E-04 7.11286E-04-1.30572E-01 5.27603E-14-4.71617E-14
 -1      2815 1.99521E+01-6.18852E-03-4.84079E-04-1.30528E-01 5.16954E-14-4.98266E-14
 -1      2816 1.99719E+01-1.06691E-02-2.16016E-04-1.42762E-01 5.18197E-14-7.84647E-14
 -1      2817 2.00007E+01 1.63278E-02 8.73183E-04-1.37609E-01 4.87195E-14-9.16057E-14
 -1      2818 1.99800E+01 7.89116E-03-4.82589E-04-1.33158E-01 5.45166E-14 9.46854E-15
 -1      2819 1.99903E+01 6.25453E-03-2.30385E-04-1.44283E-01 2.85219E-14-3.85664E-14
 -1      2820 2.00343E+01 3.43217E-02 1.07445E-03-1.54984E-01 6.08263E-15 4.68501E-14
 -1      2821 2.00109E+01 2.45352E-02-4.75211E-04-1.45305E-01 3.14383E-14-4.72248E-14
 -1      2822 2.00112E+01 2.64892E-02-2.69649E-04-1.55372E-01 2.65896E-15-2.83558E-14
 -1      2823 2.00736E+01 5.49170E-02 1.31410E-03-1.84379E-01-6.58251E-15 1.07708E-13
 -1      2824 2.00462E+01 4.37613E-02-4.69884E-04-1.68677E-01 5.85694E-14 9.95592E-14
 -1      2825 2.00354E+01 5.00022E-02-3.27168E-04-1.77929E-01-2.02640E-14 3.49436E-14
 -1      2826 2.01206E+01 7.80240E-02 1.58609E-03-2.27403E-01-2.85819E-14 1.17347E-14
 -1      2827 2.00877E+01 6.55617E-02-4.69993E-04-2.04928E-01-2.21447E-14 8.28286E-14
 -1      2828 2.00639E+01 7.67750E-02-3.97687E-04-2.13768E-01 8.19288E-15 2.89124E-14
 -1      2829 2.01776E+01 1.03217E-01 1.87672E-03-2.85471E-01 3.48332E-14-1.02924E-13
 -1      2830 2.01377E+01 8.97158E-02-4.73720E-04-2.55601E-01-3.59409E-14-4.93924E-14
 -1      2831 2.00979E+01 1.06579E-01-4.77649E-04-2.64594E-01 1.17800E-14-3.35095E-14
 -1      2832 2.02472E+01 1.29424E-01 2.16100E-03-3.59539E-01 1.07358E-13-1.27994E-13
 -1      2833 2.01985E+01 1.15531E-01-4.72217E-04-3.21939E-01 1.07467E-13-3.49303E-14
 -1      2834 2.01389E+01 1.38676E-01-5.66423E-04-3.31856E-01 5.22414E-14-6.12612E-14
 -1      2835 2.03321E+01 1.54488E-01 2.39820E-03-4.49642E-01 7.36543E-14-8.35678E-14
 -1      2836 2.02729E+01 1.41477E-01-4.46231E-04-4.04537E-01 1.31048E-13-8.11503E-14
 -1      2837 2.01887E+01 1.71392E-01-6.69164E-04-4.16451E-01 8.14637E-14 6.92508E-15
 -1      2838 2.04355E+01 1.74560E-01 2.52636E-03-5.54181E-01 2.99276E-14-1.58832E-15
 -1      2839 2.03641E+01 1.64668E-01-3.60682E-04-5.02765E-01 2.94357E-14-7.68503E-14
 -1      2840 2.02497E+01 2.01533E-01-8.02138E-04-5.18241E-01 5.02039E-14-9.99628E-14
 -1      2841 2.05610E+01 1.83303E-01 2.45635E-03-6.68876E-01-3.80434E-14-1.87843E-13
 -1      2842 2.04760E+01 1.80167E-01-1.56961E-04-6.13912E-01-6.38958E-15-5.02904E-14
 -1      2843 2.03251E+01 2.23577E-01-1.00130E-03-6.35315E-01 1.69839E-14-1.74357E-13
 -1      2844 2.07133E+01 1.70980E-01 2.06561E-03-7.85326E-01-5.09816E-14-2.85177E-13
 -1      2845 2.06133E+01 1.80116E-01 2.56162E-04-7.31942E-01-3.64738E-14-2.20886E-13
 -1      2846 2.04194E+01 2.28668E-01-1.33407E-03-7.62941E-01 9.53888E-15-2.09273E-13
 -1      2847 2.08984E+01 1.23712E-01 1.19230E-03-8.89144E-01-4.77803E-14-1.53621E-13
 -1      2848 2.07825E+01 1.52852E-01 1.00891E-03-8.45820E-01-5.77401E-14-2.15450E-13
 -1      2849 2.05399E+01 2.03523E-01-1.91121E-03-8.92120E-01-4.57817E-14-1.70328E-13
 -1      2850 2.11248E+01 2.36613E-02-3.66604E-04-9.57786E-01 7.14404E-14-1.81343E-13
 -1      2851 2.09926E+01 8.24850E-02 2.26224E-03-9.37366E-01 5.90054E-14-1.11822E-13
 -1      2852 2.06978E+01 1.29726E-01-2.88785E-03-1.00766E+00-2.37114E-14-1.10275E-13
 -1      2853 2.14036E+01-1.48196E-01-2.84187E-03-9.58544E-01-7.25396E-14-1.17986E-13
 -1      2854 2.12555E+01-4.99337E-02 4.15992E-03-9.78848E-01-5.08196E-14-1.27352E-13
 -1      2855 2.09102E+01-1.54721E-02-4.42568E-03-1.08575E+00-6.46280E-14-1.76581E-14
 -1      2856 2.17462E+01-4.03802E-01-6.38033E-03-8.47961E-01-9.57581E-14 3.08600E-14
 -1      2857 2.15854E+01-2.61440E-01 6.68761E-03-9.31032E-01-7.61727E-14-1.09912E-13
 -1      2858 2.12009E+01-2.54498E-01-6.56239E-03-1.09114E+00-6.75426E-14 5.41937E-14
 -1      2859 2.21573E+01-7.30387E-01-1.07295E-02-5.75765E-01 1.76120E-14 1.61952E-13
 -1      2860 2.19929E+01-5.54813E-01 9.44974E-03-7.43797E-01-3.96769E-14 1.77482E-14
 -1      2861 2.15974E+01-5.96970E-01-8.87329E-03-9.75032E-01-9.65815E-14 3.70471E-14
 -1      2862 2.26184E+01-1.06255E+00-1.51777E-02-9.94970E-02 7.35583E-14 1.75501E-13
 -1      2863 2.24712E+01-8.95797E-01 1.10721E-02-3.64459E-01 8.12606E-14 2.27753E-13
 -1      2864 2.21195E+01-1.01448E+00-1.00596E-02-6.77300E-01 3.53399E-14 1.96807E-13
 -1      2865 2.30693E+01-1.24725E+00-1.62414E-02 5.82219E-01-1.88750E-13 2.33699E-13
 -1      2866 2.29724E+01-1.18029E+00 8.59578E-03 2.39553E-01-1.93764E-14 1.54570E-13
 -1      2867 2.27544E+01-1.40471E+00-8.46115E-03-1.41847E-01 2.48484E-14 1.81014E-13
 -1      2868 2.33852E+01-1.04064E+00-4.06051E-03 1.34507E+00-1.94076E-13 2.91258E-13
 -1      2869 2.33666E+01-1.19691E+00-1.17438E-03 1.01884E+00-1.69722E-13 2.85242E-13
 -1      2870 2.33953E+01-1.54717E+00-9.84459E-03 6.63485E-01-2.19500E-13 2.34354E-13
 -1      2871 2.34225E+01-2.94257E-01 9.76767E-03 1.95247E+00-9.88333E-14 2.19485E-13
 -1      2872 2.35148E+01-7.68343E-01-2.02946E-02 1.75853E+00-2.29029E-13 2.38600E-13
 -1      2873 2.38994E+01-1.11505E+00 4.93758E-03 1.58582E+00-1.72705E-13 2.41848E-13
 -1      2874 2.31199E+01 9.09831E-01 1.82179E-02 1.94600E+00-5.02601E-14 2.81644E-13
 -1      2875 2.32762E+01 2.62682E-01-4.12921E-02 2.07506E+00-4.25896E-14 2.12095E-13
 -1      2876 2.40013E+01 2.47836E-04 2.34042E-02 2.18040E+00-9.81350E-14 1.64740E-13
 -1      2877 2.27225E+01 1.98580E+00 1.41807E-02 1.11873E+00-3.59070E-14 2.45851E-13
 -1      2878 2.28500E+01 1.49480E+00-3.74347E-02 1.59743E+00-5.28692E-14 2.61046E-13
 -1      2879 2.36854E+01 1.48550E+00-3.94996E-03 1.97115E+00-5.46143E-14 4.07513E-14
 -1      2880 2.25700E+01 2.13520E+00-2.48755E-02-2.71377E-01-8.05883E-14 2.07775E-13
 -1      2881 2.25478E+01 2.17674E+00-3.12806E-02 3.29548E-01-9.69537E-15 3.26552E-13
 -1      2882 2.32934E+01 2.63952E+00-1.82484E-03 8.39296E-01-3.99871E-14-1.30087E-14
 -1      2883 2.28199E+01 1.27916E+00-5.12045E-02-1.41140E+00-1.34615E-14 2.13699E-13
 -1      2884 2.27169E+01 1.82565E+00 4.53265E-03-9.94901E-01-1.38434E-13 1.73246E-13
 -1      2885 2.33540E+01 2.46567E+00 1.06773E-02-7.17815E-01-1.20193E-13 1.22120E-14
 -1      2886 2.32113E+01 3.16980E-02-3.35874E-02-1.75534E+00-5.87974E-15 2.35193E-13
 -1      2887 2.30843E+01 6.80915E-01 1.94218E-02-1.69544E+00 1.12719E-13 3.70960E-13
 -1      2888 2.36659E+01 1.25214E+00-7.86569E-03-1.75445E+00-2.72143E-14 1.32780E-13
 -1      2889 2.33250E+01-9.25911E-01-1.56665E-02-1.30225E+00-1.10521E-13 9.26982E-14
 -1      2890 2.32790E+01-5.09254E-01 4.61486E-03-1.54680E+00-1.24708E-13 1.37664E-13
 -1      2891 2.39225E+01-3.17074E-01 1.27813E-02-1.72878E+00 2.78180E-14 3.26328E-13
 -1      2892 2.30716E+01-1.28980E+00 1.90631E-04-4.99795E-01 2.95255E-14 3.65972E-14
 -1      2893 2.31374E+01-1.17662E+00-9.91440E-03-8.67197E-01 3.51520E-15 3.55086E-14
 -1      2894 2.37139E+01-1.32451E+00 7.34197E-03-9.99295E-01-3.34151E-15-2.20134E-14
 -1      2895 2.25788E+01-1.18488E+00 8.97090E-03 2.84452E-01 3.66768E-14 3.47775E-14
 -1      2896 2.27304E+01-1.28551E+00-1.60875E-02-6.07737E-02 3.15954E-14-3.75627E-14
 -1      2897 2.31506E+01-1.61373E+00-3.00670E-03-8.10940E-02 6.53058E-14-2.89704E-13
 -1      2898 2.20124E+01-8.42777E-01 1.14059E-02 8.61867E-01-5.02289E-15 9.56885E-14
 -1      2899 2.22079E+01-1.03764E+00-1.46200E-02 6.10779E-01-4.84159E-14 4.87574E-14
 -1      2900 2.24495E+01-1.38706E+00-9.22365E-03 6.88555E-01 1.63744E-14-2.96519E-13
 -1      2901 2.14793E+01-4.36923E-01 1.06971E-02 1.18823E+00 2.73799E-13 3.34146E-13
 -1      2902 2.16849E+01-6.47853E-01-1.04858E-02 1.05055E+00 9.32962E-14 2.16524E-13
 -1      2903 2.17882E+01-9.27481E-01-1.06142E-02 1.18840E+00-1.28476E-14-4.46048E-13
 -1      2904 2.10241E+01-5.57138E-02 9.07371E-03 1.28263E+00 4.19836E-13 6.49374E-13
 -1      2905 2.12166E+01-2.45798E-01-6.56877E-03 1.25329E+00 4.90071E-13 6.80558E-13
 -1      2906 2.12424E+01-4.22111E-01-8.35706E-03 1.42312E+00 1.51399E-13-3.04332E-14
 -1      2907 2.06620E+01 2.55604E-01 6.72553E-03 1.23345E+00 1.45013E-13 6.91757E-13
 -1      2908 2.08358E+01 8.94742E-02-3.49169E-03 1.29707E+00 2.53267E-13 7.13478E-13
 -1      2909 2.08323E+01 1.25458E-02-4.72242E-03 1.48105E+00 2.67013E-13 4.04537E-13
 -1      2910 2.05236E+01 3.95585E-01-2.25530E-03 1.43028E+00 1.22180E-13 3.34428E-13
 -1      2911 2.01889E+01 2.27571E+00 3.96014E-03-1.42837E+00-2.12979E-13-2.49896E-13
 -1      2912 1.86548E+01 1.93480E+00-1.28734E-02 5.73466E-01-2.15429E-13-3.06969E-13
 -1      2913 1.88028E+01 1.84914E+00 3.25986E-03 9.07697E-01-8.49807E-14-2.36353E-13
 -1      2914 2.87131E+01 6.19030E-01-1.00929E-01 1.83139E+00 1.32269E-13 1.15463E-14
 -1      2915 2.86384E+01 2.59495E+00-2.09565E-01 2.17432E+00 1.96690E-13-1.20320E-13
 -1      2916 1.94660E+01 1.27791E+00-1.25989E-02 1.63556E+00-3.17182E-14-4.71816E-13
 -1      2917 1.97117E+01 1.10226E+00 8.20403E-03 1.73076E+00 8.24530E-14-5.24462E-13
 -1      2918 1.85685E+01 2.02116E+00-6.18967E-03-2.33273E-01 4.82780E-14 1.34783E-13
 -1      2919 1.85774E+01 2.01834E+00-4.53928E-03 1.44361E-01-7.52625E-14-1.47902E-13
 -1      2920 1.83096E+01 1.77763E+00 1.27493E-02 4.16916E-01-8.56163E-14-1.67388E-13
 -1      2921 1.89937E+01 1.65599E+00-1.53797E-02 1.23517E+00-1.48235E-13-2.83797E-13
 -1      2922 1.92276E+01 1.50984E+00 8.47678E-03 1.46214E+00-1.48568E-15-4.31058E-13
 -1      2923 1.91992E+01 1.12127E+00-7.07037E-04 1.72528E+00-7.62049E-14-4.58643E-13
 -1      2924 1.86526E+01 1.51745E+00 6.59379E-03 1.21138E+00-7.13119E-14-2.56624E-13
 -1      2925 1.87614E+01 1.89069E+00 1.87953E-03-9.99543E-01 2.36673E-13 1.42968E-13
 -1      2926 1.86287E+01 1.96869E+00-1.18765E-02-6.61492E-01 1.05962E-13 1.69739E-13
 -1      2927 1.82851E+01 1.80527E+00 1.19026E-02-4.86386E-01 1.50223E-13 9.46866E-14
 -1      2928 1.91855E+01 1.57554E+00 8.18557E-03-1.58382E+00 1.87612E-13-6.63544E-14
 -1      2929 1.89486E+01 1.71946E+00-1.49301E-02-1.34481E+00 2.05533E-13 1.55031E-13
 -1      2930 1.85962E+01 1.59723E+00 6.05611E-03-1.29975E+00 1.72866E-13 7.90286E-14
 -1      2931 1.97035E+01 1.18488E+00 1.15241E-02-1.86978E+00 3.01147E-13 1.95676E-13
 -1      2932 1.94411E+01 1.35381E+00-1.18453E-02-1.77435E+00 3.03336E-13-1.61069E-15
 -1      2933 1.91598E+01 1.23197E+00 1.00015E-03-1.85237E+00 1.47196E-13 7.11448E-15
 -1      2934 2.01022E+01 9.27850E-01-1.58069E-03-1.85073E+00 2.30127E-13-2.12907E-14
 -1      2935 1.99596E+01 2.30925E-01-8.10530E-04 6.42323E-02 1.70459E-13-4.43751E-14
 -1      2936 2.00254E+01 3.14738E-01 7.84328E-03 1.61879E-01 1.77964E-13-3.71153E-14
 -1      2937 2.00554E+01 2.65777E-01-2.74369E-03 6.21461E-02 1.61599E-13-6.88153E-14
 -1      2938 2.03079E+01 1.58883E+00-1.18520E-02-1.23725E+00-2.15334E-13-2.15570E-13
 -1      2939 2.03269E+01 1.23159E+00 1.29271E-02-9.68931E-01-1.75666E-13-1.94964E-13
 -1      2940 2.02442E+01 9.48356E-01-5.23818E-03-7.23292E-01-1.43770E-13-1.86360E-13
 -1      2941 2.01600E+01 2.04843E+00 1.15552E-03-1.14089E+00-1.67016E-13-2.49759E-13
 -1      2942 2.00684E+01 4.15421E-01-1.59693E-03 2.89274E-01 1.96938E-13-3.87747E-14
 -1      2943 2.01698E+01 5.53811E-01 1.04852E-02 4.52180E-01 2.11073E-13-3.85292E-14
 -1      2944 2.02532E+01 8.21683E-01 8.57870E-04 6.18927E-01 2.30958E-13-8.12601E-14
 -1      2945 2.01452E+01 4.77501E-01-1.90710E-03 2.81936E-01 2.00977E-13-7.87737E-14
 -1      2946 2.89621E+01-2.00941E+00-6.75370E-03 7.13267E-01 2.08666E-13-9.19265E-14
 -1      2947 2.89396E+01 2.71549E-02-1.82896E-01 1.75757E+00-2.22322E-14-9.93233E-14
 -1      2948 2.79364E+01-2.54360E+00 1.06583E-02 9.63149E-02-4.35416E-15 7.43849E-15
 -1      2949 2.86341E+01-1.12061E+00-1.67591E-01 1.07030E+00 1.62925E-14 2.39531E-14
 -1      2950 2.76347E+01-2.71774E-01-4.26435E-02 1.94708E+00-1.82493E-14-5.83561E-14
 -1      2951 7.68250E+00-1.17557E+00 1.27597E-01 3.06973E+00-1.87420E-13 1.94678E-13
 -1      2952 6.76097E+00-7.54832E-01 1.70257E-01 1.15084E+00-9.68167E-14 5.84532E-14
 -1      2953 1.98403E+01 8.08233E-03 2.31118E-04-1.76365E-01 5.37947E-14-4.06434E-14
 -1      2954 1.98400E+01 2.69725E-02 1.78567E-03-1.64855E-01 8.50860E-14-4.10192E-14
 -1      2955 1.99507E+01 5.50633E-02-1.79185E-03-1.45094E-01 1.01241E-13-6.53985E-14
 -1      2956 1.99293E+01 6.32454E-03-1.28843E-03-1.79651E-01 3.41929E-14-1.62029E-14
 -1      2957 2.30639E+01-5.64078E+00-3.85615E-02 5.03953E+00-3.01981E-13-4.70363E-13
 -1      2958 2.01479E+01-5.46568E+00 8.56017E-02 5.98552E+00-4.03788E-13-2.00673E-13
 -1      2959 1.99250E+01 2.59527E+00-7.89825E-03 7.95383E-01 2.20802E-13-2.44503E-13
 -1      2960 1.98815E+01 2.68740E+00-6.12213E-03 6.46247E-01 1.80049E-13-2.79093E-13
 -1      2961 2.00005E+01 2.38770E+00 4.32895E-03 5.17483E-01 1.58680E-13-2.66528E-13
 -1      2962 2.00812E+01 2.18999E+00 5.56629E-03 7.46787E-01 2.04895E-13-2.23859E-13
 -1      2963 2.39746E+01-5.07392E+00 9.06559E-02-3.67195E+00-1.47785E-13 2.48385E-13
 -1      2964 2.62871E+01-4.55705E+00-1.50729E-01-2.02533E+00-6.13398E-14 2.54172E-13
 -1      2965 1.98772E+01 2.69711E+00-5.75176E-03-6.35231E-01-4.99302E-14-3.22263E-13
 -1      2966 1.99186E+01 2.60494E+00-8.44872E-03-7.85526E-01-8.72556E-14-3.10941E-13
 -1      2967 2.12699E+01-5.43548E+00 1.74541E-01-5.53077E+00 6.51090E-13 3.48086E-13
 -1      2968 2.38908E+01-5.66401E+00-9.26853E-02-4.41901E+00 5.60038E-13 2.89553E-13
 -1      2969 2.82269E+01 6.42606E+00-1.80245E-01 6.32628E-02 2.61791E-13-2.45325E-14
 -1      2970 2.82485E+01 5.87997E+00-1.45091E-01-1.06157E+00 3.80307E-13-1.78121E-13
 -1      2971 1.28575E+01-3.59220E+00 4.03329E-02 6.07098E+00-3.86913E-14 2.99760E-15
 -1      2972 9.70815E+00-2.20521E+00 1.49591E-01 4.71997E+00-2.88575E-13 3.28904E-13
 -1      2973 6.29458E+00-7.84459E-01 1.71898E-01-5.62784E-01-9.12334E-15 4.34097E-14
 -1      2974 6.97271E+00-1.10066E+00 1.28260E-01-2.53991E+00-1.98452E-14-2.45887E-13
 -1      2975 1.72396E+01-4.33701E+00 1.08973E-01-5.94003E+00-1.42414E-13-1.89293E-14
 -1      2976 2.07946E+01-5.27300E+00-3.95705E-02-5.36586E+00-2.38295E-13 1.50546E-13
 -1      2977 9.86715E+00-2.09951E+00 1.58027E-01 4.96103E+00-7.35245E-14-3.49998E-13
 -1      2978 8.44357E+00-1.38995E+00 2.26931E-01 3.55649E+00-2.01852E-13 1.06914E-13
 -1      2979 2.85461E+01 4.78987E+00-1.39626E-01 1.94988E+00 2.40558E-13-1.08150E-13
 -1      2980 2.81828E+01 6.04964E+00-2.14533E-01 1.04108E+00 2.09277E-13-8.89566E-14
 -1      2981 1.99309E+01-5.36036E+00-5.16579E-02 5.53120E+00-2.74780E-14 1.45460E-13
 -1      2982 1.66379E+01-4.50976E+00 1.43052E-01 6.01659E+00 9.73943E-14-9.29951E-14
 -1      2983 2.92048E+01 2.19366E+00-1.93412E-01-2.40215E+00-4.87665E-14 3.29695E-13
 -1      2984 2.87344E+01 1.05109E-01-8.61886E-02-2.22643E+00-1.27232E-13 2.42611E-13
 -1      2985 2.53836E+01-5.31304E+00-1.05250E-01 3.00703E+00-1.83603E-13 1.02439E-13
 -1      2986 2.32366E+01-5.35893E+00 7.99559E-02 4.04102E+00-7.68829E-14 1.72622E-13
 -1      2987 2.88844E+01-2.12216E+00-1.63370E-01-9.70775E-01-5.18890E-14 2.06779E-13
 -1      2988 2.74932E+01-3.87231E+00 7.38077E-03 8.86885E-01-1.43064E-13 1.35919E-13
 -1      2989 2.66555E+01-4.11838E+00 3.17419E-02 9.08649E-01-1.07823E-13 1.69864E-13
 -1      2990 2.79251E+01-1.12795E+00-4.40163E-02-1.88477E+00-1.16119E-13 2.68258E-13
 -1      2991 2.82072E+01 5.56885E+00-1.87617E-01 9.68002E-01-1.92235E-13-1.51407E-14
 -1      2992 2.83803E+01 6.00655E+00-1.71960E-01-3.49805E-01-2.03476E-13 1.62727E-13
 -1      2993 2.85426E+01 2.24807E+00-9.93340E-02 2.33581E+00-3.07393E-14-3.19467E-14
 -1      2994 2.83681E+01 4.14813E+00-1.93789E-01 1.79409E+00-8.14904E-14 5.44356E-14
 -1      2995 2.96449E+01 3.81015E-01-1.57865E-01-1.08883E+00-2.32314E-14-9.03194E-13
 -1      2996 2.86703E+01-1.91859E+00-5.77125E-02-6.96137E-02-2.89116E-13-7.75296E-13
 -1      2997 2.64605E+01-4.88629E+00 6.39513E-02-2.61571E+00 4.70853E-13 9.05803E-14
 -1      2998 2.79818E+01-3.88331E+00-1.49250E-01-1.06528E+00 3.72483E-13-1.55709E-14
 -1      2999 1.31986E+01-4.17848E+00 1.96775E-01-6.47248E+00 7.27363E-13 3.09475E-13
 -1      3000 1.67927E+01-5.12057E+00-5.90976E-02-6.62761E+00 7.27945E-13 2.80304E-13
 -1      3001 2.84863E+01 4.27999E+00-2.36093E-01-1.72247E+00 2.05697E-13-4.84890E-13
 -1      3002 2.94539E+01 2.53037E+00-9.23872E-02-1.73493E+00 1.50879E-13-6.91364E-13
 -1      3003 2.82404E+01 9.83238E-01-6.69927E-02-1.82685E+00-1.05541E-13-8.19261E-13
 -1      3004 1.99760E+01 2.48489E+00-6.04988E-03-9.00949E-01-1.16484E-13-3.12601E-13
 -1      3005 2.00280E+01 2.33385E+00-1.64769E-02-1.04547E+00-1.56539E-13-2.95885E-13
 -1      3006 2.00744E+01 2.20245E+00 5.48197E-03-7.36848E-01-1.12728E-13-2.79346E-13
 -1      3007 8.71670E+00-8.58302E-01 1.57120E-01 2.28032E+00-2.56219E-13 9.96703E-14
 -1      3008 1.99357E+01 2.53774E+00 3.43574E-03 4.53412E-03 5.51476E-14-3.02509E-13
 -1      3009 1.97964E+01 2.86928E+00-5.49008E-03-6.20564E-02 5.57164E-14-3.11386E-13
 -1      3010 1.98039E+01 2.85475E+00-5.53687E-03-2.16924E-01 2.12068E-14-3.17325E-13
 -1      3011 2.79985E+01-3.11032E+00-2.89976E-02 4.34149E-01-1.88673E-13-7.60447E-13
 -1      3012 2.68045E+01-3.82582E+00-1.14810E-02 1.06080E+00-1.00998E-13-7.50226E-13
 -1      3013 2.75797E+01-1.98136E+00-1.21772E-01-8.07464E-01-1.50227E-13-9.71154E-13
 -1      3014 1.85748E+01-5.00328E+00 6.84824E-02 6.26540E+00-3.19883E-13-9.76441E-14
 -1      3015 1.69282E+01-4.02509E+00 9.64435E-02 6.12227E+00-1.19793E-13-4.20247E-13
 -1      3016 2.05620E+01-4.83602E+00 5.23784E-02 5.29673E+00-3.64465E-13-3.33272E-13
 -1      3017 2.77955E+01-3.02624E+00-2.96842E-02 1.43360E-01 2.73917E-13-1.56403E-14
 -1      3018 2.02899E+01 1.58739E+00-1.19036E-03 1.16711E+00 2.74441E-13-1.03546E-13
 -1      3019 7.85973E+00-6.68828E-01 8.79565E-02-1.18241E+00-9.53751E-15 6.94722E-14
 -1      3020 7.51020E+00-1.30695E+00 2.39270E-01-2.57374E+00 2.89629E-14-1.12216E-13
 -1      3021 8.98513E+00-1.54239E+00 5.76813E-02-3.74435E+00 2.35950E-13-3.93852E-13
 -1      3022 2.67244E+01-3.40697E+00-6.51880E-03-4.45340E-01-7.37709E-14 1.15880E-14
 -1      3023 2.02654E+01 1.02691E+00-4.82521E-04-6.71979E-01-1.40762E-13-2.24285E-13
 -1      3024 2.57312E+01 3.86339E+00-6.09174E-02-1.41574E+00-1.34212E-13 6.96283E-14
 -1      3025 2.67929E+01 4.71909E+00-9.23443E-02-8.79538E-01-1.83117E-13 1.75297E-13
 -1      3026 2.84055E+01 5.21492E+00-2.51382E-01-1.61395E+00-1.24567E-13 2.74489E-13
 -1      3027 2.58192E+01 2.76276E+00-1.56415E-01-2.23153E+00-9.21624E-14 1.07532E-13
 -1      3028 2.44106E+01-5.22135E+00 3.64939E-02 3.76733E+00-3.00232E-13-2.45165E-13
 -1      3029 2.90695E+01 4.20705E+00-1.43295E-01-2.21257E+00-4.13003E-14 2.19824E-13
 -1      3030 8.11186E+00-2.54246E-01 1.65962E-01 2.73736E-01-5.08985E-14-8.70970E-14
 -1      3031 2.04018E+01 5.05085E-01 5.99929E-03 1.56195E+00 1.87834E-13-4.74409E-14
 -1      3032 2.05281E+01 2.93003E-01-6.08589E-04 1.62702E+00-5.37637E-14 6.83700E-14
 -1      3033 2.02483E+01 6.47893E-01-4.16226E-03 1.66494E+00 8.48827E-15-7.34785E-14
 -1      3034 2.72198E+01 4.36155E+00-9.16084E-02-1.48876E+00 1.06470E-13-3.04798E-13
 -1      3035 2.72930E+01 3.07456E+00-8.24190E-02 2.25182E+00 1.64591E-13-2.24099E-13
 -1      3036 2.68132E+01 5.44986E+00-9.02945E-02 6.61146E-01 2.22961E-13 2.43208E-15
 -1      3037 1.26012E+01-3.16392E+00 1.65246E-01-5.86650E+00 5.98299E-13-9.71168E-14
 -1      3038 2.27034E+01-4.80115E+00 5.23361E-02-3.90643E+00-1.58998E-13 1.94903E-13
 -1      3039 2.02026E+01 5.89234E-01 5.40731E-03-2.06425E+00 1.23554E-14-1.54109E-13
 -1      3040 1.99011E+01 9.19793E-01-7.40621E-03-1.98265E+00 2.00919E-13 1.07252E-13
 -1      3041 1.97123E+01 7.84082E-01-6.99949E-03-2.12694E+00 1.06813E-13-3.36639E-15
 -1      3042 2.03331E+01 3.60694E-01 5.12161E-03-2.16665E+00-8.03420E-14-2.91418E-13
 -1      3043 1.94067E+01-4.82820E+00 8.96834E-02-5.69747E+00 6.14328E-13 3.82170E-13
 -1      3044 2.51898E+01-5.07499E+00 3.95526E-02-2.99688E+00 4.47795E-13 1.78649E-13
 -1      3045 2.68579E+01 3.76304E+00-9.09665E-02 1.54824E+00-5.83145E-14-3.84276E-14
 -1      3046 1.24307E+01-2.55067E+00 1.25982E-01 5.35730E+00-2.02616E-15-3.71883E-13
 -1      3047 2.72997E+01 2.42975E+00-5.03368E-02-2.62428E+00-7.88952E-14 2.49578E-13
 -1      3048 2.22417E+01-4.87762E+00 1.26162E-01 4.16105E+00-1.05471E-15 1.50180E-13
 -1      3049 1.55387E+01-3.56676E+00 1.24614E-01-6.00502E+00-9.60065E-14-1.26024E-13
 -1      3050 1.80850E+01-3.71091E+00 6.33554E-02-5.20591E+00 6.10970E-14-4.23828E-14
 -1      3051 1.38111E+01-2.53381E+00 1.01861E-01-5.39850E+00-4.84265E-14-1.17739E-13
 -1      3052 1.58690E+01-3.49002E+00 1.43767E-01 5.55699E+00-1.76525E-14-1.62231E-14
 -1      3053 8.79683E+00-1.13794E+00 1.82099E-01-3.53345E+00-6.82648E-14-3.86108E-13
 -1      3054 1.07531E+01-1.40450E+00 5.70136E-02-4.32601E+00-1.50005E-13-3.51982E-13
 -1      3055 9.31676E+00-4.19733E-01 1.41988E-01-2.59603E+00-3.58602E-14-2.72421E-13
 -1      3056 1.03841E+01-1.24980E+00 1.62306E-01 3.74263E+00-2.00701E-13 2.05516E-13
 -1      3057 1.98992E+01 9.40015E-01-7.59591E-03 1.74738E+00-3.05084E-15-4.72378E-13
 -1      3058 2.01022E+01 7.70878E-01 6.30274E-03 1.72852E+00-5.06693E-14-1.40040E-13
 -1      3059 2.01856E+01 5.05202E-01-2.57845E-04 1.84111E+00 1.50822E-14-2.09747E-13
 -1      3060 1.97507E+01 7.62050E-01-2.39021E-03 1.90260E+00 8.67112E-15-4.80102E-13
 -1      3061 1.98193E+01 2.81936E+00-5.69823E-03-3.52377E-01 3.21722E-15-3.05544E-13
 -1      3062 1.98430E+01 2.77074E+00-6.40347E-03-5.06178E-01-2.42828E-14-3.16261E-13
 -1      3063 1.99952E+01 2.39698E+00 4.39591E-03-5.08946E-01-3.46339E-14-2.95943E-13
 -1      3064 1.99502E+01 2.50365E+00 3.60842E-03-2.56327E-01 3.39592E-15-2.92185E-13
 -1      3065 2.02793E+01 1.36599E+00 2.07248E-03 9.20946E-01 2.56028E-13-1.20502E-13
 -1      3066 2.77244E+01 4.99799E-01-7.51364E-02 2.10751E+00-2.26208E-14-1.58110E-13
 -1      3067 2.02405E+01 1.47898E+00-6.69162E-03 8.03958E-01 2.26614E-13-1.45343E-13
 -1      3068 2.02018E+01 1.66907E+00-3.73192E-04 7.47519E-01 2.08908E-13-1.82507E-13
 -1      3069 2.56546E+01-3.84526E+00 7.13498E-02-9.71298E-01-1.45611E-13 6.60270E-14
 -1      3070 2.63763E+01-2.72261E+00-1.43577E-01 6.57174E-01-2.21372E-13-2.01852E-14
 -1      3071 2.02198E+01 4.20156E-01 2.34740E-03-1.22778E-01-1.02887E-13-1.42573E-13
 -1      3072 2.01823E+01 3.15837E-01-2.14695E-03-3.64101E-02-8.96405E-14-1.56368E-13
 -1      3073 2.01680E+01 2.31794E-01 3.00662E-03 2.46384E-02-1.12820E-13-1.47040E-13
 -1      3074 2.01383E+01 1.61837E-01-1.29804E-03 7.58521E-02-1.31865E-13-1.72974E-13
 -1      3075 2.02397E+01 3.31534E-01-9.37112E-04-2.75812E-02-1.05134E-13-1.46258E-13
 -1      3076 2.01216E+01 1.08368E-01 2.21958E-03 1.12018E-01-1.26274E-13-1.70664E-13
 -1      3077 2.01008E+01 6.38905E-02-5.97367E-04 1.39641E-01-1.01301E-13-1.89601E-13
 -1      3078 2.01987E+01 1.68782E-01-1.07131E-03 7.55056E-02-1.37475E-13-1.31480E-13
 -1      3079 2.00847E+01 3.07143E-02 1.44408E-03 1.57906E-01-4.96945E-14-2.02820E-13
 -1      3080 2.00715E+01 3.97515E-03-1.42238E-04 1.69944E-01-5.22254E-14-1.65651E-13
 -1      3081 2.01602E+01 6.40390E-02-9.93092E-04 1.34327E-01-8.13259E-14-1.80406E-13
 -1      3082 2.00573E+01-1.51276E-02 8.48956E-04 1.76420E-01-6.60416E-14-1.37441E-13
 -1      3083 2.00499E+01-2.94771E-02 1.49047E-04 1.78796E-01-1.01146E-13-1.11190E-13
 -1      3084 2.01267E+01 2.35351E-04-8.60825E-04 1.62506E-01-4.67319E-14-1.70667E-13
 -1      3085 2.00379E+01-3.87223E-02 4.11031E-04 1.78196E-01-1.36836E-13-7.55646E-14
 -1      3086 2.00349E+01-4.43377E-02 3.36161E-04 1.75255E-01-1.26935E-13-9.19683E-14
 -1      3087 2.00989E+01-3.47443E-02-7.14856E-04 1.71005E-01-7.34606E-14-1.20813E-13
 -1      3088 2.00249E+01-4.65920E-02 9.65245E-05 1.71121E-01-1.46279E-13-8.70616E-14
 -1      3089 2.00251E+01-4.59594E-02 4.60586E-04 1.66036E-01-1.12502E-13-1.02480E-13
 -1      3090 2.00767E+01-4.92936E-02-5.77752E-04 1.68252E-01-1.30562E-13-7.26733E-14
 -1      3091 2.00170E+01-4.31476E-02-1.29357E-04 1.61003E-01-6.60584E-14-8.25027E-14
 -1      3092 2.00195E+01-3.79090E-02 5.51382E-04 1.56114E-01-2.14435E-14-3.09467E-14
 -1      3093 2.00594E+01-4.91673E-02-4.56998E-04 1.60580E-01-7.75089E-14-1.04490E-15
 -1      3094 2.00129E+01-3.12690E-02-2.97198E-04 1.52162E-01-4.69744E-14-5.05881E-14
 -1      3095 2.00171E+01-2.24396E-02 6.29254E-04 1.49243E-01-3.72067E-14-4.51103E-14
 -1      3096 2.00461E+01-3.81995E-02-3.52972E-04 1.52734E-01-5.31505E-14 2.58682E-15
 -1      3097 2.00116E+01-1.26954E-02-4.32423E-04 1.47914E-01-1.78507E-14-7.71514E-14
 -1      3098 2.00173E+01-8.16821E-04 7.09043E-04 1.48379E-01 7.84275E-16-7.65394E-14
 -1      3099 2.00358E+01-1.87874E-02-2.61977E-04 1.48341E-01-4.91990E-14-8.81616E-14
 -1      3100 2.00124E+01 1.16944E-02-5.55844E-04 1.50943E-01-4.31628E-14-7.91616E-14
 -1      3101 2.00194E+01 2.64351E-02 8.01035E-04 1.56008E-01-9.41915E-14-6.19247E-14
 -1      3102 2.00277E+01 7.75514E-03-1.78464E-04 1.50286E-01-3.87042E-14-9.72921E-14
 -1      3103 2.00146E+01 4.16609E-02-6.84308E-04 1.63597E-01-1.31709E-13-1.98212E-14
 -1      3104 2.00228E+01 5.93305E-02 9.11908E-04 1.74389E-01-1.41643E-13-5.65136E-14
 -1      3105 2.00206E+01 4.09244E-02-9.55350E-05 1.61021E-01-9.75542E-14-1.15462E-13
 -1      3106 2.00174E+01 7.74119E-02-8.31397E-04 1.88086E-01-1.24425E-13-3.14927E-14
 -1      3107 2.00270E+01 9.82357E-02 1.04514E-03 2.05719E-01-1.12363E-13-2.85913E-14
 -1      3108 2.00135E+01 8.07929E-02-5.02500E-06 1.82782E-01-1.07246E-13-4.01391E-14
 -1      3109 2.00203E+01 1.19413E-01-1.00774E-03 2.26617E-01-7.76072E-14-3.33061E-15
 -1      3110 2.00313E+01 1.43668E-01 1.20121E-03 2.52229E-01-3.83931E-14-4.50156E-14
 -1      3111 2.00050E+01 1.27787E-01 1.02278E-04 2.17740E-01-9.03093E-14 1.55579E-14
 -1      3112 2.00224E+01 1.68166E-01-1.22077E-03 2.81451E-01-3.51788E-14 2.85877E-16
 -1      3113 2.00349E+01 1.96047E-01 1.37782E-03 3.16199E-01-8.61294E-14 2.09826E-14
 -1      3114 1.99936E+01 1.82441E-01 2.36261E-04 2.68072E-01-4.58911E-14-8.95409E-16
 -1      3115 2.00227E+01 2.23920E-01-1.47370E-03 3.54889E-01-1.48164E-13 6.13184E-14
 -1      3116 2.00366E+01 2.55343E-01 1.57088E-03 3.99889E-01-1.26851E-13 3.21255E-14
 -1      3117 1.99775E+01 2.45091E-01 4.06291E-04 3.35976E-01-1.05547E-13-7.10021E-15
 -1      3118 2.00200E+01 2.86241E-01-1.76325E-03 4.49170E-01-1.06627E-13 4.34667E-14
 -1      3119 2.00352E+01 3.20552E-01 1.77705E-03 5.05392E-01-3.38901E-14-1.33201E-14
 -1      3120 1.99544E+01 3.15436E-01 6.18387E-04 4.23610E-01-1.02833E-13 2.97458E-14
 -1      3121 2.00128E+01 3.53367E-01-2.07549E-03 5.66292E-01 1.02353E-14 2.21022E-14
 -1      3122 2.00295E+01 3.88893E-01 1.99923E-03 6.34383E-01 3.82744E-14 4.53967E-14
 -1      3123 1.99219E+01 3.91903E-01 8.69364E-04 5.32991E-01-6.13187E-16 9.75086E-14
 -1      3124 2.00003E+01 4.21203E-01-2.37853E-03 7.07757E-01 7.95623E-15 5.93050E-14
 -1      3125 2.00187E+01 4.54568E-01 2.25698E-03 7.87786E-01-3.52839E-14 3.47679E-14
 -1      3126 1.98775E+01 4.70681E-01 1.13562E-03 6.65868E-01 5.03926E-14 1.13858E-13
 -1      3127 1.99823E+01 4.81809E-01-2.60996E-03 8.74247E-01 3.85224E-14 1.05262E-13
 -1      3128 2.00041E+01 5.06914E-01 2.60291E-03 9.65374E-01 9.52716E-14 1.54707E-13
 -1      3129 1.98193E+01 5.44276E-01 1.35289E-03 8.23646E-01 3.77236E-14 1.20729E-13
 -1      3130 1.99618E+01 5.21160E-01-2.65472E-03 1.06527E+00 9.92173E-14 1.83933E-13
 -1      3131 1.99909E+01 5.27748E-01 3.14296E-03 1.16531E+00 1.21277E-13 2.34391E-13
 -1      3132 1.97474E+01 5.99382E-01 1.38124E-03 1.00745E+00 1.20354E-13 2.53807E-13
 -1      3133 1.99477E+01 5.16094E-01-2.30345E-03 1.27875E+00 1.13756E-13 2.14616E-13
 -1      3134 1.99929E+01 4.87898E-01 4.04781E-03 1.38354E+00 1.46901E-13 2.74699E-13
 -1      3135 1.96668E+01 6.13891E-01 9.47640E-04 1.21842E+00 1.29659E-13 2.47800E-13
 -1      3136 1.99609E+01 4.30587E-01-1.16811E-03 1.51025E+00 1.16907E-13 2.87193E-13
 -1      3137 2.00392E+01 3.43395E-01 5.52812E-03 1.61259E+00 1.47844E-13 2.04073E-13
 -1      3138 1.95918E+01 5.52983E-01-4.40279E-04 1.45817E+00 1.55743E-13 2.79502E-13
 -1      3139 2.00432E+01 2.12440E-01 1.51608E-03 1.75095E+00 1.10855E-13 1.58052E-13
 -1      3140 2.01844E+01 3.31763E-02 7.69592E-03 1.83825E+00 4.67571E-14 1.77730E-13
 -1      3141 1.95545E+01 3.64695E-01-3.58454E-03 1.72873E+00 9.63046E-14 2.73056E-13
 -1      3142 2.02709E+01-2.06319E-01 7.27945E-03 1.98101E+00 7.24650E-14 1.94100E-13
 -1      3143 2.05211E+01-5.15719E-01 1.04420E-02 2.03006E+00 1.27148E-13 2.54581E-13
 -1      3144 1.96179E+01-2.33323E-02-9.51891E-03 2.02926E+00 3.76493E-14 2.74720E-13
 -1      3145 2.07680E+01-8.94849E-01 1.86746E-02 2.15425E+00-8.84733E-14 1.54152E-13
 -1      3146 2.11912E+01-1.36346E+00 1.31075E-02 2.12088E+00-3.08146E-13 4.73202E-14
 -1      3147 1.98945E+01-6.96028E-01-1.86678E-02 2.34172E+00-3.57998E-14 2.53872E-13
 -1      3148 2.17217E+01-1.88891E+00 3.72459E-02 2.16403E+00-2.38559E-13 1.13798E-13
 -1      3149 2.23693E+01-2.47137E+00 1.24422E-02 1.96655E+00-7.01357E-14 2.00872E-13
 -1      3150 2.05476E+01-1.73145E+00-3.84451E-02 2.60131E+00-1.75778E-13 1.80548E-13
 -1      3151 2.33633E+01-3.02893E+00 6.81757E-02 1.73636E+00 1.16699E-14 2.22037E-13
 -1      3152 2.42553E+01-3.44897E+00 2.58318E-02 1.20769E+00 3.60302E-14 2.72029E-13
 -1      3153 2.19503E+01-3.14828E+00-7.27261E-02 2.62675E+00-2.64927E-14 2.91954E-13
 -1      3154 2.73811E+01-2.63455E+00-4.31313E-02-1.24638E+00-1.22204E-13 4.13149E-13
 -1      3155 2.50920E+01-4.84023E+00-5.21298E-02 2.68414E+00-1.96110E-13-3.13225E-13
 -1      3156 2.32631E+01-5.00249E+00 4.30374E-02 3.99242E+00-3.29573E-13-1.84421E-13
 -1      3157 1.80470E+01-3.77692E+00 2.06726E-01-5.68657E+00 4.91898E-13 4.80789E-13
 -1      3158 2.09894E+01-4.81063E+00-9.03320E-02-4.91005E+00 4.27609E-13 6.14460E-13
 -1      3159 2.51991E+01-3.53484E+00-5.44719E-03-8.24939E-01 3.27672E-14-3.04305E-14
 -1      3160 2.44006E+01-3.40364E+00 5.24876E-02-1.46947E+00 6.31138E-14-1.81276E-13
 -1      3161 2.32663E+01-2.97680E+00-2.00172E-03-1.95909E+00 2.43271E-13-2.14785E-13
 -1      3162 2.25797E+01-2.42565E+00 4.34690E-02-2.30367E+00 1.88503E-13-2.14404E-14
 -1      3163 2.32289E+01-3.71301E+00-6.62717E-02-2.55795E+00 1.94151E-13-2.43312E-14
 -1      3164 2.18799E+01-1.87937E+00 6.23139E-03-2.40727E+00 1.15438E-13 4.47242E-14
 -1      3165 2.13806E+01-1.34055E+00 2.55730E-02-2.53659E+00 1.70114E-13 5.52408E-14
 -1      3166 2.14852E+01-2.38806E+00-4.97496E-02-2.92569E+00 2.01013E-13 1.66301E-13
 -1      3167 2.10152E+01-8.74369E-01 7.82160E-03-2.47927E+00 6.79849E-14 1.72287E-14
 -1      3168 2.07008E+01-4.52428E-01 1.47667E-02-2.47310E+00-5.20352E-14-8.26332E-14
 -1      3169 2.05592E+01-1.17603E+00-3.25034E-02-2.84997E+00 1.14872E-13 3.94592E-13
 -1      3170 2.36291E+01-4.52840E+00-8.77659E-02 2.67019E+00 6.80532E-14 1.09933E-13
 -1      3171 2.14914E+01-4.09196E+00 1.04517E-01 3.83910E+00 6.30052E-14 1.93681E-13
 -1      3172 1.99866E+01-3.93936E-02 3.43772E-04-1.80191E-01 3.89953E-14-1.62028E-14
 -1      3173 1.99852E+01-3.38369E-02 4.03156E-04-1.83669E-01 6.06912E-14-3.05658E-14
 -1      3174 1.99943E+01-2.50642E-02 1.84834E-04-1.84338E-01 6.96442E-14-4.71559E-14
 -1      3175 1.99975E+01-1.16570E-02 8.87096E-04-1.82232E-01 4.15037E-14-3.81982E-14
 -1      3176 2.00517E+01-3.04695E-02-7.69762E-04-1.79642E-01 5.55325E-14-4.09690E-14
 -1      3177 1.99865E+01-3.60592E-02 5.33283E-04-1.58168E-01 2.16150E-14-3.83716E-14
 -1      3178 1.99799E+01-4.00875E-02-1.57806E-04-1.63980E-01 3.95452E-14-4.43682E-14
 -1      3179 1.99916E+01-2.37913E-02 6.09592E-04-1.49214E-01 8.14186E-14-5.32175E-14
 -1      3180 1.99835E+01-3.08872E-02-3.13930E-04-1.53260E-01 5.78003E-14-6.04472E-14
 -1      3181 2.00189E+01-3.79796E-02-3.48204E-04-1.57613E-01 5.84304E-14-1.19757E-13
 -1      3182 1.99993E+01-6.42360E-03 6.93244E-04-1.45835E-01 4.54945E-14-5.02213E-14
 -1      3183 1.99899E+01-1.60272E-02-4.26629E-04-1.46748E-01 8.05072E-14-2.90191E-14
 -1      3184 2.00158E+01-2.22301E-02-2.71020E-04-1.51028E-01 5.22961E-14-9.12395E-14
 -1      3185 2.00094E+01 1.53886E-02 7.93669E-04-1.50429E-01 2.54046E-14-4.33546E-14
 -1      3186 1.99985E+01 3.54784E-03-5.17242E-04-1.47074E-01 4.39565E-14-5.57632E-14
 -1      3187 2.00151E+01-4.86999E-04-2.13778E-04-1.50479E-01 4.51837E-14-5.93922E-14
 -1      3188 2.00216E+01 4.13970E-02 9.16722E-04-1.65094E-01-5.61909E-14-8.53653E-15
 -1      3189 2.00091E+01 2.74038E-02-6.01782E-04-1.56461E-01-3.66017E-14-5.40822E-14
 -1      3190 2.00162E+01 2.65501E-02-1.71025E-04-1.58395E-01-1.12859E-15 8.58925E-15
 -1      3191 2.00364E+01 7.15538E-02 1.06516E-03-1.91782E-01-4.06393E-14 1.10579E-15
 -1      3192 2.00218E+01 5.54140E-02-6.90856E-04-1.76925E-01-2.84779E-14 4.89954E-15
 -1      3193 2.00187E+01 5.86156E-02-1.37072E-04-1.76929E-01-6.13187E-14-2.06543E-14
 -1      3194 2.00540E+01 1.05786E-01 1.23825E-03-2.32359E-01-2.71429E-14-9.49243E-15
 -1      3195 2.00367E+01 8.75471E-02-7.90150E-04-2.10381E-01-3.04223E-14 2.05968E-14
 -1      3196 2.00221E+01 9.56235E-02-1.07519E-04-2.08093E-01-5.74675E-14-3.00608E-14
 -1      3197 2.00749E+01 1.43713E-01 1.43140E-03-2.88566E-01-1.64167E-14 2.92369E-14
 -1      3198 2.00543E+01 1.23618E-01-8.99541E-04-2.58659E-01 5.11346E-15 5.40619E-14
 -1      3199 2.00261E+01 1.37388E-01-8.02286E-05-2.53811E-01-3.63567E-14-6.66881E-16
 -1      3200 2.00999E+01 1.84276E-01 1.63567E-03-3.61873E-01 2.52783E-14 9.15590E-14
 -1      3201 2.00752E+01 1.62968E-01-1.01118E-03-3.23420E-01-9.08831E-15 5.33630E-14
 -1      3202 2.00305E+01 1.83269E-01-5.70733E-05-3.15879E-01 6.13388E-15 8.32854E-14
 -1      3203 2.01301E+01 2.25215E-01 1.83759E-03-4.53195E-01 4.98109E-14 8.15974E-14
 -1      3204 2.01003E+01 2.04022E-01-1.10619E-03-4.05951E-01 6.71531E-14 9.90006E-14
 -1      3205 2.00355E+01 2.31705E-01-4.73705E-05-3.95827E-01 5.41393E-14 1.84358E-13
 -1      3206 2.01674E+01 2.62364E-01 2.01944E-03-5.62439E-01 7.06657E-14 7.43210E-14
 -1      3207 2.01313E+01 2.43690E-01-1.14943E-03-5.06814E-01 5.74149E-14 8.82929E-14
 -1      3208 2.00415E+01 2.79570E-01-7.37922E-05-4.94669E-01 4.97477E-14 2.89180E-13
 -1      3209 2.02150E+01 2.88708E-01 2.15991E-03-6.87849E-01 1.77166E-14-2.84547E-14
 -1      3210 2.01708E+01 2.76543E-01-1.08152E-03-6.25314E-01 6.61580E-14 5.97893E-14
 -1      3211 2.00502E+01 3.21308E-01-1.81876E-04-6.12518E-01 1.02552E-13 3.02288E-13
 -1      3212 2.02782E+01 2.93201E-01 2.23329E-03-8.25090E-01 1.34844E-14-5.70420E-14
 -1      3213 2.02233E+01 2.93748E-01-8.07514E-04-7.58734E-01 2.38651E-14-9.20669E-14
 -1      3214 2.00651E+01 3.47799E-01-4.54259E-04-7.48050E-01 5.51577E-14 1.25175E-13
 -1      3215 2.03665E+01 2.59499E-01 2.20183E-03-9.66000E-01-5.71508E-14-7.18094E-14
 -1      3216 2.02967E+01 2.81825E-01-1.81965E-04-9.01270E-01-1.05213E-15-8.61227E-14
 -1      3217 2.00931E+01 3.44988E-01-1.02992E-03-8.97765E-01 8.65674E-15 6.73507E-14
 -1      3218 2.04956E+01 1.65094E-01 1.98814E-03-1.09685E+00-8.36501E-14-3.03144E-14
 -1      3219 2.04043E+01 2.21491E-01 1.00711E-03-1.04252E+00-1.10516E-13-8.41511E-14
 -1      3220 2.01466E+01 2.92457E-01-2.12552E-03-1.05491E+00-7.60460E-14 6.49120E-14
 -1      3221 2.06897E+01-1.79540E-02 1.41227E-03-1.19586E+00-8.67270E-14-1.22509E-14
 -1      3222 2.05673E+01 8.73853E-02 3.04389E-03-1.16525E+00-3.44401E-14-7.81071E-14
 -1      3223 2.02467E+01 1.62583E-01-4.04592E-03-1.20773E+00-5.36890E-14 3.76005E-14
 -1      3224 2.09833E+01-3.18046E-01 7.11391E-05-1.22965E+00-9.23695E-14-8.44715E-14
 -1      3225 2.08179E+01-1.49509E-01 6.25317E-03-1.24200E+00-1.03959E-13 7.60432E-16
 -1      3226 2.04272E+01-7.81755E-02-7.14094E-03-1.33634E+00-8.49952E-14-8.41228E-14
 -1      3227 2.14181E+01-7.49866E-01-2.63042E-03-1.14863E+00-1.15316E-13 7.75717E-14
 -1      3228 2.11988E+01-5.13232E-01 1.08253E-02-1.23012E+00-1.16639E-13 3.71637E-14
 -1      3229 2.07377E+01-4.62468E-01-1.16192E-02-1.40708E+00-1.81419E-13 7.21168E-14
 -1      3230 2.20288E+01-1.28433E+00-7.41069E-03-8.84391E-01 2.84516E-14 7.46215E-14
 -1      3231 2.17556E+01-1.00156E+00 1.66385E-02-1.06601E+00-6.11249E-14 5.61592E-14
 -1      3232 2.12419E+01-1.00310E+00-1.68167E-02-1.36315E+00-9.00900E-14 3.13170E-14
 -1      3233 2.28258E+01-1.78805E+00-8.37671E-03-3.54129E-01-2.55373E-14 6.01353E-14
 -1      3234 2.25086E+01-1.54403E+00 2.17374E-02-6.65002E-01 1.28515E-13 9.75217E-14
 -1      3235 2.20022E+01-1.65160E+00-2.01944E-02-1.11347E+00 5.57529E-15 4.51549E-15
 -1      3236 2.37919E+01-1.99187E+00 1.60361E-02 4.85459E-01-2.46105E-13 7.70356E-14
 -1      3237 2.34119E+01-1.96766E+00 1.56904E-02 2.46655E-02-1.92715E-13 1.05388E-13
 -1      3238 2.29788E+01-2.22122E+00-3.12524E-02-5.38412E-01-6.70458E-14-8.37871E-16
 -1      3239 2.48713E+01-1.80454E+00-7.14099E-03 1.23307E+00-2.30899E-13 1.01423E-13
 -1      3240 2.45571E+01-2.27484E+00-2.74944E-02 7.55968E-01-2.44842E-13 8.58740E-14
 -1      3241 2.42950E+01 2.23088E+00-2.37595E-02 1.91039E+00-5.76900E-14 6.75016E-14
 -1      3242 2.44606E+01 1.25044E+00-9.27368E-02 2.29390E+00-3.22312E-15 1.15998E-13
 -1      3243 2.46907E+01 4.00410E+00-8.15144E-02 8.25713E-01 1.20209E-13 9.66588E-15
 -1      3244 2.48681E+01 3.39660E+00-9.46252E-02 1.62193E+00 4.53387E-14 4.12691E-15
 -1      3245 2.47021E+01 3.65908E+00-1.18177E-01-1.03743E+00-1.12237E-13-2.08628E-13
 -1      3246 2.46182E+01 4.12972E+00-1.14015E-01-3.16559E-01 3.33414E-14-1.52548E-13
 -1      3247 2.46205E+01-1.08732E+00-1.96643E-02-1.53548E+00 1.38937E-13-9.67195E-14
 -1      3248 2.46330E+01-2.37158E-01 7.07961E-04-1.78428E+00 1.05653E-13-7.25711E-15
 -1      3249 2.40753E+01-1.98235E+00 9.04682E-03-4.84699E-01-8.56346E-14-1.39807E-13
 -1      3250 2.42486E+01-1.68503E+00-1.71250E-02-9.28079E-01 8.48453E-15-1.02571E-13
 -1      3251 2.50050E+01-1.79039E+00-3.40129E-02-1.04873E+00-3.23908E-14-2.39438E-13
 -1      3252 2.31899E+01-1.97915E+00 1.94995E-02 5.22266E-01 9.98433E-14-1.54847E-13
 -1      3253 2.34860E+01-2.08558E+00-2.05648E-02 1.02789E-01 8.15263E-14-1.07647E-13
 -1      3254 2.40260E+01-2.48973E+00-2.49398E-02 1.76117E-01 9.62598E-15 3.76955E-15
 -1      3255 2.22920E+01-1.49585E+00 2.06906E-02 1.20526E+00 1.70367E-14-1.84317E-13
 -1      3256 2.26135E+01-1.78253E+00-1.30587E-02 9.10836E-01 9.63888E-14-1.70782E-13
 -1      3257 2.28823E+01-2.22667E+00-2.16310E-02 1.10775E+00 5.97961E-14-1.02955E-13
 -1      3258 2.15486E+01-8.73113E-01 1.64312E-02 1.55987E+00-7.60771E-14-2.53919E-13
 -1      3259 2.18339E+01-1.19577E+00-6.75534E-03 1.40313E+00-5.70212E-14-2.45391E-13
 -1      3260 2.19023E+01-1.56343E+00-2.06925E-02 1.63953E+00 8.73867E-17-4.07526E-14
 -1      3261 2.10072E+01-2.83459E-01 1.22405E-02 1.65401E+00 1.02853E-13 3.06317E-14
 -1      3262 2.12306E+01-5.74337E-01-2.34451E-03 1.61581E+00-6.39851E-14-2.40550E-13
 -1      3263 2.11897E+01-8.19094E-01-1.46208E-02 1.83904E+00-1.36674E-13-3.79091E-15
 -1      3264 2.06632E+01 1.05949E-01 7.08417E-03 1.66292E+00-1.16732E-13 1.47617E-13
 -1      3265 2.08252E+01-1.08839E-01-1.89969E-03 1.66517E+00 5.56893E-14 6.94637E-14
 -1      3266 2.07489E+01-2.45891E-01-8.45072E-03 1.86423E+00-1.10167E-13-2.04499E-13
 -1      3267 2.04705E+01 1.94323E-01-3.04133E-03 1.80727E+00-1.19451E-13-2.32374E-13
 -1      3268 1.91809E+01 9.13659E-01 1.53151E-02-2.13839E+00-1.71947E-14-3.35131E-14
 -1      3269 1.87642E+01 1.07989E+00-1.64433E-02-1.93859E+00 6.64041E-14-2.75174E-14
 -1      3270 1.77571E+01 1.61551E+00-9.02267E-03 2.63157E-01 7.67247E-14-1.81820E-13
 -1      3271 1.78938E+01 1.55228E+00 3.07836E-03 7.26155E-01 2.87162E-15-2.49133E-13
 -1      3272 2.14466E+01-4.22892E+00 5.78011E-02-3.99084E+00-3.97217E-14 1.78293E-13
 -1      3273 2.36940E+01-4.62957E+00-1.08465E-01-2.72347E+00-8.14904E-14 2.97633E-13
 -1      3274 2.01241E+01 2.93705E-01-2.00359E-03 4.57432E-02 1.56669E-13-6.86610E-14
 -1      3275 2.01698E+01 3.94654E-01 4.53539E-03 1.36384E-01 1.85288E-13-6.64333E-14
 -1      3276 2.02123E+01 1.77626E+00 5.87323E-03-9.21431E-01-1.58847E-13-2.51160E-13
 -1      3277 2.02821E+01 1.26267E+00-3.88212E-03-6.82105E-01-1.31309E-13-2.32661E-13
 -1      3278 2.02640E+01 9.03771E-01-1.27163E-03-4.14494E-01-1.11457E-13-2.30308E-13
 -1      3279 2.02185E+01 1.57542E+00 2.86705E-03-6.36815E-01-1.21499E-13-2.47722E-13
 -1      3280 2.68648E+01-1.04243E+00 2.58403E-02 1.84718E+00-1.01291E-13 1.04416E-13
 -1      3281 2.65187E+01 7.77705E-02-1.33882E-01 2.22479E+00-6.32897E-14 1.49346E-13
 -1      3282 1.83987E+01 1.31990E+00 1.08750E-02-1.63155E+00 1.09090E-13 7.51051E-14
 -1      3283 1.80644E+01 1.44436E+00-1.86780E-02-1.27592E+00 1.85469E-13 2.24182E-14
 -1      3284 1.83621E+01 9.86837E-01 1.01277E-02-1.95385E+00-1.01308E-14-4.55391E-14
 -1      3285 1.78542E+01-3.74259E+00-5.33963E-02 5.13474E+00-1.58970E-14 3.49859E-14
 -1      3286 1.49474E+01-2.35841E+00 1.31436E-01 4.96713E+00-2.20234E-13 1.33095E-13
 -1      3287 1.99845E+01-4.19637E-02 4.50953E-04-1.69762E-01 2.57791E-14-1.84017E-14
 -1      3288 1.99799E+01-4.19608E-02 6.93331E-05-1.75585E-01 3.44213E-14 2.15637E-14
 -1      3289 2.00358E+01-4.50690E-02-5.91964E-04-1.76300E-01 2.51562E-14-2.99917E-17
 -1      3290 2.00253E+01-4.63656E-02-4.53184E-04-1.67291E-01 3.27887E-14-5.58368E-15
 -1      3291 1.78515E+01 1.60987E+00 4.64835E-03-7.51482E-01 1.37374E-13 1.17765E-13
 -1      3292 1.77484E+01 1.63027E+00-8.62012E-03-3.00270E-01 7.49866E-14 1.17219E-13
 -1      3293 1.73608E+01 1.47698E+00 1.83269E-02-5.38849E-03 7.38237E-14-2.29934E-14
 -1      3294 1.75307E+01 1.34960E+00-6.55281E-03-1.11736E+00 2.35358E-14 1.08707E-13
 -1      3295 2.00730E+01 1.51060E-01-1.11473E-03-7.53169E-02 1.23457E-13-7.09372E-14
 -1      3296 2.01054E+01 2.16103E-01 3.70161E-03-2.17272E-02 1.34542E-13-6.33762E-14
 -1      3297 2.01902E+01 3.16417E-01-1.45930E-03 3.76124E-02 1.54861E-13-8.52754E-14
 -1      3298 1.05661E+01-3.90579E-01 7.21941E-02 2.50835E+00-4.28695E-13-8.21565E-14
 -1      3299 9.30615E+00 7.06600E-03 2.36594E-01 6.84519E-01-2.46548E-13 1.02876E-13
 -1      3300 1.24798E+01-1.47819E+00 5.35873E-02 4.45498E+00-2.22947E-13 1.47757E-13
 -1      3301 1.07136E+01-4.06960E-01 1.05768E-01 2.87344E+00-7.51066E-14 1.34101E-13
 -1      3302 1.49332E+01-1.53619E+00 9.13509E-02 4.19755E+00-1.55754E-13 1.73084E-13
 -1      3303 2.02906E+01 9.88489E-01-6.07348E-04 6.91583E-01 2.30243E-13-1.04171E-13
 -1      3304 2.02679E+01 1.30785E+00 3.48884E-03 7.72895E-01 2.30451E-13-1.21375E-13
 -1      3305 2.02746E+01 1.12751E+00 1.44745E-03 5.96133E-01 1.96601E-13-1.21748E-13
 -1      3306 2.02321E+01 7.75652E-01-3.66263E-03 4.86405E-01 2.07647E-13-9.81259E-14
 -1      3307 1.18650E+01-1.96359E+00 2.45094E-01-5.03221E+00 3.16469E-13-3.94698E-13
 -1      3308 1.42205E+01-3.14649E+00-3.79612E-02-5.78748E+00 5.55361E-13-3.30569E-14
 -1      3309 2.02740E+01 7.04115E-01-6.47120E-05-3.29064E-01-7.73719E-14-2.04839E-13
 -1      3310 2.02367E+01 5.52363E-01-2.80459E-03-1.98416E-01-7.36132E-14-1.77716E-13
 -1      3311 2.02855E+01 5.78360E-01 8.82999E-04-1.74070E-01-5.79480E-14-1.39044E-13
 -1      3312 2.03034E+01 9.29725E-01 3.39467E-03-3.45204E-01-6.22352E-14-2.15810E-13
 -1      3313 2.52118E+01 2.54234E+00-7.05948E-02-1.87066E+00-9.38485E-14-3.12573E-13
 -1      3314 2.00476E+01 2.15978E+00-4.29810E-03 2.93114E-01 1.18613E-13-2.81511E-13
 -1      3315 2.00345E+01 2.19856E+00-3.32566E-03 1.71165E-01 8.54962E-14-3.10470E-13
 -1      3316 9.26915E+00 8.43981E-02 8.14384E-02 9.25910E-01-9.45875E-14-1.15380E-13
 -1      3317 8.96702E+00 9.25166E-02 1.18313E-01-7.58781E-01 1.00206E-14-2.64427E-13
 -1      3318 1.44918E+01-2.85939E+00 1.05318E-01 5.78684E+00 5.54279E-14-5.43759E-13
 -1      3319 1.24151E+01-1.54741E+00 6.64996E-02 4.55861E+00-9.57012E-14-3.73937E-13
 -1      3320 1.67135E+01-3.08681E+00 9.28710E-02 5.40147E+00-3.35426E-14-4.61881E-13
 -1      3321 2.40465E+01-4.63103E+00 1.33463E-01-3.23292E+00 4.02574E-13 3.21972E-13
 -1      3322 2.55008E+01-4.50275E+00-8.00824E-02-1.90488E+00 2.00562E-13-8.49507E-14
 -1      3323 2.68606E+01 1.33160E+00-1.31756E-01-2.12668E+00-2.10110E-14-4.42667E-13
 -1      3324 2.75054E+01-2.92024E-01-3.51230E-02-1.76647E+00-1.13611E-13-7.39325E-13
 -1      3325 2.00275E+01 2.21733E+00-3.67982E-03 6.60503E-02 5.58578E-14-3.01375E-13
 -1      3326 2.00271E+01 2.21818E+00-3.64183E-03-5.82231E-02 3.19762E-14-2.80604E-13
 -1      3327 2.01417E+01 1.92161E+00 4.97080E-03 1.01679E-01 5.95073E-14-2.78052E-13
 -1      3328 2.69080E+01-1.33583E+00-1.84552E-02-1.26009E+00-5.72146E-14-5.59414E-13
 -1      3329 1.11033E+01-1.27642E+00 8.45992E-02-3.96187E+00 2.40176E-13-4.13683E-13
 -1      3330 2.59717E+01-1.93455E+00 1.66114E-02 1.25648E+00-2.22055E-13 1.21445E-13
 -1      3331 2.19971E+01-4.81693E+00 1.67628E-02 4.58397E+00-2.87957E-13-2.01608E-13
 -1      3332 2.05001E+01-4.14357E+00 5.20776E-02 4.84522E+00-1.46865E-13-1.79957E-13
 -1      3333 2.30157E+01-4.38618E+00 2.85081E-02 3.46302E+00-1.19807E-13-2.02295E-14
 -1      3334 9.80185E+00-1.03212E-01 8.35845E-02-5.06461E-01-7.46278E-14-2.52173E-13
 -1      3335 1.08718E+01 9.25265E-02 1.20134E-01 1.99006E+00-6.77305E-14 7.84650E-14
 -1      3336 1.13409E+01 4.48808E-01 6.07673E-02 1.04475E+00-3.56624E-14 4.08146E-14
 -1      3337 1.25437E+01-8.84576E-02 1.17762E-02 2.72293E+00-1.24812E-13-5.87030E-15
 -1      3338 2.45251E+01-3.72953E+00 6.43304E-02-1.38379E+00-2.03802E-13 1.04958E-13
 -1      3339 2.51178E+01-4.00240E+00 2.47229E-02 1.18701E+00-5.29750E-14 2.87836E-13
 -1      3340 1.68595E+01-2.94166E+00 1.16965E-01-5.23531E+00 2.91607E-13 3.89098E-13
 -1      3341 2.61650E+01-3.72309E+00 3.37500E-03 4.31250E-01-9.53491E-14 1.94220E-13
 -1      3342 2.60127E+01-4.17499E+00 3.00878E-02 1.47542E+00-7.60095E-14-7.44533E-13
 -1      3343 2.49175E+01-4.20520E+00 8.88481E-03 1.94269E+00-8.76330E-14-6.65920E-13
 -1      3344 2.61129E+01-3.44289E+00-1.02909E-01 2.68838E-01-9.29638E-14-8.64881E-13
 -1      3345 2.23459E+01-4.14121E+00 3.55466E-02-3.68549E+00 2.51604E-13 4.93631E-13
 -1      3346 2.04144E+01-3.24425E+00 7.19316E-02 3.74325E+00-6.43235E-15 1.32176E-13
 -1      3347 2.01085E+01-3.02809E-01-2.32471E-02-2.62613E+00-1.19652E-13 1.21577E-13
 -1      3348 2.05290E+01-1.46885E-01 5.13321E-03-2.37878E+00-5.48388E-14-9.52310E-14
 -1      3349 2.03370E+01 1.36175E-01 5.83216E-03-2.31861E+00-9.02302E-14-2.78932E-13
 -1      3350 2.68106E+01-3.72246E+00 2.29069E-02-4.29055E-01 3.38825E-13-6.19088E-14
 -1      3351 2.71089E+01-2.43343E+00-9.29542E-02 9.40810E-01 2.61968E-13-1.20761E-13
 -1      3352 2.00742E+01 2.86399E-03-9.82084E-04-1.70564E-01 4.39248E-14-3.72618E-14
 -1      3353 2.00097E+01 5.95024E-03-6.60584E-05-1.75203E-01 8.12431E-15-4.16319E-14
 -1      3354 2.00197E+01 3.06154E-02 1.57091E-03-1.63011E-01 2.44453E-14-3.65851E-14
 -1      3355 2.48261E+01 1.79401E-01-2.01769E-02 2.21975E+00-7.04159E-14 1.19157E-13
 -1      3356 2.48371E+01-8.13113E-01-8.27453E-02 2.05007E+00-1.49843E-13 1.00466E-13
 -1      3357 2.59699E+01 3.38491E+00-1.15068E-01 2.13106E+00 9.40636E-14-5.36932E-14
 -1      3358 2.43508E+01 1.51211E+00 1.01008E-02-1.78456E+00-1.74777E-13-2.72995E-13
 -1      3359 2.61510E+01 1.68733E+00-9.33205E-02-2.08528E+00 5.03070E-15-5.13149E-13
 -1      3360 2.53136E+01-1.19659E-01-7.09338E-03-1.87160E+00-5.57783E-14-3.97735E-13
 -1      3361 2.44710E+01 4.88520E-01-5.40105E-02-1.98790E+00-3.22745E-15-6.46887E-14
 -1      3362 1.96675E+01 5.51555E-01-1.06644E-02-2.26975E+00-4.35312E-14 1.44685E-13
 -1      3363 1.94140E+01 4.10189E-01 7.39691E-03-2.41439E+00-1.24573E-13-3.85211E-14
 -1      3364 2.00548E+01 1.01983E-01 2.50158E-03-1.14652E-01 1.19697E-13-6.33306E-14
 -1      3365 2.01439E+01 1.61545E-01-1.39052E-03-7.56788E-02 1.07959E-13-8.93146E-14
 -1      3366 2.00351E+01 6.09763E-02-4.70823E-04-1.43200E-01 7.84134E-14-6.55983E-14
 -1      3367 1.76637E+01 1.26798E+00 1.06576E-02 1.10801E+00-8.63557E-14-4.56941E-14
 -1      3368 1.81368E+01 1.34848E+00-1.86236E-02 1.21343E+00-1.09411E-13-7.73444E-14
 -1      3369 1.84742E+01 1.21189E+00 1.32021E-02 1.55727E+00-2.21705E-13-1.53852E-13
 -1      3370 1.88474E+01 9.25366E-01-1.72863E-02 1.83867E+00-1.70004E-13-4.23319E-13
 -1      3371 1.92428E+01 7.53196E-01 1.26372E-02 2.00549E+00-1.11342E-13-4.26518E-13
 -1      3372 1.84271E+01 8.10090E-01-9.41686E-04 1.89916E+00-1.83342E-13-3.13216E-13
 -1      3373 2.00662E+01 2.10923E+00-2.93260E-03-3.84483E-01-2.28479E-14-2.74247E-13
 -1      3374 2.00888E+01 2.02692E+00-6.51074E-03-4.99979E-01-5.65128E-14-2.70116E-13
 -1      3375 1.92810E+01 3.67643E-01-7.73244E-03 2.21907E+00-8.24042E-15-6.58067E-13
 -1      3376 1.95713E+01 5.48412E-01-9.46638E-03 2.06312E+00 1.29728E-14-4.78798E-13
 -1      3377 1.98705E+01 4.18829E-01 6.97997E-03 2.06746E+00 4.29322E-14-3.92299E-13
 -1      3378 2.57510E+01 7.58287E-01-1.20026E-02 2.35185E+00-6.04447E-14 1.88904E-13
 -1      3379 2.64092E+01 1.74365E+00-4.39260E-02 2.49259E+00-3.64708E-14 3.34524E-14
 -1      3380 2.00974E+01-3.89829E+00 3.17429E-02-4.54264E+00 1.32533E-14 1.66495E-13
 -1      3381 2.16503E+01-3.60263E+00 7.60824E-02-3.34032E+00-3.93201E-14 2.01953E-13
 -1      3382 1.84384E+01-3.16283E+00 3.60436E-02-4.62682E+00 1.18391E-13 5.30791E-14
 -1      3383 2.74940E+01-1.24265E+00-3.99040E-02 1.83439E+00 1.83867E-13-2.11699E-13
 -1      3384 9.89742E+00 8.91792E-02 1.29190E-01-1.67710E+00-1.08975E-13-2.80498E-13
 -1      3385 1.10908E+01-1.34611E-01 3.67769E-02-2.64659E+00-1.16959E-13-2.48149E-13
 -1      3386 1.08372E+01 3.92604E-01 5.59286E-02-1.01367E+00-1.34236E-13-2.33487E-13
 -1      3387 2.01601E+01 1.80058E+00-6.97855E-03 6.86773E-01 1.93784E-13-2.04519E-13
 -1      3388 2.01255E+01 1.93006E+00-2.47949E-03 5.90963E-01 1.66754E-13-2.14982E-13
 -1      3389 2.02521E+01 1.46040E+00 5.83937E-03 5.86871E-01 1.85357E-13-1.72849E-13
 -1      3390 2.01754E+01 4.86396E-01-2.82801E-03 2.22351E-01 1.85783E-13-8.02203E-14
 -1      3391 2.02305E+01 6.35162E-01 3.79346E-03 3.62332E-01 1.88227E-13-8.98237E-14
 -1      3392 2.02607E+01 7.94189E-01 1.51633E-03 4.23523E-01 1.80602E-13-1.02838E-13
 -1      3393 2.02302E+01 5.22901E-01-1.51040E-03 2.01462E-01 1.76609E-13-7.09526E-14
 -1      3394 2.00927E+01 2.02397E+00-5.42621E-03 5.05653E-01 1.66642E-13-2.32230E-13
 -1      3395 2.00678E+01 2.10423E+00-3.06518E-03 3.92110E-01 1.38048E-13-2.58837E-13
 -1      3396 2.01639E+01 1.84671E+00 5.27288E-03 2.91866E-01 1.11560E-13-2.53220E-13
 -1      3397 2.02043E+01 1.69518E+00 5.85176E-03 4.60639E-01 1.51032E-13-2.21118E-13
 -1      3398 1.20535E+01-5.36313E-01 1.59733E-01 3.37827E+00-2.68788E-13-1.43399E-13
 -1      3399 1.18515E+01 4.16336E-02 6.39802E-03 2.00539E+00-3.40870E-13 1.24366E-13
 -1      3400 1.36833E+01-9.52788E-01 7.12186E-02 3.85566E+00-2.51679E-13-1.33789E-13
 -1      3401 1.32021E+01-1.72942E+00 1.47961E-01-4.83171E+00-1.02245E-13-1.90459E-13
 -1      3402 1.54616E+01-2.23623E+00 1.62824E-02-4.83555E+00-9.38832E-15-2.02040E-13
 -1      3403 1.28244E+01-1.02306E+00 8.93479E-02-4.05501E+00-1.29112E-13-2.94820E-13
 -1      3404 2.66167E+01-2.20593E+00-4.78499E-02 1.12910E+00 2.15361E-13-1.24234E-13
 -1      3405 2.01413E+01 1.86596E+00-1.23583E-03-5.34304E-01-8.33893E-14-2.31303E-13
 -1      3406 2.01731E+01 1.73629E+00-6.67763E-03-6.26286E-01-1.18440E-13-2.39492E-13
 -1      3407 2.02750E+01 1.29127E+00 2.57126E-03-4.32349E-01-9.58944E-14-2.17947E-13
 -1      3408 2.02172E+01 1.62635E+00 4.18451E-03-4.06065E-01-7.05487E-14-2.23066E-13
 -1      3409 2.02691E+01 2.38077E-01 2.01401E-03 3.87776E-02-1.22592E-13-1.20782E-13
 -1      3410 2.02449E+01 1.63624E-01-1.27195E-03 7.99632E-02-1.23584E-13-1.21470E-13
 -1      3411 2.02302E+01 1.05657E-01 1.58843E-03 1.06503E-01-1.21472E-13-1.28948E-13
 -1      3412 2.02090E+01 5.80552E-02-6.21610E-04 1.28979E-01-7.89482E-14-1.45129E-13
 -1      3413 2.02869E+01 1.61967E-01-4.61346E-04 7.66857E-02-1.01271E-13-9.37267E-14
 -1      3414 2.01915E+01 2.22592E-02 1.08979E-03 1.42058E-01-5.64420E-14-1.64385E-13
 -1      3415 2.01740E+01-5.93729E-03-1.69231E-04 1.51962E-01-3.36525E-14-1.70409E-13
 -1      3416 2.02493E+01 5.38665E-02-5.93501E-04 1.19383E-01-9.32576E-14-1.21476E-13
 -1      3417 2.01561E+01-2.58867E-02 6.74558E-04 1.56217E-01-2.76657E-14-2.00440E-13
 -1      3418 2.01424E+01-4.01703E-02 1.33493E-04 1.58342E-01-5.74171E-14-1.40631E-13
 -1      3419 2.02109E+01-1.10542E-02-6.20354E-04 1.39459E-01-4.28451E-14-1.88068E-13
 -1      3420 2.01252E+01-4.87684E-02 3.45044E-04 1.57457E-01-8.40643E-14-1.12031E-13
 -1      3421 2.01148E+01-5.30368E-02 3.30022E-04 1.55461E-01-9.24708E-14-7.07285E-14
 -1      3422 2.01744E+01-4.47653E-02-5.83820E-04 1.45164E-01-3.99079E-14-1.90639E-13
 -1      3423 2.00989E+01-5.34248E-02 8.70766E-05 1.52271E-01-8.28146E-14-3.98461E-14
 -1      3424 2.00912E+01-5.03722E-02 4.56235E-04 1.48900E-01-6.14984E-14 6.33435E-15
 -1      3425 2.01413E+01-5.58731E-02-5.09514E-04 1.43022E-01-6.18968E-14-1.45668E-13
 -1      3426 2.00767E+01-4.46704E-02-1.19531E-04 1.45556E-01-8.32017E-14-4.22559E-16
 -1      3427 2.00711E+01-3.60717E-02 5.39473E-04 1.42890E-01-6.54762E-14-4.24900E-14
 -1      3428 2.01117E+01-5.03984E-02-4.13949E-04 1.38041E-01-8.23294E-14-5.91057E-14
 -1      3429 2.00576E+01-2.56258E-02-2.94552E-04 1.41048E-01-6.75224E-14-7.81458E-14
 -1      3430 2.00536E+01-1.25512E-02 5.99766E-04 1.40701E-01-4.02292E-14-7.71705E-14
 -1      3431 2.00851E+01-3.23441E-02-3.03634E-04 1.34058E-01-7.97701E-14-3.97517E-14
 -1      3432 2.00406E+01 1.88608E-03-4.56369E-04 1.41680E-01-2.35079E-14-4.66966E-14
 -1      3433 2.00377E+01 1.89042E-02 6.50785E-04 1.44972E-01-3.32256E-14-3.62540E-14
 -1      3434 2.00606E+01-4.16015E-03-1.80069E-04 1.34067E-01-1.66452E-14-3.13342E-14
 -1      3435 2.00243E+01 3.70247E-02-6.20989E-04 1.49885E-01-6.74075E-14-2.86843E-14
 -1      3436 2.00219E+01 5.78488E-02 7.01154E-04 1.57970E-01-9.33213E-14-2.27358E-15
 -1      3437 2.00367E+01 3.28903E-02-4.12575E-05 1.40506E-01-4.65110E-14 2.17313E-15
 -1      3438 2.00072E+01 7.96601E-02-8.02027E-04 1.67822E-01-7.13220E-14 8.19013E-16
 -1      3439 2.00046E+01 1.04420E-01 7.55413E-04 1.81774E-01-6.51596E-14 5.51549E-14
 -1      3440 2.00117E+01 7.84156E-02 1.18154E-04 1.55480E-01-3.24909E-14 8.09464E-14
 -1      3441 1.99874E+01 1.30125E-01-1.01088E-03 1.97530E-01-1.02302E-13 2.49689E-14
 -1      3442 1.99839E+01 1.59091E-01 8.14829E-04 2.18395E-01-9.26460E-14-7.90474E-15
 -1      3443 1.99832E+01 1.32610E-01 3.05783E-04 1.80917E-01-8.27676E-14 9.88632E-14
 -1      3444 1.99626E+01 1.88955E-01-1.25674E-03 2.41014E-01-4.42631E-14 6.01259E-14
 -1      3445 1.99575E+01 2.22390E-01 8.78085E-04 2.69834E-01-5.95288E-16 6.31939E-14
 -1      3446 1.99488E+01 1.95969E-01 5.31243E-04 2.18668E-01-6.28979E-14 9.36733E-14
 -1      3447 1.99304E+01 2.56581E-01-1.54663E-03 3.00283E-01-9.42216E-14 8.06788E-14
 -1      3448 1.99225E+01 2.94552E-01 9.43000E-04 3.38076E-01-1.13849E-13 7.11581E-14
 -1      3449 1.99052E+01 2.68969E-01 8.05255E-04 2.70548E-01-4.15809E-14 1.58482E-13
 -1      3450 1.98876E+01 3.32923E-01-1.88531E-03 3.77323E-01-7.09505E-14 7.28658E-14
 -1      3451 1.98758E+01 3.75044E-01 1.01003E-03 4.25045E-01-5.17197E-14 1.04164E-13
 -1      3452 1.98487E+01 3.51663E-01 1.13818E-03 3.38339E-01-5.26965E-14 1.76502E-13
 -1      3453 1.98307E+01 4.16821E-01-2.27513E-03 4.74056E-01-2.50344E-14 1.38251E-13
 -1      3454 1.98137E+01 4.61886E-01 1.08909E-03 5.32545E-01 2.41195E-14 1.61535E-13
 -1      3455 1.97751E+01 4.43140E-01 1.53732E-03 4.23777E-01-1.59683E-14 1.35460E-13
 -1      3456 1.97559E+01 5.05220E-01-2.71598E-03 5.92311E-01 6.65604E-14 1.57766E-13
 -1      3457 1.97325E+01 5.50665E-01 1.21198E-03 6.62249E-01 5.14079E-14 1.70973E-13
 -1      3458 1.96795E+01 5.40786E-01 2.00195E-03 5.28589E-01 4.25869E-14 2.91667E-13
 -1      3459 1.96595E+01 5.91968E-01-3.20513E-03 7.33920E-01 1.43623E-14 1.14041E-13
 -1      3460 1.96294E+01 6.33106E-01 1.45330E-03 8.15860E-01 6.95969E-14 1.71281E-13
 -1      3461 1.95568E+01 6.39228E-01 2.51445E-03 6.54680E-01 9.86499E-15 2.83147E-13
 -1      3462 1.95389E+01 6.66102E-01-3.73502E-03 9.01072E-01 7.35629E-14 2.17266E-13
 -1      3463 1.95033E+01 6.95025E-01 1.96194E-03 9.95605E-01 1.01260E-13 2.17390E-13
 -1      3464 1.94021E+01 7.28861E-01 3.02416E-03 8.04663E-01 8.92563E-14 2.60352E-13
 -1      3465 1.93944E+01 7.09412E-01-4.28288E-03 1.09714E+00 1.12428E-13 1.64110E-13
 -1      3466 1.93586E+01 7.13478E-01 3.00194E-03 1.20527E+00 1.46312E-13 2.47164E-13
 -1      3467 1.92122E+01 7.93779E-01 3.41722E-03 9.82994E-01 8.23421E-14 2.41972E-13
 -1      3468 1.92332E+01 6.93147E-01-4.77099E-03 1.32816E+00 1.66933E-13 2.77542E-13
 -1      3469 1.92091E+01 6.52978E-01 4.99244E-03 1.45181E+00 1.85982E-13 3.01566E-13
 -1      3470 1.89872E+01 8.08887E-01 3.45880E-03 1.19805E+00 1.58078E-13 8.93147E-14
 -1      3471 1.90750E+01 5.73818E-01-4.93147E-03 1.60486E+00 6.76698E-14 2.98008E-13
 -1      3472 1.90873E+01 4.60817E-01 8.57096E-03 1.74704E+00-3.12718E-15 2.33101E-13
 -1      3473 1.87356E+01 7.35872E-01 2.69290E-03 1.46539E+00 9.88403E-14 1.42796E-13
 -1      3474 1.89646E+01 2.88380E-01-3.83347E-03 1.94399E+00 1.37734E-14 2.43852E-13
 -1      3475 1.90589E+01 6.26969E-02 1.49594E-02 2.10636E+00 4.47195E-14 1.85052E-13
 -1      3476 1.84812E+01 5.17491E-01 3.47287E-04 1.81162E+00 2.85593E-14 1.39099E-13
 -1      3477 1.89945E+01-2.54081E-01 3.28922E-04 2.36462E+00-1.70701E-14 1.25237E-13
 -1      3478 1.92429E+01-6.40309E-01 2.39530E-02 2.53442E+00-1.57104E-13 1.03933E-13
 -1      3479 1.82804E+01 7.06810E-02-3.94522E-03 2.27877E+00-5.92322E-14 1.37530E-13
 -1      3480 1.93422E+01-1.15221E+00 1.57083E-02 2.85741E+00-1.65243E-13 1.80910E-13
 -1      3481 1.99195E+01-1.75206E+00 3.95295E-02 2.97044E+00-8.78334E-14 2.24763E-13
 -1      3482 1.82849E+01-7.12894E-01 2.26292E-03 2.90958E+00-1.31436E-13 1.54879E-13
 -1      3483 1.94950E+01-2.43529E+00 5.87350E-02 3.67172E+00-1.36021E-13 1.47941E-13
 -1      3484 1.95043E+01-2.23838E-01 2.24880E-02-2.77272E+00-1.46129E-13 1.94168E-13
 -1      3485 1.93420E+01 1.24744E-01 1.08725E-02-2.62330E+00-1.67601E-13 1.28358E-13
 -1      3486 1.86579E+01 4.09487E-01-2.48905E-02-2.49956E+00-2.28336E-13-7.06247E-14
 -1      3487 2.60476E+01-2.97610E+00-9.95264E-03 3.85080E-01 2.11924E-13-6.96110E-14
 -1      3488 2.10074E+01-2.53707E+00 4.09829E-02-3.41871E+00 2.14080E-13 3.37683E-13
 -1      3489 2.03091E+01-1.81236E+00 3.79650E-02-3.41003E+00 2.44959E-13 4.19120E-13
 -1      3490 1.99363E+01-1.22207E+00 3.01439E-02-3.16188E+00 8.28747E-14 3.94519E-13
 -1      3491 1.96036E+01-6.85435E-01 1.86834E-02-3.02447E+00 1.64105E-15 2.72126E-13
 -1      3492 1.85693E+01-3.49705E-01-3.53356E-02-3.03606E+00-2.10663E-13 1.48779E-13
 -1      3493 1.89601E+01-1.39713E+00-8.74814E-03-3.65234E+00 1.12013E-13 4.05897E-13
 -1      3494 1.56167E+01-1.73993E+00 1.59734E-01-4.83271E+00 2.27700E-14-5.98965E-14
 -1      3495 1.81709E+01-2.82384E+00-1.25850E-02-4.75773E+00 5.96589E-14 7.62349E-13
 -1      3496 2.00391E+01-1.79020E-02 6.22681E-04-1.45770E-01 2.88491E-14-8.82387E-14
 -1      3497 2.00394E+01-2.88616E-02-2.91136E-04-1.47275E-01 3.89120E-14-1.10647E-13
 -1      3498 2.00499E+01-3.74441E-02 5.53541E-04-1.50034E-01 7.50206E-14-1.03934E-13
 -1      3499 2.00519E+01-4.44210E-02-1.19968E-04-1.53720E-01 6.41323E-14-7.58543E-14
 -1      3500 2.00693E+01-3.56103E-02-3.28300E-04-1.43601E-01 7.08954E-14-5.21332E-14
 -1      3501 2.00231E+01 4.09763E-02 7.58936E-04-1.58470E-01-5.01031E-14-9.00950E-15
 -1      3502 2.00211E+01 2.35600E-02-5.77628E-04-1.51778E-01 1.68030E-14-5.61130E-14
 -1      3503 2.00160E+01 7.93701E-02 8.42259E-04-1.79846E-01-6.06774E-14 3.26292E-14
 -1      3504 2.00133E+01 5.89512E-02-7.22548E-04-1.67445E-01-4.89670E-14-1.53800E-14
 -1      3505 2.00180E+01 5.82913E-02-1.17227E-05-1.59752E-01-2.94270E-14-5.32653E-14
 -1      3506 2.00084E+01 1.23552E-01 9.41451E-04-2.13913E-01-3.94586E-14-9.44469E-14
 -1      3507 2.00050E+01 1.00172E-01-8.80722E-04-1.94824E-01-5.39207E-14-7.11916E-14
 -1      3508 2.00004E+01 1.03582E-01 1.04228E-04-1.83906E-01-1.06652E-14-7.67836E-14
 -1      3509 1.99992E+01 1.73259E-01 1.05814E-03-2.62577E-01-6.02696E-14-5.25609E-14
 -1      3510 1.99954E+01 1.47085E-01-1.05583E-03-2.35875E-01-4.70682E-14-9.54445E-14
 -1      3511 1.99800E+01 1.55453E-01 2.29248E-04-2.20817E-01-4.79405E-14-1.67183E-13
 -1      3512 1.99876E+01 2.27656E-01 1.19318E-03-3.27644E-01-6.54932E-15 7.59194E-14
 -1      3513 1.99834E+01 1.99200E-01-1.24563E-03-2.92495E-01-1.76653E-14 4.41894E-14
 -1      3514 1.99553E+01 2.13470E-01 3.61879E-04-2.72412E-01-7.19211E-14-4.27627E-14
 -1      3515 1.99731E+01 2.84809E-01 1.34881E-03-4.10704E-01-4.65636E-15 1.66409E-13
 -1      3516 1.99683E+01 2.55211E-01-1.44011E-03-3.66454E-01 1.04758E-14 1.11610E-13
 -1      3517 1.99248E+01 2.76448E-01 4.94545E-04-3.40576E-01-4.30862E-14-8.85594E-14
 -1      3518 1.99556E+01 3.40968E-01 1.53227E-03-5.12945E-01 5.16154E-14 2.31943E-13
 -1      3519 1.99498E+01 3.12385E-01-1.61832E-03-4.59255E-01 5.50816E-14 2.44437E-13
 -1      3520 1.98872E+01 3.41838E-01 6.08663E-04-4.27084E-01 7.00019E-15 1.17505E-13
 -1      3521 1.99366E+01 3.89634E-01 1.76131E-03-6.34877E-01 1.42432E-13 1.75298E-13
 -1      3522 1.99285E+01 3.65740E-01-1.74345E-03-5.71921E-01 8.35035E-14 2.41357E-13
 -1      3523 1.98420E+01 4.04913E-01 6.66937E-04-5.33512E-01 1.03038E-13 1.08733E-13
 -1      3524 1.99197E+01 4.20334E-01 2.07104E-03-7.75988E-01 4.93694E-14 1.09031E-13
 -1      3525 1.99069E+01 4.06971E-01-1.75471E-03-7.04707E-01 1.23829E-13 1.34098E-13
 -1      3526 1.97902E+01 4.57708E-01 6.01350E-04-6.61134E-01 1.13886E-13 9.62593E-14
 -1      3527 1.99128E+01 4.17158E-01 2.51843E-03-9.34287E-01-3.19247E-14 9.42302E-14
 -1      3528 1.98906E+01 4.23106E-01-1.55331E-03-8.56734E-01 3.69310E-15 1.09445E-13
 -1      3529 1.97355E+01 4.87668E-01 2.94717E-04-8.10831E-01 4.39309E-14 1.23414E-13
 -1      3530 1.99306E+01 3.57185E-01 3.17236E-03-1.10561E+00-1.40660E-13 9.10101E-14
 -1      3531 1.98908E+01 3.94960E-01-9.77066E-04-1.02547E+00-7.96870E-14 9.41111E-14
 -1      3532 1.96864E+01 4.76016E-01-4.47430E-04-9.83001E-01-5.19192E-14 5.14887E-14
 -1      3533 1.99985E+01 2.09327E-01 4.05942E-03-1.28228E+00-3.04256E-14 9.24105E-14
 -1      3534 1.99275E+01 2.95706E-01 2.44541E-04-1.20574E+00-1.19117E-13 1.13740E-13
 -1      3535 1.96592E+01 3.95970E-01-1.93906E-03-1.17725E+00-1.46669E-13 6.35899E-14
 -1      3536 2.01574E+01-6.50292E-02 5.03703E-03-1.44997E+00-2.02175E-13 1.13668E-13
 -1      3537 2.00348E+01 9.04032E-02 2.55815E-03-1.38759E+00-6.60288E-14 1.24595E-13
 -1      3538 1.96830E+01 2.11266E-01-4.66816E-03-1.39121E+00-1.24922E-13 1.87900E-13
 -1      3539 2.04681E+01-5.06311E-01 5.47230E-03-1.58112E+00-9.69412E-14 8.08312E-14
 -1      3540 2.02663E+01-2.61276E-01 6.68375E-03-1.55119E+00-1.91732E-13 5.93154E-14
 -1      3541 1.98064E+01-1.23462E-01-9.30693E-03-1.61673E+00-1.82120E-13 1.32715E-13
 -1      3542 2.10117E+01-1.13760E+00 4.59280E-03-1.62135E+00 1.38783E-14 8.04061E-15
 -1      3543 2.07005E+01-7.94574E-01 1.35265E-02-1.65602E+00-4.44412E-14 1.02152E-13
 -1      3544 2.01061E+01-6.56570E-01-1.66272E-02-1.83024E+00-5.85372E-14 4.55105E-15
 -1      3545 2.18763E+01-1.92227E+00 1.47993E-03-1.46873E+00-1.98773E-14 7.83392E-14
 -1      3546 2.14373E+01-1.51133E+00 2.48123E-02-1.62325E+00-6.32172E-14-4.14945E-14
 -1      3547 2.06951E+01-1.41660E+00-2.55210E-02-1.97341E+00-2.10288E-14-3.22741E-14
 -1      3548 2.32272E+01-2.57478E+00 3.83288E-02-9.10371E-01-1.05244E-13 1.57574E-13
 -1      3549 2.25825E+01-2.32119E+00 4.03239E-02-1.30599E+00-1.18781E-14 2.02668E-13
 -1      3550 2.17177E+01-2.34456E+00-2.67682E-02-1.92704E+00-4.68250E-14 1.87853E-14
 -1      3551 2.44205E+01-2.87722E+00-6.01612E-02 1.34198E-03-2.19866E-13-4.25389E-14
 -1      3552 1.78113E+01-1.87852E+00 1.40749E-02 3.91819E+00-1.48742E-13 1.25736E-13
 -1      3553 2.33816E+01-3.20715E+00 1.03577E-02-1.36292E+00-9.26360E-14 6.90140E-14
 -1      3554 1.99949E+01 3.38369E-01 5.14440E-03-2.34471E+00-6.06723E-14-9.79763E-14
 -1      3555 2.52007E+01-2.94996E+00 3.84857E-02 1.27500E-01-9.85548E-14-3.96329E-13
 -1      3556 2.56487E+01-2.39573E+00-8.64093E-03-5.36465E-01-1.66827E-13-5.23064E-13
 -1      3557 2.14442E+01-1.38833E+00 1.89287E-02 2.10197E+00-7.84052E-14 1.15879E-13
 -1      3558 2.18750E+01-1.83725E+00 3.11138E-03 1.96759E+00-8.20910E-14 7.99557E-14
 -1      3559 2.07975E+01-5.79835E-01 1.06497E-02 2.09044E+00-1.41322E-13 1.21237E-13
 -1      3560 2.10959E+01-9.68866E-01 7.07384E-03 2.07359E+00-3.79950E-14 2.66881E-13
 -1      3561 2.08776E+01-1.22586E+00-1.18009E-02 2.41413E+00-1.36909E-13 1.51587E-13
 -1      3562 2.00334E+01 2.20074E+00-3.35528E-03-1.63260E-01 1.84251E-14-2.78974E-13
 -1      3563 2.00453E+01 2.16387E+00-4.35570E-03-2.85237E-01 7.44684E-16-2.81505E-13
 -1      3564 2.01612E+01 1.85050E+00 4.83678E-03-2.84868E-01-1.98188E-14-2.62384E-13
 -1      3565 1.16852E+01 3.38365E-01 4.82667E-02-5.33427E-01-1.95677E-13-3.44086E-13
 -1      3566 1.11457E+01 7.10132E-02 2.12834E-01-2.16068E+00-4.70674E-14-5.63605E-13
 -1      3567 2.24801E+01-2.27276E+00 3.16190E-02 1.82935E+00-3.36939E-14-9.20379E-14
 -1      3568 2.30281E+01-2.65880E+00-1.54762E-03 1.50650E+00 1.42161E-15-1.07503E-13
 -1      3569 2.17509E+01-2.28322E+00-3.69848E-02 2.40344E+00-1.16002E-13-1.86452E-13
 -1      3570 2.37509E+01-2.90596E+00 4.64533E-02 1.20687E+00 3.92871E-15-2.25317E-13
 -1      3571 2.43315E+01-3.00583E+00-1.72041E-03 6.73308E-01-1.30920E-14-1.98255E-13
 -1      3572 2.44466E+01-3.68919E+00-6.96124E-02 1.33772E+00-1.04973E-13-7.20209E-13
 -1      3573 2.29978E+01-3.25236E+00-5.69838E-02 2.10187E+00-1.33771E-13-6.04098E-13
 -1      3574 1.80206E+01 7.66053E-01 7.03845E-03-2.18644E+00-2.77742E-13-1.15429E-13
 -1      3575 1.75221E+01 9.88735E-01 7.79669E-03-1.84658E+00-2.33754E-13-5.16373E-14
 -1      3576 1.79212E+01 4.70929E-01 2.21961E-02-2.43467E+00-4.01888E-13-6.35272E-14
 -1      3577 2.56899E+01 5.24685E-01-2.12486E-02-2.02769E+00-7.13318E-14-5.02407E-13
 -1      3578 2.02365E+01 3.20935E-01-2.12547E-03 1.68567E-02 1.27312E-13-1.34896E-13
 -1      3579 2.02673E+01 4.30028E-01 3.19939E-03 9.10057E-02 1.52011E-13-1.37907E-13
 -1      3580 2.00304E+01 8.46791E-03 6.87952E-04-1.47808E-01 1.85509E-14-7.96134E-14
 -1      3581 2.00295E+01-5.85862E-03-4.37717E-04-1.45788E-01 1.91432E-14-5.96828E-14
 -1      3582 2.00512E+01-1.17850E-02-2.24361E-04-1.41755E-01 2.07359E-14-8.70421E-14
 -1      3583 2.00345E+01 1.97462E-02-1.20185E-04-1.46387E-01 5.64813E-15-8.43266E-14
 -1      3584 1.60375E+01-1.43912E+00 1.42810E-02 3.93369E+00-1.58649E-13 3.02557E-13
 -1      3585 1.42746E+01-4.42626E-01 1.13888E-01 3.40351E+00-1.12183E-13 1.39638E-13
 -1      3586 1.39197E+01-6.19786E-02 1.27296E-02 2.67576E+00-1.37779E-13 1.21778E-14
 -1      3587 1.68215E+01-8.88993E-01-2.16149E-02 3.33486E+00-1.65265E-13 2.30062E-13
 -1      3588 2.12998E+01-3.34948E+00 7.45438E-02-3.85943E+00 1.43487E-13 4.11282E-13
 -1      3589 2.01035E+01-3.55634E-02 1.40514E-04-1.69028E-01 5.16759E-14-2.77716E-14
 -1      3590 2.01144E+01-2.12425E-02 7.51500E-04-1.66881E-01 7.59984E-14-5.16687E-14
 -1      3591 2.00951E+01 3.38114E-01-4.00216E-03 1.99757E+00 3.92549E-14-1.90978E-13
 -1      3592 2.03208E+01 2.31261E-01 4.62659E-03 1.92812E+00 7.75213E-14-8.54999E-14
 -1      3593 2.04401E+01 1.53659E-02 5.16268E-03 1.98158E+00 6.48946E-14 4.09228E-14
 -1      3594 1.99599E+01 1.17064E-01-2.67124E-03 2.17891E+00 1.11388E-13-2.51419E-13
 -1      3595 1.84088E+01-3.43549E+00 2.78149E-02 5.23045E+00 5.49005E-14-3.63945E-13
 -1      3596 1.62003E+01-2.28465E+00 3.45221E-02 4.91925E+00 6.96457E-14-3.59802E-13
 -1      3597 1.99757E+01-3.41481E+00 5.47835E-02 4.51081E+00 9.86711E-14-1.49183E-13
 -1      3598 2.57531E+01-5.65371E-01-1.03469E-01-1.80033E+00-1.36346E-13-4.06062E-13
 -1      3599 2.03006E+01 4.37950E-01 1.21832E-03-7.41811E-02-6.38996E-14-1.77276E-13
 -1      3600 2.02774E+01 3.28058E-01-1.94645E-03-6.36323E-03-9.87516E-14-1.64369E-13
 -1      3601 2.03184E+01 3.29042E-01-2.13096E-04 1.60834E-03-9.43512E-14-1.63744E-13
 -1      3602 1.26558E+01-7.76336E-01-1.94134E-02-3.52981E+00 4.77691E-14-6.13898E-13
 -1      3603 2.63734E+01-1.79663E+00 2.43121E-02-1.09839E+00-1.01696E-13-4.87277E-13
 -1      3604 1.68219E+01-1.66755E+00 5.74309E-02 4.27275E+00 2.83627E-14-8.01269E-14
 -1      3605 1.51594E+01-1.29801E+00 8.38315E-02 4.34971E+00-1.29018E-13-1.07012E-13
 -1      3606 1.43326E+01-5.44035E-01 3.45133E-03 3.37243E+00-2.30198E-13-1.85268E-14
 -1      3607 1.47289E+01-6.70073E-01 6.19641E-02-3.45475E+00-1.49651E-13-2.77535E-13
 -1      3608 1.76318E+01-2.53525E+00 8.49232E-02-4.56480E+00 1.40350E-13 7.01869E-14
 -1      3609 1.93895E+01-2.74635E+00 3.25638E-02-3.86640E+00-4.97779E-15 3.40138E-13
 -1      3610 1.66965E+01-1.88003E+00 3.04042E-02-4.22690E+00 3.17385E-14-9.75539E-14
 -1      3611 2.01307E+01-1.67785E-03-1.60199E-04-1.61765E-01 5.06628E-14-7.28171E-14
 -1      3612 2.01463E+01 2.58402E-02 1.24253E-03-1.51025E-01 2.46305E-14-6.95782E-14
 -1      3613 2.01755E+01-6.26649E-03-7.13840E-04-1.51430E-01 3.92435E-14-1.19620E-13
 -1      3614 2.55281E+01-3.75314E+00-2.39525E-03-8.76791E-01 1.01211E-13-8.27810E-14
 -1      3615 2.02915E+01 1.21648E+00 2.67669E-03-3.44753E-01-6.65983E-14-1.84949E-13
 -1      3616 2.03051E+01 1.04029E+00-3.46840E-03-3.42101E-01-6.46367E-14-2.15020E-13
 -1      3617 1.66891E+01 1.37723E+00 1.50344E-02-2.86935E-01 5.16674E-14 7.24559E-14
 -1      3618 1.66764E+01 1.30412E+00-1.28274E-02 3.23456E-01 8.12900E-14-1.05476E-13
 -1      3619 2.01048E+01 6.29307E-02-1.20855E-03-1.39947E-01 4.43866E-14-4.22001E-14
 -1      3620 2.00901E+01-5.02623E-02-4.28914E-04-1.49299E-01 7.65884E-14-7.44794E-14
 -1      3621 2.00637E+01-4.87377E-02 4.65785E-04-1.57836E-01 5.71692E-14-7.90149E-14
 -1      3622 2.00680E+01-5.06432E-02 9.51250E-05-1.62019E-01 4.80719E-14-3.53745E-14
 -1      3623 2.02143E+01 1.61011E+00-1.49759E-03-1.97092E-01-1.23466E-14-2.15507E-13
 -1      3624 2.02237E+01 1.55062E+00-3.99404E-03-2.79875E-01-5.62906E-14-2.13542E-13
 -1      3625 1.94941E+01-2.95955E+00-5.02348E-03-4.46293E+00 1.74250E-13 7.72070E-13
 -1      3626 2.02480E+01 1.46793E+00 1.50816E-03-3.08100E-01-5.91407E-14-2.29747E-13
 -1      3627 2.02752E+01 1.30155E+00-3.87899E-03-3.32390E-01-7.73075E-14-1.83196E-13
 -1      3628 2.03226E+01 1.07098E+00 1.39133E-03-2.47128E-01-5.74808E-14-2.01912E-13
 -1      3629 2.03064E+01 1.25769E+00 3.45053E-03-2.17662E-01-5.84943E-14-2.01268E-13
 -1      3630 2.02776E+01 1.14602E+00-3.60054E-03 4.93377E-01 1.77765E-13-1.63927E-13
 -1      3631 2.02679E+01 1.28696E+00 3.05636E-04 4.55799E-01 1.58677E-13-1.78013E-13
 -1      3632 1.90457E+01 1.01946E-01-1.36206E-02 2.42166E+00-1.74594E-13-8.18458E-13
 -1      3633 1.95354E+01-7.00714E-02 9.16035E-03 2.47305E+00 2.81786E-14-8.06290E-13
 -1      3634 2.01410E+01 1.92305E+00 4.95999E-03-9.49943E-02 1.67817E-14-2.67079E-13
 -1      3635 2.05987E+01-2.12516E-01 3.80831E-03 1.99370E+00 1.54893E-14 1.04866E-13
 -1      3636 2.01994E+01 1.62386E-01-1.27225E-03-8.06595E-02 9.58545E-14-1.08846E-13
 -1      3637 2.02259E+01 2.34766E-01 2.55726E-03-3.53429E-02 1.17827E-13-1.31059E-13
 -1      3638 2.02840E+01 3.29474E-01-3.79183E-04 8.16072E-03 1.22647E-13-1.36639E-13
 -1      3639 1.69313E+01 1.15211E+00-1.40012E-02 1.04921E+00 5.51685E-14-1.93892E-13
 -1      3640 1.73391E+01 9.94152E-01 1.61467E-02 1.55412E+00 5.37049E-14-2.72775E-14
 -1      3641 1.63260E+01 1.08244E+00 1.32634E-02 8.12287E-01 1.63025E-13-1.04983E-13
 -1      3642 1.78671E+01 6.42131E-01-2.16387E-02 2.01116E+00-2.25113E-14 6.15973E-15
 -1      3643 1.84681E+01 4.45494E-01 2.68694E-02 2.27584E+00-1.21198E-13-4.22321E-13
 -1      3644 1.85258E+01-6.61887E-02-1.97143E-02 2.60387E+00-9.25909E-14-5.26749E-13
 -1      3645 1.72345E+01 5.65599E-01-9.59879E-04 2.02950E+00 5.94452E-14-1.30827E-14
 -1      3646 2.41263E+01-4.11721E+00 2.83232E-02 2.35699E+00-1.32751E-13-4.99300E-13
 -1      3647 1.81971E+01-1.86634E+00 2.04147E-02-4.17489E+00 6.83438E-14 6.90170E-13
 -1      3648 2.02251E+01 1.54670E+00-4.18856E-03 2.85824E-01 1.04341E-13-2.31262E-13
 -1      3649 2.02146E+01 1.60579E+00-2.05683E-03 2.02149E-01 7.84266E-14-2.47252E-13
 -1      3650 2.14607E+01-3.08979E+00-3.53616E-03-2.77779E+00-3.77211E-14 2.78076E-14
 -1      3651 2.25785E+01-3.48345E+00-4.08940E-02-2.26928E+00-4.05002E-14 5.03122E-14
 -1      3652 2.02061E+01 1.63880E+00-3.34457E-03 1.30767E-01 6.68767E-14-2.61747E-13
 -1      3653 2.02021E+01 1.65871E+00-2.65757E-03 3.99556E-02 4.01252E-14-2.53963E-13
 -1      3654 2.02894E+01 1.38550E+00 5.07275E-03 1.34372E-01 7.55889E-14-2.21400E-13
 -1      3655 1.70902E+01 1.12658E+00-1.91789E-02-1.32417E+00-1.65763E-13 4.90532E-14
 -1      3656 1.24657E+01 6.08469E-01 1.84815E-02 1.07548E+00-9.00475E-14 1.95781E-14
 -1      3657 1.14670E+01 7.35086E-01 1.16813E-01 1.58751E-01-1.26305E-14-8.59035E-15
 -1      3658 1.19625E+01 6.17638E-01 3.23648E-02-7.02037E-01-8.74145E-14-7.99361E-14
 -1      3659 2.30205E+01-3.81280E+00 4.66940E-02 2.89342E+00-2.12081E-13-4.06896E-13
 -1      3660 2.02811E+01 8.79468E-01-1.09869E-03 4.46490E-01 1.69181E-13-1.32735E-13
 -1      3661 2.02815E+01 1.05844E+00 1.71180E-03 4.83728E-01 1.74611E-13-1.45002E-13
 -1      3662 2.02951E+01 9.14671E-01 6.45540E-04 3.55259E-01 1.64517E-13-1.57385E-13
 -1      3663 2.02677E+01 7.28239E-01-1.06204E-03 3.20839E-01 1.56151E-13-1.28358E-13
 -1      3664 1.26163E+01 6.93617E-01 1.40167E-01 6.65651E-01-1.18438E-13-6.75952E-14
 -1      3665 1.30690E+01 5.55522E-01-1.54261E-02-7.59291E-01-4.45971E-14-5.10852E-13
 -1      3666 2.00813E+01-4.93742E-02 3.37614E-04-1.65688E-01 2.39698E-14-3.08844E-14
 -1      3667 2.00885E+01-4.44718E-02 3.77194E-04-1.68177E-01 3.54865E-14-4.65111E-14
 -1      3668 2.01428E+01-4.05316E-02-6.28987E-04-1.58135E-01 6.73788E-14-8.56782E-14
 -1      3669 2.01145E+01-5.32226E-02-5.28060E-04-1.55557E-01 5.97142E-14-8.01010E-14
 -1      3670 2.03065E+01 5.76576E-01 2.49459E-04 1.45219E-01 1.49523E-13-1.86292E-13
 -1      3671 2.02681E+01 5.62668E-01-2.27621E-03 1.73192E-01 1.62245E-13-1.61382E-13
 -1      3672 2.02844E+01 6.90865E-01 2.01155E-03 2.67550E-01 1.53016E-13-1.52093E-13
 -1      3673 1.27085E+01-3.87945E-01 1.03197E-01-3.32732E+00-9.11493E-14-1.87073E-13
 -1      3674 1.44130E+01-9.14114E-01-4.59248E-03-3.77912E+00-9.75131E-14-3.57738E-13
 -1      3675 1.29203E+01 2.50894E-02 2.98317E-02-2.60522E+00-6.18030E-14-1.99622E-13
 -1      3676 1.33176E+01 4.00513E-01 2.05916E-02 1.49236E+00-1.06093E-13-5.96398E-14
 -1      3677 2.03157E+01 8.50552E-01-2.79105E-04-2.55484E-01-4.06624E-14-1.97756E-13
 -1      3678 2.03247E+01 6.94613E-01-6.64610E-04-1.99539E-01-3.11777E-14-1.85191E-13
 -1      3679 2.03046E+01 5.49757E-01-1.48612E-03-1.22183E-01-4.98813E-14-1.82478E-13
 -1      3680 2.03394E+01 5.51371E-01 6.30990E-04-9.70111E-02-3.76349E-14-2.07352E-13
 -1      3681 2.03394E+01 8.19719E-01 1.28212E-03-2.01429E-01-3.13930E-14-2.09946E-13
 -1      3682 2.03849E+01-3.45002E-01-4.09156E-03 2.23248E+00-6.43658E-15 1.05474E-13
 -1      3683 2.01267E+01-2.67959E-01 4.76260E-03 2.31228E+00 4.98729E-14-1.23164E-13
 -1      3684 1.99802E+01-5.91247E-01-2.83586E-03 2.55049E+00-1.03078E-13-3.98551E-13
 -1      3685 2.03019E+01 8.82207E-02 1.03530E-03 9.40887E-02-9.37167E-14-9.49173E-14
 -1      3686 2.02806E+01 4.17224E-02-4.85957E-04 1.10311E-01-9.56176E-14-1.14203E-13
 -1      3687 2.02610E+01 6.84172E-03 7.42526E-04 1.18053E-01-8.35459E-14-1.07653E-13
 -1      3688 2.02408E+01-1.97678E-02-1.00241E-04 1.25138E-01-5.61385E-14-1.52806E-13
 -1      3689 2.03049E+01 3.41348E-02-3.54913E-04 9.64741E-02-8.83930E-14-7.02853E-14
 -1      3690 2.02196E+01-3.80679E-02 4.76273E-04 1.27123E-01-3.05611E-14-1.55114E-13
 -1      3691 2.02013E+01-5.01644E-02 1.57750E-04 1.28682E-01-5.23360E-14-1.54603E-13
 -1      3692 2.02619E+01-2.54858E-02-4.67119E-04 1.08473E-01-5.96589E-14-9.78437E-14
 -1      3693 2.01802E+01-5.64028E-02 2.46778E-04 1.27526E-01-4.77708E-14-1.32558E-13
 -1      3694 2.01641E+01-5.78841E-02 3.19885E-04 1.26362E-01-4.14211E-14-1.14129E-13
 -1      3695 2.02186E+01-5.34311E-02-4.84007E-04 1.11413E-01-4.17319E-14-5.39163E-14
 -1      3696 2.01437E+01-5.52333E-02 4.65643E-05 1.24086E-01-5.28005E-14-7.51777E-14
 -1      3697 2.01296E+01-4.87884E-02 4.15946E-04 1.22357E-01-3.58593E-14-3.07451E-14
 -1      3698 2.01772E+01-5.80907E-02-4.33165E-04 1.09804E-01-1.40085E-14-1.66978E-14
 -1      3699 2.01100E+01-3.93848E-02-1.32663E-04 1.20530E-01-7.83745E-14-2.81057E-14
 -1      3700 2.00975E+01-2.67649E-02 4.68130E-04 1.19901E-01-8.77868E-14 8.68225E-15
 -1      3701 2.01380E+01-4.53237E-02-3.37246E-04 1.07178E-01-5.82004E-14-1.53968E-14
 -1      3702 2.00783E+01-1.19300E-02-3.02739E-04 1.19746E-01-5.38546E-14 5.22643E-14
 -1      3703 2.00667E+01 5.85179E-03 4.92486E-04 1.21536E-01-8.19844E-15 6.98888E-14
 -1      3704 2.01006E+01-1.89788E-02-2.06834E-04 1.06287E-01-5.27050E-14 8.74156E-14
 -1      3705 2.00470E+01 2.54272E-02-4.75937E-04 1.24049E-01-3.79041E-14 6.35903E-14
 -1      3706 2.00355E+01 4.79152E-02 4.99385E-04 1.29357E-01-6.97948E-14 8.84933E-14
 -1      3707 2.00637E+01 1.86801E-02-4.47056E-05 1.09303E-01-3.52530E-14 1.56325E-13
 -1      3708 2.00143E+01 7.19965E-02-6.63533E-04 1.35391E-01-6.60114E-14 1.10222E-13
 -1      3709 2.00019E+01 9.91283E-02 4.94125E-04 1.45181E-01-4.17522E-14 1.24985E-13
 -1      3710 2.00253E+01 6.65836E-02 1.50597E-04 1.18030E-01-6.05558E-14 7.55678E-14
 -1      3711 1.99776E+01 1.27793E-01-8.75949E-04 1.55509E-01-4.74109E-14 6.88072E-14
 -1      3712 1.99630E+01 1.59752E-01 4.78657E-04 1.70674E-01-8.89026E-14 5.86512E-14
 -1      3713 1.99828E+01 1.24502E-01 3.82808E-04 1.34022E-01-1.02496E-13 1.11076E-13
 -1      3714 1.99338E+01 1.93238E-01-1.12194E-03 1.86027E-01-4.75283E-14 7.09227E-14
 -1      3715 1.99156E+01 2.30294E-01 4.51661E-04 2.07414E-01 1.11677E-14 1.31949E-13
 -1      3716 1.99329E+01 1.92729E-01 6.59632E-04 1.58687E-01-2.39266E-14 1.12710E-13
 -1      3717 1.98795E+01 2.68832E-01-1.40962E-03 2.28501E-01-2.72693E-15 1.71690E-13
 -1      3718 1.98559E+01 3.11158E-01 4.10001E-04 2.56922E-01-5.10519E-14 1.59777E-13
 -1      3719 1.98719E+01 2.71743E-01 9.91415E-04 1.93332E-01 1.31773E-14 1.92177E-13
 -1      3720 1.98103E+01 3.54773E-01-1.74736E-03 2.84434E-01-7.47791E-14 2.65022E-13
 -1      3721 1.97793E+01 4.02216E-01 3.51365E-04 3.20653E-01 7.10058E-15 2.97232E-13
 -1      3722 1.97951E+01 3.61814E-01 1.39053E-03 2.39179E-01 1.50059E-14 2.22195E-13
 -1      3723 1.97213E+01 4.50464E-01-2.14583E-03 3.55266E-01 2.90792E-14 2.61351E-13
 -1      3724 1.96806E+01 5.02258E-01 2.79071E-04 3.99997E-01 1.36201E-14 2.73072E-13
 -1      3725 1.96973E+01 4.62551E-01 1.87101E-03 2.97362E-01 9.36882E-15 4.24061E-13
 -1      3726 1.96068E+01 5.53883E-01-2.62214E-03 4.42422E-01 4.93482E-14 3.81579E-13
 -1      3727 1.95538E+01 6.08260E-01 2.10733E-04 4.96373E-01 6.44116E-14 4.00615E-13
 -1      3728 1.95720E+01 5.72329E-01 2.44840E-03 3.68974E-01 8.91494E-14 3.46659E-13
 -1      3729 1.94603E+01 6.60726E-01-3.20756E-03 5.47492E-01-1.21807E-14 4.00740E-13
 -1      3730 1.93926E+01 7.14409E-01 1.93168E-04 6.11530E-01 5.14992E-14 3.98579E-13
 -1      3731 1.94123E+01 6.87577E-01 3.13992E-03 4.55247E-01 1.50384E-14 3.64009E-13
 -1      3732 1.92747E+01 7.63274E-01-3.96060E-03 6.72742E-01 1.02662E-13 3.37433E-13
 -1      3733 1.91904E+01 8.10806E-01 3.26754E-04 7.48291E-01 8.69562E-14 3.26978E-13
 -1      3734 1.92098E+01 8.01889E-01 3.96525E-03 5.58024E-01 4.60078E-14 3.54326E-13
 -1      3735 1.90429E+01 8.48878E-01-4.98603E-03 8.22221E-01 5.71830E-14 2.01435E-13
 -1      3736 1.89415E+01 8.81731E-01 8.02778E-04 9.12071E-01 9.97778E-14 2.47011E-13
 -1      3737 1.89552E+01 9.04916E-01 4.94704E-03 6.80822E-01 7.31244E-14 2.42531E-13
 -1      3738 1.87582E+01 8.97924E-01-6.45471E-03 1.00390E+00 7.68171E-14 1.90813E-13
 -1      3739 1.86425E+01 9.03280E-01 1.95740E-03 1.11360E+00 1.22155E-13 1.29807E-13
 -1      3740 1.86381E+01 9.80974E-01 6.10770E-03 8.30901E-01 5.41630E-14 2.13825E-13
 -1      3741 1.84162E+01 8.81036E-01-8.59342E-03 1.23331E+00 1.38536E-13 5.50207E-14
 -1      3742 1.82954E+01 8.40041E-01 4.39751E-03 1.37325E+00 7.50635E-14 6.11591E-14
 -1      3743 1.82464E+01 1.00709E+00 7.45744E-03 1.02294E+00 7.72873E-14 6.08112E-14
 -1      3744 1.80184E+01 7.54869E-01-1.15312E-02 1.53925E+00 6.28515E-14 6.92614E-14
 -1      3745 1.79131E+01 6.39255E-01 8.89196E-03 1.72721E+00 8.07716E-14 1.43463E-13
 -1      3746 1.77668E+01 9.50058E-01 9.00353E-03 1.28507E+00 8.22175E-14 6.11405E-14
 -1      3747 1.75809E+01 4.55733E-01-1.42853E-02 1.96821E+00 8.19245E-15 1.28480E-13
 -1      3748 1.75239E+01 2.19631E-01 1.54860E-02 2.23629E+00-7.01399E-14 1.95166E-13
 -1      3749 1.71896E+01 7.58267E-01 1.15281E-02 1.66886E+00 5.16888E-14 6.27018E-14
 -1      3750 1.71508E+01-5.50924E-02-2.23716E-02 2.52836E+00-1.42000E-13 1.90688E-13
 -1      3751 1.72246E+01-4.68630E-01 2.22476E-02 2.90977E+00-1.67214E-13 2.03247E-13
 -1      3752 1.58602E+01-3.97434E-02 6.23452E-02 2.83186E+00-1.49155E-13 2.20945E-13
 -1      3753 1.65566E+01 4.36948E-01 2.78456E-02 2.17342E+00-1.00367E-13 1.47535E-13
 -1      3754 2.00872E+01-3.15585E-02 5.13007E-04-1.31339E-01 6.77923E-14-4.20358E-14
 -1      3755 2.00966E+01-4.22708E-02-1.26432E-04-1.32842E-01 9.07857E-14-5.46090E-14
 -1      3756 2.03600E+01 4.17112E-01 7.42328E-04-3.03250E-02-5.21450E-14-1.96921E-13
 -1      3757 2.03447E+01 3.08518E-01-1.50513E-03 1.80957E-02-6.95060E-14-1.74112E-13
 -1      3758 1.64523E+01 1.06728E+00 7.76250E-03-1.06707E+00-1.74122E-13-9.12434E-14
 -1      3759 2.03201E+01-1.01962E+00 2.52493E-02 2.63992E+00-2.54601E-13-5.54815E-13
 -1      3760 2.01631E+01 6.04166E-02-6.13498E-04-1.35816E-01 4.08016E-15-5.81529E-14
 -1      3761 2.01840E+01 1.06530E-01 1.85643E-03-1.11208E-01 3.64639E-14-7.42078E-14
 -1      3762 2.02116E+01 5.80736E-02-7.44995E-04-1.28097E-01 2.61614E-14-9.51184E-14
 -1      3763 1.99856E+01 1.29009E-01 6.63707E-04-1.78702E-01 1.11035E-14-2.60330E-14
 -1      3764 1.99938E+01 1.01732E-01-8.22310E-04-1.63817E-01-1.57015E-14-1.76601E-14
 -1      3765 2.00132E+01 7.72700E-02 6.25719E-04-1.53164E-01-4.58704E-14-2.89346E-14
 -1      3766 2.00207E+01 5.38084E-02-6.34410E-04-1.43937E-01-2.61545E-14-3.52949E-15
 -1      3767 1.99981E+01 1.00118E-01 2.19615E-04-1.46696E-01-1.00213E-14 1.10067E-13
 -1      3768 1.99137E+01 2.54019E-01 7.76184E-04-2.68550E-01-7.87855E-14-8.88551E-14
 -1      3769 1.99259E+01 2.19613E-01-1.26845E-03-2.39535E-01-7.99214E-14-1.13175E-13
 -1      3770 1.98652E+01 3.25396E-01 8.64740E-04-3.36631E-01-9.44347E-14-5.91544E-14
 -1      3771 1.98805E+01 2.88406E-01-1.52933E-03-2.99200E-01-8.70508E-14-1.29708E-13
 -1      3772 1.98578E+01 3.00688E-01 8.75825E-04-2.63511E-01-3.58485E-14-9.78041E-14
 -1      3773 1.98057E+01 3.99342E-01 9.94057E-04-4.22694E-01-9.81902E-15-1.48309E-15
 -1      3774 1.98245E+01 3.61433E-01-1.80995E-03-3.76019E-01-7.98644E-14-3.04454E-14
 -1      3775 1.97889E+01 3.80773E-01 1.12315E-03-3.31263E-01-9.35124E-14-1.00549E-13
 -1      3776 1.97342E+01 4.70625E-01 1.19526E-03-5.28672E-01 6.22116E-14 6.69032E-14
 -1      3777 1.97563E+01 4.34746E-01-2.09921E-03-4.72017E-01 5.14212E-14 3.52729E-14
 -1      3778 1.97045E+01 4.63002E-01 1.35857E-03-4.16989E-01-4.75268E-14-9.12970E-14
 -1      3779 1.96512E+01 5.30603E-01 1.52471E-03-6.56584E-01 5.82309E-14 1.47854E-13
 -1      3780 1.96756E+01 5.01551E-01-2.37800E-03-5.89315E-01 6.94352E-14 1.01856E-13
 -1      3781 1.96026E+01 5.41286E-01 1.54324E-03-5.23293E-01 1.47635E-14 4.16267E-14
 -1      3782 1.95603E+01 5.65893E-01 2.07787E-03-8.08715E-01 8.48293E-14 1.21264E-13
 -1      3783 1.95837E+01 5.51004E-01-2.61406E-03-7.30276E-01 1.14722E-13 1.96336E-13
 -1      3784 1.94828E+01 6.05818E-01 1.60904E-03-6.53446E-01 5.38548E-14 1.78732E-13
 -1      3785 1.94701E+01 5.56761E-01 3.00451E-03-9.87920E-01-6.45761E-14 2.17087E-14
 -1      3786 1.94863E+01 5.66749E-01-2.74827E-03-8.97793E-01 2.95823E-14 8.58962E-14
 -1      3787 1.93474E+01 6.41706E-01 1.43941E-03-8.11931E-01 5.67464E-14 1.16396E-13
 -1      3788 1.93977E+01 4.75271E-01 4.51208E-03-1.19791E+00-1.76211E-13 2.01235E-14
 -1      3789 1.93950E+01 5.25192E-01-2.65839E-03-1.09569E+00-1.37850E-13 2.57230E-14
 -1      3790 1.92035E+01 6.27272E-01 8.33245E-04-1.00529E+00-7.67034E-14 3.39776E-14
 -1      3791 1.93741E+01 2.83316E-01 6.80133E-03-1.44284E+00-1.86390E-13 1.19126E-13
 -1      3792 1.93327E+01 3.93622E-01-2.06839E-03-1.32891E+00-1.53182E-13 3.03497E-14
 -1      3793 1.90662E+01 5.31878E-01-5.69029E-04-1.24319E+00-1.88555E-13-5.38871E-14
 -1      3794 1.94520E+01-6.84225E-02 9.96584E-03-1.72410E+00-1.03433E-13-3.07077E-14
 -1      3795 1.93405E+01 1.28536E-01-3.60395E-04-1.60205E+00-1.25285E-13 1.10915E-13
 -1      3796 1.89646E+01 3.12915E-01-3.43339E-03-1.53876E+00-1.25021E-13 1.91499E-14
 -1      3797 1.97174E+01-6.38056E-01 1.32520E-02-2.03104E+00-4.64756E-14 3.01821E-14
 -1      3798 1.94892E+01-3.23571E-01 3.81548E-03-1.91341E+00-1.20918E-13-1.59666E-14
 -1      3799 1.89524E+01-8.68631E-02-8.80366E-03-1.90554E+00-8.44777E-14 8.13226E-14
 -1      3800 2.02881E+01-1.47203E+00 1.37313E-02-2.32179E+00 4.22743E-14-1.84593E-14
 -1      3801 1.98937E+01-1.01693E+00 1.27200E-02-2.23681E+00 5.85968E-14 1.06797E-13
 -1      3802 1.91221E+01-7.39134E-01-1.91480E-02-2.34520E+00-2.85687E-14 6.57749E-14
 -1      3803 1.94096E+01-9.37090E-01 3.11337E-03 3.06864E+00-2.31515E-13-8.62218E-13
 -1      3804 2.05090E+01-1.65573E+00 1.01104E-02 2.93781E+00-2.25472E-13-5.40845E-13
 -1      3805 1.99531E+01 1.88098E-01 7.12048E-04-2.16540E-01-6.04188E-14-4.95784E-14
 -1      3806 1.99630E+01 1.57095E-01-1.03257E-03-1.95051E-01 6.15402E-15-3.57146E-14
 -1      3807 1.99137E+01 2.26224E-01 6.37397E-04-2.11493E-01-1.07624E-14-9.78656E-15
 -1      3808 1.75966E+01 1.20042E-01 1.49171E-02-2.79732E+00-4.54710E-13-1.36629E-13
 -1      3809 1.67190E+01 3.89688E-01-2.85007E-02-2.46855E+00-4.67561E-13-2.66940E-13
 -1      3810 1.75685E+01-3.38943E-01 1.97497E-02-3.18257E+00-3.17038E-13 1.36201E-13
 -1      3811 2.02018E+01 1.65934E+00-2.66763E-03-3.46323E-02 3.75408E-14-2.51341E-13
 -1      3812 2.02053E+01 1.64099E+00-3.31321E-03-1.25389E-01 1.54425E-14-2.58030E-13
 -1      3813 2.02877E+01 1.38784E+00 4.72710E-03-1.30266E-01-1.06453E-14-2.04994E-13
 -1      3814 2.02842E+01 1.42016E+00 5.05847E-03 2.17514E-03 3.83006E-14-2.41438E-13
 -1      3815 2.02770E+01-2.75573E+00 2.34546E-03-3.34990E+00 5.16254E-15 1.36497E-13
 -1      3816 2.14012E+01-2.47419E+00 1.81699E-02-2.36676E+00-1.05580E-13 4.57668E-14
 -1      3817 2.07627E+01-1.94635E+00 2.83628E-02-2.41958E+00-6.57831E-14 8.07362E-15
 -1      3818 1.94106E+01-2.16095E+00 3.01554E-02-3.38019E+00 7.50420E-14 2.56066E-13
 -1      3819 2.11202E+01-2.17662E+00 3.96791E-02 2.91064E+00-2.49034E-13-7.09458E-13
 -1      3820 2.15706E+01-2.76875E+00 4.29422E-02 3.07502E+00-9.18445E-14-5.93089E-13
 -1      3821 2.22513E+01-3.24807E+00 3.65895E-02 2.93692E+00-9.35380E-14-5.85104E-13
 -1      3822 2.09622E+01-3.54544E+00-3.72079E-02 4.01675E+00 2.31204E-14-1.17510E-13
 -1      3823 1.98495E+01-2.23805E+00-4.43774E-02 3.67277E+00-5.15126E-14-7.12595E-13
 -1      3824 2.03300E+01 5.55885E-01-2.40098E-03 1.01218E-01 1.30312E-13-1.49050E-13
 -1      3825 2.03399E+01 7.12319E-01 1.15723E-03 1.84952E-01 1.14301E-13-1.59928E-13
 -1      3826 2.02525E+01 1.38149E+00-5.11259E-03 4.13997E-01 1.58458E-13-1.95103E-13
 -1      3827 2.02393E+01 1.48197E+00-1.30456E-03 3.46467E-01 1.29707E-13-2.16407E-13
 -1      3828 2.03010E+01 1.28410E+00 5.06460E-03 2.51947E-01 9.32902E-14-1.93744E-13
 -1      3829 2.03089E+01 1.11524E+00 4.03539E-03 3.41772E-01 1.57197E-13-1.67634E-13
 -1      3830 1.46789E+01 2.75914E-01 6.58847E-02-2.53238E+00-3.59622E-13-5.94323E-13
 -1      3831 1.65365E+01-8.46376E-01-1.85597E-02-3.73229E+00-2.86559E-13 1.05301E-13
 -1      3832 1.92272E+01-2.68464E+00 3.21659E-02 4.31261E+00 2.49700E-13-4.04926E-13
 -1      3833 2.03377E+01 2.19318E-01 1.27274E-03 4.75455E-02-6.18862E-14-1.55432E-13
 -1      3834 2.03172E+01 1.45820E-01-1.01522E-03 7.73489E-02-6.56607E-14-1.33735E-13
 -1      3835 2.03728E+01 2.97351E-01 2.87305E-04 2.14964E-02-4.25207E-14-1.73257E-13
 -1      3836 2.03440E+01 1.36788E-01-1.29800E-04 6.96884E-02-6.62441E-14-1.30107E-13
 -1      3837 2.01276E+01-4.80722E-02-3.70535E-04-1.22008E-01 7.46520E-14-1.35333E-13
 -1      3838 2.01141E+01-4.99429E-02 4.44652E-04-1.35318E-01 8.52056E-14-9.30231E-14
 -1      3839 2.01253E+01-5.48093E-02 6.96168E-05-1.37802E-01 5.60397E-14-1.20379E-13
 -1      3840 2.03607E+01 5.22147E-01-8.20920E-04-6.13540E-02-3.65538E-14-2.14383E-13
 -1      3841 2.03858E+01 5.05037E-01 6.28493E-04-4.18985E-02-3.36286E-14-2.24623E-13
 -1      3842 2.03675E+01 6.40349E-01-7.43657E-05-1.08660E-01-9.22815E-15-2.28865E-13
 -1      3843 1.62130E+01-1.25111E+00 7.04849E-02-3.88085E+00-1.26382E-13-3.44282E-13
 -1      3844 1.77680E+01-1.72322E+00-2.80925E-02-3.67072E+00 4.98516E-16 1.04189E-13
 -1      3845 1.57680E+01-7.21468E-01 6.45543E-03-3.36522E+00-1.17755E-13-3.16025E-13
 -1      3846 2.02129E+01-1.39739E-02-1.30598E-04-1.38738E-01 4.15110E-14-8.50399E-14
 -1      3847 2.02319E+01 1.32880E-02 8.89313E-04-1.30553E-01 4.60583E-14-9.77604E-14
 -1      3848 1.60894E+01 7.90459E-01 2.69569E-02-1.83033E+00-3.72512E-13-2.59375E-13
 -1      3849 1.53420E+01 9.75331E-01-3.34573E-02-7.22768E-01-6.34558E-14-9.50568E-14
 -1      3850 1.77517E+01-9.41755E-01 1.99591E-02-3.54973E+00-1.82234E-13 2.93954E-13
 -1      3851 2.03246E+01 1.18318E+00-1.45971E-03-7.51168E-02 6.98978E-16-1.96933E-13
 -1      3852 2.03252E+01 1.14713E+00-3.18022E-03-1.31927E-01-3.34540E-14-1.61260E-13
 -1      3853 2.00705E+01-1.88685E-02-2.95318E-04-1.30550E-01 5.93026E-14-1.08963E-14
 -1      3854 2.00950E+01-2.56162E-02-2.47324E-04-1.19903E-01 6.92538E-14-2.18331E-14
 -1      3855 2.00623E+01-3.44246E-03 5.59016E-04-1.31471E-01 1.07305E-14-1.15298E-14
 -1      3856 1.46986E+01 1.98526E-01 1.02673E-02 2.32539E+00-1.19396E-13 3.37230E-15
 -1      3857 1.35368E+01 6.93046E-01 8.47773E-02 1.66858E+00-1.50660E-13-1.26454E-13
 -1      3858 1.50795E+01 4.55716E-01-3.00975E-02 1.98790E+00-6.85242E-14-9.79251E-15
 -1      3859 1.85793E+01-6.13676E-01-2.50888E-03 2.97347E+00-7.49604E-14-3.29669E-13
 -1      3860 1.99595E+01 1.59128E-01 4.17584E-04-1.73186E-01 2.60574E-14 4.70786E-14
 -1      3861 1.97083E+01-1.68312E+00-3.47706E-02-2.76178E+00-6.79535E-15 1.27420E-13
 -1      3862 2.03356E+01 1.08710E+00 4.29248E-04-1.49701E-01-4.06684E-14-1.62200E-13
 -1      3863 2.03434E+01 9.94551E-01-2.94875E-03-1.68279E-01-4.70513E-14-1.92572E-13
 -1      3864 2.03799E+01 9.12820E-01 3.05401E-03-9.22881E-02-2.60041E-14-1.50483E-13
 -1      3865 2.02493E+01 1.64426E-01-6.78595E-04-7.87285E-02 4.62587E-14-7.61800E-14
 -1      3866 1.50499E+01 1.04248E+00 3.52678E-02 2.28129E-01 8.98682E-14-1.31901E-13
 -1      3867 1.52429E+01 8.92121E-01 1.07208E-02 1.02492E+00 1.12221E-13-2.13121E-13
 -1      3868 1.33192E+01 7.87538E-01-9.34345E-03 8.86266E-01-1.17796E-13-5.86319E-14
 -1      3869 2.00382E+01 3.30446E-02 5.92963E-04-1.38057E-01 6.50842E-15 2.41626E-14
 -1      3870 2.00457E+01 1.34769E-02-4.61991E-04-1.33510E-01 1.41385E-15-6.06304E-16
 -1      3871 2.00636E+01 7.32158E-03-1.11675E-04-1.21916E-01-1.10507E-14 8.21190E-14
 -1      3872 2.03342E+01 4.25215E-01 1.58665E-03 4.54739E-02 1.17474E-13-1.04554E-13
 -1      3873 2.03611E+01 5.49958E-01 6.23628E-04 7.75992E-02 8.86588E-14-9.64698E-14
 -1      3874 2.03161E+01 3.15292E-01-1.71731E-03-1.05567E-02 7.94308E-14-7.32292E-14
 -1      3875 2.01769E+01-4.60630E-02 1.51660E-04-1.43271E-01 7.19949E-14-1.09063E-13
 -1      3876 2.01932E+01-3.30037E-02 5.63771E-04-1.41586E-01 5.53008E-14-9.86647E-14
 -1      3877 2.02408E+01-1.95854E-02-5.41882E-04-1.23861E-01 6.39244E-14-9.65043E-14
 -1      3878 2.03299E+01 1.03577E+00-2.49682E-03 2.20114E-01 1.03409E-13-1.48624E-13
 -1      3879 2.03283E+01 1.10596E+00-7.63948E-04 1.75535E-01 6.94458E-14-1.98689E-13
 -1      3880 1.27064E+01 6.48260E-01 9.73168E-02-1.63793E+00-4.48409E-14-1.90691E-13
 -1      3881 1.38004E+01 2.28580E-01 1.03466E-02-2.26733E+00-6.52898E-14-1.84797E-13
 -1      3882 1.29424E+01 7.75530E-01 1.05823E-02-6.02713E-01 1.32784E-14-8.09006E-14
 -1      3883 2.03252E+01 1.14568E+00-3.31847E-03 1.35258E-01 7.97563E-14-1.94136E-13
 -1      3884 2.03240E+01 1.18101E+00-1.91707E-03 7.85514E-02 5.60439E-14-2.10429E-13
 -1      3885 2.03738E+01 9.39022E-01 4.31570E-03 1.15276E-01 6.79442E-14-2.01291E-13
 -1      3886 1.44149E+01 2.24131E-01 7.96981E-02 2.47551E+00-1.49678E-13-8.78672E-14
 -1      3887 1.45829E+01 6.22709E-01 1.06922E-02 1.33590E+00-3.78499E-14-5.64644E-14
 -1      3888 1.92227E+01-2.00970E+00 5.61054E-02 3.82071E+00 1.14513E-13-2.84509E-13
 -1      3889 1.79391E+01-1.94512E+00 1.93811E-02 4.26539E+00 6.93369E-14-1.86424E-13
 -1      3890 1.67672E+01-1.11277E+00-1.02161E-02 3.79247E+00-1.97795E-13 3.80529E-14
 -1      3891 1.88314E+01-1.40417E+00 3.94516E-02 3.59421E+00-5.80846E-14-5.01725E-13
 -1      3892 1.42633E+01 8.08974E-01 2.09705E-04-6.43485E-01-6.44918E-14-2.27346E-13
 -1      3893 1.39113E+01 5.52847E-01 3.96453E-02-1.76028E+00-2.23202E-13-6.20174E-13
 -1      3894 1.57841E+01 4.48130E-01 4.84065E-02-2.20211E+00-4.26051E-13-3.43997E-13
 -1      3895 2.00320E+01 4.94379E-02 4.34400E-05-1.30210E-01-2.02169E-14 1.28277E-13
 -1      3896 1.55189E+01-1.82721E-01 1.60464E-02 2.94710E+00-6.68871E-14-6.00648E-14
 -1      3897 2.03004E+01 7.74109E-01-4.54113E-04 2.85991E-01 1.50145E-13-1.71476E-13
 -1      3898 2.03072E+01 8.63474E-01-6.56057E-04 2.98324E-01 1.59697E-13-1.72153E-13
 -1      3899 2.03436E+01 6.03313E-02 5.70663E-04 7.28837E-02-7.84541E-14-1.22676E-13
 -1      3900 2.03216E+01 1.84871E-02-2.70550E-04 8.30616E-02-7.21167E-14-9.79075E-14
 -1      3901 2.02995E+01-1.24140E-02 4.47792E-04 8.62857E-02-5.14619E-14-7.86566E-14
 -1      3902 2.02769E+01-3.48882E-02 1.18859E-05 9.06812E-02-3.96062E-14-7.50061E-14
 -1      3903 2.03316E+01 8.92173E-03-3.38058E-04 6.51984E-02-4.71328E-14-9.01502E-14
 -1      3904 2.02530E+01-4.94427E-02 3.10908E-04 9.09245E-02-1.81011E-14-5.22508E-14
 -1      3905 2.02313E+01-5.76779E-02 1.88730E-04 9.19584E-02 2.08296E-14-8.60995E-15
 -1      3906 2.02842E+01-4.01635E-02-4.14510E-04 7.07108E-02-2.02772E-14-1.01448E-14
 -1      3907 2.02072E+01-6.02087E-02 1.64887E-04 9.07325E-02-2.46299E-14-2.22168E-14
 -1      3908 2.01868E+01-5.78395E-02 2.94589E-04 9.02943E-02-4.88852E-14-1.25597E-14
 -1      3909 2.02359E+01-5.89657E-02-4.11162E-04 7.16929E-02-2.51319E-14-8.32186E-16
 -1      3910 2.01630E+01-5.13270E-02 1.56793E-05 8.88431E-02-3.03632E-14 8.76420E-16
 -1      3911 2.01440E+01-4.08831E-02 3.41823E-04 8.84392E-02-3.32318E-14 2.34614E-14
 -1      3912 2.01885E+01-5.52304E-02-3.74205E-04 7.06604E-02-4.84181E-15-2.58139E-14
 -1      3913 2.01205E+01-2.73209E-02-1.34782E-04 8.77096E-02-5.79743E-14 3.71593E-14
 -1      3914 2.01022E+01-1.04020E-02 3.45356E-04 8.85221E-02-4.00541E-14 9.04648E-14
 -1      3915 2.01423E+01-3.41654E-02-2.72719E-04 6.97984E-02-2.94673E-14 3.80913E-14
 -1      3916 2.00784E+01 9.02188E-03-2.94785E-04 8.92612E-02-2.34929E-14 8.06573E-14
 -1      3917 2.00600E+01 3.15559E-02 3.18480E-04 9.22339E-02 2.44997E-15 5.21869E-14
 -1      3918 2.00966E+01 8.13370E-04-1.12201E-04 7.06441E-02-1.21926E-14-3.41064E-14
 -1      3919 2.00348E+01 5.62680E-02-4.69329E-04 9.50613E-02-4.02201E-14 2.86443E-14
 -1      3920 2.00151E+01 8.40713E-02 2.66834E-04 1.00977E-01-6.49716E-14 1.22626E-14
 -1      3921 2.00496E+01 4.77621E-02 9.57427E-05 7.45200E-02-1.91029E-14 1.03570E-15
 -1      3922 1.99870E+01 1.13937E-01-6.67593E-04 1.06411E-01-8.97963E-14 8.05667E-14
 -1      3923 1.99646E+01 1.47030E-01 1.92760E-04 1.15950E-01-1.01833E-13 1.28360E-13
 -1      3924 1.99987E+01 1.05855E-01 3.46073E-04 8.24607E-02-4.24334E-14 8.76819E-14
 -1      3925 1.99317E+01 1.82183E-01-8.95430E-04 1.24454E-01-6.30289E-14 1.82492E-13
 -1      3926 1.99048E+01 2.20768E-01 9.45052E-05 1.38223E-01 1.75616E-14 2.29240E-13
 -1      3927 1.99405E+01 1.75040E-01 6.44123E-04 9.53395E-02-5.51486E-14 2.11604E-13
 -1      3928 1.98648E+01 2.61433E-01-1.15929E-03 1.50210E-01 3.11629E-14 2.08376E-13
 -1      3929 1.98312E+01 3.05714E-01-3.27924E-05 1.68751E-01 2.23267E-14 2.34451E-13
 -1      3930 1.98711E+01 2.55648E-01 9.99355E-04 1.13894E-01-4.31768E-15 2.22086E-13
 -1      3931 1.97816E+01 3.52012E-01-1.46681E-03 1.84582E-01 2.79159E-14 2.11572E-13
 -1      3932 1.97388E+01 4.01980E-01-1.95822E-04 2.08365E-01 7.01465E-14 2.43216E-13
 -1      3933 1.97854E+01 3.48004E-01 1.42447E-03 1.38717E-01-1.55339E-14 1.92777E-13
 -1      3934 1.96764E+01 4.53704E-01-1.82884E-03 2.28339E-01 5.83322E-14 2.88355E-13
 -1      3935 1.96215E+01 5.08899E-01-4.01116E-04 2.57765E-01 5.09664E-14 3.14363E-13
 -1      3936 1.96779E+01 4.52006E-01 1.93616E-03 1.70237E-01 9.59573E-14 1.60750E-13
 -1      3937 1.95426E+01 5.65238E-01-2.26421E-03 2.82127E-01 5.97348E-14 2.91313E-13
 -1      3938 1.94721E+01 6.24458E-01-6.51784E-04 3.17559E-01 9.32798E-14 2.49555E-13
 -1      3939 1.95419E+01 5.66651E-01 2.55711E-03 2.08698E-01 4.49045E-14 1.19531E-13
 -1      3940 1.93724E+01 6.83675E-01-2.80890E-03 3.46563E-01 6.28956E-14 2.58453E-13
 -1      3941 1.92825E+01 7.44643E-01-9.42298E-04 3.88455E-01 1.93470E-14 3.08565E-13
 -1      3942 1.93694E+01 6.89508E-01 3.32046E-03 2.54208E-01 1.00684E-13 1.90930E-13
 -1      3943 1.91566E+01 8.03695E-01-3.53307E-03 4.22535E-01 6.06927E-15 2.92251E-13
 -1      3944 1.90430E+01 8.62693E-01-1.25057E-03 4.71760E-01 1.65043E-14 2.82670E-13
 -1      3945 1.91511E+01 8.16161E-01 4.27866E-03 3.06926E-01 3.91851E-14 2.42357E-13
 -1      3946 1.88839E+01 9.16789E-01-4.57075E-03 5.11926E-01-3.20032E-14 2.92127E-13
 -1      3947 1.87417E+01 9.68273E-01-1.52547E-03 5.70454E-01 1.36197E-14 2.15444E-13
 -1      3948 1.88755E+01 9.39690E-01 5.52028E-03 3.67565E-01-1.96633E-14 1.86004E-13
 -1      3949 1.85399E+01 1.01040E+00-6.16753E-03 6.19105E-01 5.33926E-15 6.98869E-14
 -1      3950 1.83638E+01 1.04659E+00-1.66164E-03 6.91284E-01 6.37056E-15 4.65352E-14
 -1      3951 1.85274E+01 1.05027E+00 7.20156E-03 4.38460E-01-9.98005E-14 9.58009E-14
 -1      3952 1.81054E+01 1.06688E+00-8.74045E-03 7.53739E-01 5.20993E-14-3.83290E-14
 -1      3953 1.78898E+01 1.07720E+00-1.44881E-03 8.48496E-01 8.79560E-14-6.23286E-14
 -1      3954 1.80857E+01 1.13496E+00 9.60612E-03 5.25669E-01-1.36366E-14-1.68456E-13
 -1      3955 1.75532E+01 1.06201E+00-1.28787E-02 9.35568E-01 1.06846E-13 5.29925E-15
 -1      3956 1.72918E+01 1.03145E+00-7.31344E-04 1.07026E+00 1.13243E-13 2.13527E-14
 -1      3957 1.75189E+01 1.17732E+00 1.32542E-02 6.42807E-01 9.58663E-14-7.93217E-14
 -1      3958 1.68418E+01 9.65770E-01-1.82822E-02 1.20135E+00 1.22302E-13-5.04076E-14
 -1      3959 1.65144E+01 8.61163E-01-2.52180E-03 1.41328E+00 6.10283E-14-4.04581E-14
 -1      3960 1.67786E+01 1.15544E+00 1.93534E-02 8.16014E-01 1.05955E-13 1.83918E-14
 -1      3961 2.03801E+01 1.81282E-01 5.76021E-04 4.56649E-02-3.43260E-14-1.45236E-13
 -1      3962 2.03613E+01 1.13557E-01-6.48073E-04 6.47015E-02-5.91346E-14-1.39812E-13
 -1      3963 2.03741E+01 9.90932E-02-1.21972E-04 5.19216E-02-5.00315E-14-1.60553E-13
 -1      3964 1.60656E+01 6.40102E-01 9.01715E-03 1.88180E+00 1.86461E-14-2.63644E-13
 -1      3965 2.03146E+01 9.59415E-01-4.59252E-04 2.74603E-01 1.39893E-13-1.68931E-13
 -1      3966 2.02866E+01 1.52993E-01-1.10200E-03-8.11580E-02 2.94707E-14-6.19840E-14
 -1      3967 2.03081E+01 2.26692E-01 1.54178E-03-4.66672E-02 6.55925E-14-6.35069E-14
 -1      3968 2.03496E+01 3.09828E-01 1.23915E-04-1.60424E-02 5.42363E-14-5.86835E-14
 -1      3969 1.99836E+01 1.22204E-01 3.99757E-04-1.32858E-01 1.28297E-14 1.24424E-13
 -1      3970 2.00008E+01 9.26644E-02-6.67868E-04-1.22574E-01-4.76354E-15 1.51148E-13
 -1      3971 2.03218E+01 1.19593E+00-2.66778E-03-2.87802E-02 3.28357E-14-2.42149E-13
 -1      3972 2.03769E+01 9.98444E-01 4.76257E-03-3.77630E-02 1.32005E-14-1.84018E-13
 -1      3973 2.03220E+01 1.19457E+00-2.89493E-03 3.11645E-02 4.63067E-14-2.49695E-13
 -1      3974 2.03455E+01 9.60212E-01 5.79657E-04-1.81572E-01-3.58992E-14-2.17082E-13
 -1      3975 2.03463E+01 8.63510E-01-2.23606E-03-1.88330E-01-2.97380E-14-1.98445E-13
 -1      3976 2.02504E+01 4.84841E-02-5.42651E-04-1.20653E-01 5.06748E-14-1.22383E-13
 -1      3977 2.02716E+01 9.53292E-02 1.26010E-03-1.01885E-01 3.60011E-14-1.02828E-13
 -1      3978 2.03200E+01 1.46912E-01-2.75891E-04-7.54030E-02 6.69897E-14-1.15376E-13
 -1      3979 2.02818E+01 4.23051E-02-4.38883E-04-1.08652E-01 4.81022E-14-9.81721E-14
 -1      3980 1.87910E+01-1.64994E+00 1.69425E-02-3.21996E+00 2.45706E-14 1.14260E-13
 -1      3981 1.63310E+01-3.82667E-01 4.60014E-02 3.22727E+00-8.26867E-14 1.26191E-13
 -1      3982 1.60470E+01 2.12439E-01-7.33428E-03 2.45340E+00-2.73470E-14 4.15341E-14
 -1      3983 1.66077E+01 4.51272E-01-1.35351E-02 2.12041E+00 4.56148E-14 2.34934E-14
 -1      3984 1.72461E+01-6.84761E-01-2.09701E-02 3.29990E+00-6.87722E-14-9.04485E-15
 -1      3985 1.97179E+01 4.30850E-01 4.12196E-04-3.08774E-01-9.38750E-15-1.29583E-13
 -1      3986 1.97547E+01 3.85626E-01-1.77597E-03-2.72622E-01 4.44841E-16-9.34789E-14
 -1      3987 1.98056E+01 3.42967E-01 3.76678E-04-2.44751E-01-1.05353E-14-7.50767E-15
 -1      3988 1.98354E+01 3.00562E-01-1.43761E-03-2.16493E-01 2.11758E-14-1.66161E-16
 -1      3989 1.97436E+01 3.93225E-01 1.44561E-03-2.22198E-01 3.15077E-14-1.82569E-14
 -1      3990 1.94802E+01 6.07349E-01 7.05913E-04-4.91130E-01-2.70375E-14-6.43658E-14
 -1      3991 1.95335E+01 5.64197E-01-2.62128E-03-4.35495E-01-3.42487E-14-1.58984E-13
 -1      3992 1.93261E+01 6.79568E-01 1.09489E-03-6.16630E-01-1.31477E-14 1.82639E-14
 -1      3993 1.93874E+01 6.44679E-01-3.15953E-03-5.48648E-01-4.55977E-14-3.52461E-14
 -1      3994 1.93402E+01 6.81956E-01 2.71865E-03-4.54616E-01-8.14030E-14-1.33017E-13
 -1      3995 1.91491E+01 7.22820E-01 1.80942E-03-7.72429E-01-4.23055E-14 1.57077E-13
 -1      3996 1.92157E+01 7.04228E-01-3.81302E-03-6.89313E-01-1.88929E-14 1.58674E-13
 -1      3997 1.91457E+01 7.60492E-01 3.15276E-03-5.77014E-01-1.15120E-13 4.41554E-14
 -1      3998 1.89543E+01 7.15796E-01 3.07182E-03-9.67735E-01-1.39229E-13 1.46441E-13
 -1      3999 1.90202E+01 7.24856E-01-4.62453E-03-8.65230E-01-3.13461E-14 1.87203E-13
 -1      4000 1.89169E+01 8.08442E-01 3.52783E-03-7.33598E-01-2.39583E-14 2.69958E-13
 -1      4001 1.87544E+01 6.28852E-01 5.25372E-03-1.21667E+00-1.70329E-13 4.62683E-15
 -1      4002 1.88078E+01 6.81284E-01-5.62319E-03-1.08839E+00-1.87285E-13-3.00965E-15
 -1      4003 1.86539E+01 8.04334E-01 3.74598E-03-9.37497E-01-9.06192E-14 1.13557E-13
 -1      4004 1.85746E+01 4.20642E-01 8.82801E-03-1.54019E+00-1.69841E-13 1.48415E-14
 -1      4005 1.85938E+01 5.38560E-01-6.69863E-03-1.37735E+00-1.78588E-13 1.36749E-14
 -1      4006 1.83610E+01 7.18436E-01 3.57367E-03-1.20963E+00-2.09750E-13-1.65845E-15
 -1      4007 1.84644E+01 3.26766E-02 1.42060E-02-1.96478E+00-3.97622E-14 3.87488E-14
 -1      4008 1.84120E+01 2.47579E-01-7.15814E-03-1.75852E+00-7.38202E-14 7.72555E-14
 -1      4009 1.80512E+01 5.07138E-01 2.32381E-03-1.58320E+00-1.69330E-13 5.60021E-14
 -1      4010 1.85317E+01-6.13770E-01 2.24971E-02-2.50586E+00-1.02960E-13 7.88957E-14
 -1      4011 1.83323E+01-2.58284E-01-4.20219E-03-2.25984E+00-8.68344E-14 2.53322E-14
 -1      4012 1.77638E+01 1.02259E-01-2.70964E-04-2.10179E+00-5.88934E-14 5.00281E-14
 -1      4013 1.99350E+01 1.87307E-01 3.82622E-04-1.58718E-01 6.79446E-14 5.82819E-14
 -1      4014 1.99551E+01 1.53226E-01-8.89518E-04-1.43330E-01 7.72685E-14 1.21723E-13
 -1      4015 1.99613E+01 1.49122E-01 4.78563E-04-1.17713E-01 4.96350E-14 1.31197E-13
 -1      4016 1.83729E+01-1.10571E+00 1.16556E-02-2.98562E+00-7.51009E-14 6.57029E-14
 -1      4017 2.03771E+01 8.11395E-01 2.33830E-03-1.15660E-01-2.27565E-14-2.00101E-13
 -1      4018 2.03572E+01 7.20590E-01 2.52410E-04-1.34870E-01-1.14674E-14-2.13059E-13
 -1      4019 2.03340E+01 9.40429E-01 3.26845E-04 2.18770E-01 1.19662E-13-1.25444E-13
 -1      4020 1.42187E+01 9.23434E-01 6.23190E-03 6.47396E-01-2.27392E-14-1.20673E-13
 -1      4021 1.34907E+01 1.00013E+00 6.05646E-02 1.15935E-01-2.95554E-15-5.20001E-14
 -1      4022 1.38158E+01 8.73792E-01-1.15852E-02-7.22810E-01 4.83858E-15-1.33824E-13
 -1      4023 1.73741E+01 2.03265E-01 4.04825E-02 2.62149E+00 2.38726E-14 7.24748E-14
 -1      4024 2.00257E+01 6.60765E-02 4.16910E-04-1.16160E-01-2.67452E-16 1.16232E-13
 -1      4025 2.00414E+01 4.11318E-02-4.72678E-04-1.10123E-01-1.01526E-14 1.22726E-13
 -1      4026 2.00116E+01 8.65540E-02 2.31736E-04-1.01508E-01-1.41354E-14 4.36948E-14
 -1      4027 2.01438E+01-5.60865E-02 3.35464E-04-1.40510E-01 5.00936E-14-8.05504E-14
 -1      4028 2.01575E+01-5.33551E-02 2.94783E-04-1.42130E-01 8.19860E-14-7.45968E-14
 -1      4029 2.02006E+01-5.00795E-02-5.39141E-04-1.27713E-01 6.28041E-14-1.03452E-13
 -1      4030 2.01627E+01-5.75819E-02-4.81849E-04-1.25736E-01 5.91678E-14-1.19538E-13
 -1      4031 2.03601E+01 7.91169E-01 5.74958E-05 1.40130E-01 9.80497E-14-1.31995E-13
 -1      4032 2.04010E+01 3.65521E-01 4.82770E-05-1.23661E-03-3.01612E-14-1.58564E-13
 -1      4033 2.03897E+01 2.64655E-01-9.79849E-04 3.02617E-02-4.46038E-14-1.42061E-13
 -1      4034 2.04051E+01 2.43723E-01 1.89772E-04 2.69702E-02-3.40346E-14-1.43299E-13
 -1      4035 1.98768E+01 2.61154E-01 3.71927E-04-1.95412E-01 3.19526E-14-5.67403E-15
 -1      4036 1.99011E+01 2.22674E-01-1.14411E-03-1.74048E-01 5.29044E-14 3.06727E-14
 -1      4037 1.99023E+01 2.21401E-01 7.61747E-04-1.42133E-01 1.08822E-13 8.99099E-14
 -1      4038 1.96103E+01 5.21098E-01 5.05853E-04-3.89889E-01-7.56546E-14-1.61426E-13
 -1      4039 1.96551E+01 4.75149E-01-2.16665E-03-3.44699E-01-4.91379E-14-1.63307E-13
 -1      4040 1.96354E+01 4.89621E-01 1.84475E-03-2.81837E-01-3.62486E-14-1.18796E-13
 -1      4041 2.03799E+01 6.18190E-01 3.47677E-04 9.17461E-02 7.19593E-14-1.13732E-13
 -1      4042 2.03802E+01 7.08973E-01-9.82938E-04 9.54454E-02 6.91215E-14-1.45924E-13
 -1      4043 2.03757E+01 4.77085E-01-1.11292E-03 3.46654E-02 5.86714E-14-9.02994E-14
 -1      4044 2.01387E+01-4.48265E-02 3.83301E-04-1.04599E-01 4.38330E-14-6.46232E-14
 -1      4045 2.01557E+01-5.34981E-02 4.94212E-05-1.05562E-01 6.05486E-14-7.19922E-14
 -1      4046 1.60397E+01 7.63688E-01-2.49055E-02 1.54219E+00-8.52595E-15-1.92320E-14
 -1      4047 1.56964E+01 6.11395E-01-3.49244E-03 1.79017E+00-5.17838E-14 2.31959E-14
 -1      4048 1.49396E+01 9.62418E-01 5.84749E-02 1.25485E+00 4.11203E-14-1.54340E-13
 -1      4049 1.59284E+01 1.08749E+00 3.71505E-02 1.01840E+00 7.26752E-14-5.01908E-14
 -1      4050 1.51455E+01 2.61398E-02 5.87093E-02-2.77363E+00-4.73545E-14-3.60280E-13
 -1      4051 1.64731E+01-4.16027E-01 1.24481E-02-2.88512E+00-4.35259E-14-3.01863E-13
 -1      4052 2.03049E+01 2.80138E-02-3.62724E-04-9.70226E-02 4.93008E-14-9.76628E-14
 -1      4053 2.03267E+01 7.17284E-02 7.83624E-04-8.44516E-02 4.74706E-14-1.10085E-13
 -1      4054 2.03802E+01 9.96109E-01 5.46345E-03 4.32371E-02 6.03222E-14-2.25549E-13
 -1      4055 1.74304E+01-6.05051E-01 1.87200E-03-2.89773E+00-1.07006E-13 1.70094E-14
 -1      4056 2.03970E+01 8.24452E-01-2.13426E-03-1.03398E-02 2.80051E-14-1.82672E-13
 -1      4057 2.03936E+01 8.10529E-01-2.67028E-03-4.47646E-02-1.66570E-14-1.33298E-13
 -1      4058 2.01012E+01-1.82918E-02 4.23946E-04-1.03771E-01-1.57448E-14 4.21284E-14
 -1      4059 2.01169E+01-3.31856E-02-1.31306E-04-1.03486E-01 2.08181E-14-2.15827E-14
 -1      4060 2.01414E+01-3.95620E-02-3.06839E-04-8.75295E-02 5.40603E-15 2.79317E-14
 -1      4061 1.46394E+01 4.33030E-01-8.13092E-03-1.96461E+00 8.43769E-15-2.09544E-13
 -1      4062 1.98311E+01 3.03087E-01 1.08382E-03-1.76357E-01 2.94847E-14 7.72054E-14
 -1      4063 2.04249E+01 6.28969E-01 2.92036E-03-2.44433E-02 2.93029E-15-1.23252E-13
 -1      4064 2.03965E+01 7.70740E-01 5.30232E-05-5.35977E-02-1.52361E-14-1.30130E-13
 -1      4065 2.03970E+01 7.07543E-01-1.86678E-03-6.46473E-02-2.49323E-14-1.37914E-13
 -1      4066 1.47648E+01 9.89999E-01-1.75969E-02 5.70896E-01 7.93077E-14-1.29143E-13
 -1      4067 2.03783E+01 6.87676E-01-4.92094E-04-9.86403E-02-5.74509E-15-2.11658E-13
 -1      4068 2.03873E+01 7.47818E-01-1.55688E-03 7.09776E-02 5.55585E-14-1.92731E-13
 -1      4069 2.03840E+01 7.24881E-01-4.89273E-04-8.97809E-02-2.91986E-14-1.94840E-13
 -1      4070 2.00641E+01 1.90787E-02 4.27676E-04-1.07012E-01-5.31052E-14 1.09321E-13
 -1      4071 2.00794E+01-1.09087E-03-2.96167E-04-1.04339E-01-4.76548E-14 8.32483E-14
 -1      4072 2.00993E+01-8.57724E-03-1.60356E-04-8.79027E-02-6.57846E-14 7.84449E-14
 -1      4073 2.04037E+01 4.89289E-01-3.42649E-04-2.23673E-02-4.25215E-15-1.75016E-13
 -1      4074 2.04188E+01 4.55008E-01 8.88134E-05-1.10291E-02 1.64528E-15-1.28627E-13
 -1      4075 2.02624E+01-2.87453E-02-1.69907E-05-1.07658E-01 6.38406E-14-8.61423E-14
 -1      4076 2.02839E+01-4.37714E-03 5.91998E-04-1.02110E-01 5.54395E-14-8.56434E-14
 -1      4077 2.03212E+01 1.92157E-02-3.86548E-04-8.07423E-02 4.32363E-14-1.12207E-13
 -1      4078 1.95023E+01 5.88152E-01 2.27393E-03-3.58050E-01-4.47733E-14-2.18025E-13
 -1      4079 1.80933E+01-7.91116E-01-2.06579E-04 3.18909E+00-3.26163E-14-2.39102E-13
 -1      4080 2.00567E+01 3.38434E-02 1.86682E-05-9.20505E-02-4.30819E-14 4.17562E-14
 -1      4081 1.66828E+01-4.83978E-03-1.96650E-02-2.40053E+00-1.42904E-14-1.42522E-13
 -1      4082 2.03991E+01 1.32272E-01 4.00711E-04 3.04571E-02-3.08190E-14-1.63550E-13
 -1      4083 2.03799E+01 7.35490E-02 2.74751E-05 4.10056E-02-3.80267E-14-1.53349E-13
 -1      4084 2.04173E+01 5.70044E-01 3.16024E-03 3.97841E-02 4.22996E-14-1.79222E-13
 -1      4085 2.03972E+01 7.63490E-01-2.41060E-03 4.95053E-02 6.21954E-14-2.21125E-13
 -1      4086 2.03109E+01-3.17551E-02 2.57025E-04 4.77008E-02-2.55488E-14-8.49647E-14
 -1      4087 2.02863E+01-4.82356E-02 1.33847E-04 5.02438E-02-8.68710E-15-7.24721E-14
 -1      4088 2.02607E+01-5.78103E-02 2.10914E-04 4.95212E-02-3.59768E-14-5.17514E-14
 -1      4089 2.02364E+01-6.11671E-02 2.23989E-04 5.02371E-02-2.83459E-14-7.13868E-14
 -1      4090 2.02817E+01-5.21342E-02-4.49314E-04 2.81589E-02-3.22596E-15-1.25255E-13
 -1      4091 2.02104E+01-5.90805E-02 1.13244E-04 4.92218E-02 1.17991E-14-7.06273E-14
 -1      4092 2.01872E+01-5.23271E-02 3.52929E-04 4.95624E-02 1.32477E-14-2.88656E-14
 -1      4093 2.02300E+01-6.01759E-02-5.09821E-04 2.78782E-02-2.47230E-14-5.81055E-14
 -1      4094 2.01613E+01-4.16731E-02 2.20217E-05 4.83365E-02-2.44152E-14-2.83732E-14
 -1      4095 2.01386E+01-2.70160E-02 3.25153E-04 4.90359E-02-4.66289E-14-3.36607E-14
 -1      4096 2.01797E+01-4.74240E-02-5.15789E-04 2.72588E-02 1.18457E-14-6.79710E-14
 -1      4097 2.01126E+01-9.42744E-03-1.09874E-04 4.85108E-02-4.09953E-14-6.85933E-15
 -1      4098 2.00898E+01 1.17267E-02 2.54880E-04 5.00935E-02 2.99299E-14-1.26745E-14
 -1      4099 2.01292E+01-1.78594E-02-3.58063E-04 2.75227E-02-7.74253E-15-2.05488E-15
 -1      4100 2.00628E+01 3.53094E-02-2.73539E-04 5.04782E-02 6.47249E-14-4.30057E-14
 -1      4101 2.00388E+01 6.22688E-02 1.56684E-04 5.34560E-02 2.17396E-14 2.91774E-14
 -1      4102 2.00783E+01 2.54224E-02 2.60511E-05 2.85585E-02 2.58139E-14-5.83212E-14
 -1      4103 2.00094E+01 9.14374E-02-4.66217E-04 5.49568E-02-6.27042E-15 5.84810E-14
 -1      4104 1.99827E+01 1.24007E-01 3.04185E-05 5.97447E-02-3.13048E-14 1.30303E-13
 -1      4105 2.00245E+01 8.08226E-02 5.04030E-04 3.08296E-02 3.54457E-14-1.04124E-14
 -1      4106 1.99492E+01 1.58715E-01-6.89701E-04 6.25345E-02-3.93549E-14 1.54621E-13
 -1      4107 1.99179E+01 1.96978E-01-1.28778E-04 6.94576E-02 5.91848E-15 1.91428E-13
 -1      4108 1.99645E+01 1.47842E-01 1.07658E-03 3.46305E-02-5.32750E-15-4.28947E-14
 -1      4109 1.98781E+01 2.37363E-01-9.47786E-04 7.36604E-02-5.33104E-14 2.34667E-13
 -1      4110 1.98400E+01 2.81488E-01-3.30312E-04 8.29484E-02-1.55875E-14 1.86769E-13
 -1      4111 1.98944E+01 2.26557E-01 1.76197E-03 4.01151E-02-4.88661E-14 1.26356E-13
 -1      4112 1.97912E+01 3.27679E-01-1.24530E-03 8.86264E-02-1.49523E-14 1.92647E-13
 -1      4113 1.97436E+01 3.77716E-01-5.87955E-04 1.00397E-01-6.19445E-15 1.66676E-13
 -1      4114 1.98097E+01 3.17227E-01 2.58723E-03 4.72725E-02 1.16988E-14 4.52151E-14
 -1      4115 1.96830E+01 4.29621E-01-1.58930E-03 1.07527E-01-1.37371E-14 1.28201E-13
 -1      4116 1.96226E+01 4.85274E-01-9.20121E-04 1.21762E-01 4.72533E-14 6.69182E-14
 -1      4117 1.97049E+01 4.19874E-01 3.58932E-03 5.58780E-02-5.52977E-14 4.53210E-14
 -1      4118 1.95468E+01 5.42343E-01-1.99236E-03 1.30208E-01 1.15825E-13-3.48757E-14
 -1      4119 1.94700E+01 6.02724E-01-1.35075E-03 1.46741E-01 5.29627E-14 1.81345E-14
 -1      4120 1.95735E+01 5.33841E-01 4.82010E-03 6.54207E-02 1.62918E-14-4.02198E-14
 -1      4121 1.93748E+01 6.63683E-01-2.47932E-03 1.56226E-01 9.08166E-14 8.79724E-15
 -1      4122 1.92771E+01 7.27051E-01-1.91162E-03 1.74761E-01 7.85888E-14 4.77062E-14
 -1      4123 1.94082E+01 6.57326E-01 6.35691E-03 7.50216E-02 5.06968E-14-5.78719E-14
 -1      4124 1.91577E+01 7.89641E-01-3.10062E-03 1.84870E-01-7.39538E-15 8.48046E-14
 -1      4125 1.90337E+01 8.53160E-01-2.64818E-03 2.05094E-01-4.57002E-15 5.40151E-14
 -1      4126 1.92002E+01 7.86941E-01 8.32319E-03 8.33608E-02 5.67295E-14-2.61432E-14
 -1      4127 1.88839E+01 9.13885E-01-3.95654E-03 2.15329E-01 4.44156E-14-4.65625E-14
 -1      4128 1.87268E+01 9.73447E-01-3.63388E-03 2.37181E-01-4.78779E-14-2.24648E-14
 -1      4129 1.89389E+01 9.17371E-01 1.09258E-02 8.86471E-02-7.15122E-14-1.23878E-13
 -1      4130 1.85379E+01 1.02741E+00-5.24004E-03 2.47117E-01-1.25452E-13-1.06982E-14
 -1      4131 1.83384E+01 1.07759E+00-5.00208E-03 2.71360E-01-9.50651E-14 4.48881E-15
 -1      4132 1.86102E+01 1.04126E+00 1.45190E-02 8.86587E-02-1.06534E-13-2.01862E-13
 -1      4133 1.80977E+01 1.11850E+00-7.30422E-03 2.80956E-01-1.21714E-13-2.85157E-14
 -1      4134 1.78423E+01 1.15267E+00-6.99548E-03 3.10264E-01-8.83074E-14-7.08529E-14
 -1      4135 1.81947E+01 1.14950E+00 1.97035E-02 8.08450E-02-1.29991E-13-1.13898E-14
 -1      4136 1.75290E+01 1.17313E+00-1.07074E-02 3.20528E-01 6.11520E-14-1.14006E-13
 -1      4137 1.71971E+01 1.18346E+00-9.83871E-03 3.61438E-01 1.44887E-13-9.82009E-14
 -1      4138 1.76622E+01 1.23196E+00 2.74051E-02 6.23116E-02-6.46748E-15-1.10998E-13
 -1      4139 1.67762E+01 1.17579E+00-1.57752E-02 3.77110E-01 9.81043E-14-1.02883E-13
 -1      4140 1.63449E+01 1.15326E+00-9.73513E-03 4.41089E-01 9.43438E-14-4.97088E-14
 -1      4141 1.69603E+01 1.27736E+00 3.81029E-02 2.92421E-02 9.26765E-14-2.43757E-13
 -1      4142 1.98719E+01 2.49766E-01-3.35514E-05-1.17609E-01 1.16229E-13 4.34660E-14
 -1      4143 1.99038E+01 2.09401E-01-9.38659E-04-1.04309E-01 9.76584E-14 5.89588E-14
 -1      4144 1.94038E+01 6.41639E-01-2.88151E-04-3.05035E-01-2.28522E-14-5.99124E-14
 -1      4145 1.94759E+01 5.87901E-01-2.76668E-03-2.67010E-01-2.39920E-14-2.81942E-14
 -1      4146 2.03622E+01 1.14408E-01-1.46580E-04-6.23191E-02 5.25534E-14-1.04195E-13
 -1      4147 2.03431E+01 1.26856E-01-7.92883E-04-7.28402E-02 5.29480E-14-9.66273E-14
 -1      4148 2.03625E+01 1.97188E-01 9.21276E-04-4.95074E-02 6.66204E-14-9.09261E-14
 -1      4149 2.03994E+01 7.80108E-01-1.95191E-03 1.82304E-02 5.86603E-14-2.44098E-13
 -1      4150 2.04245E+01 4.83791E-01-2.04714E-03-1.44239E-02 9.55855E-15-1.60451E-13
 -1      4151 2.04248E+01 3.69355E-01 7.54806E-04 4.98373E-03-2.99850E-14-1.46010E-13
 -1      4152 2.04266E+01 5.27978E-01-9.07265E-04-1.04328E-02 7.52436E-17-1.67600E-13
 -1      4153 1.87062E+01 8.84527E-01 7.13990E-04-6.45484E-01-7.67652E-14 1.22773E-13
 -1      4154 1.88239E+01 8.57773E-01-6.15590E-03-5.66944E-01-1.26101E-13 7.01579E-14
 -1      4155 2.04281E+01 6.34522E-01 3.12333E-03 4.38013E-03 2.91807E-14-1.98673E-13
 -1      4156 2.04054E+01 6.00666E-01 9.60984E-04-5.19398E-02-1.00018E-14-1.72548E-13
 -1      4157 1.96866E+01 4.33433E-01-2.24877E-04-1.86799E-01-1.62826E-14 4.87473E-14
 -1      4158 1.97346E+01 3.83661E-01-1.65816E-03-1.63305E-01 4.71375E-14 7.61686E-14
 -1      4159 1.89820E+01 8.28253E-01 1.09918E-04-5.00971E-01-1.57584E-13 3.32229E-14
 -1      4160 1.90843E+01 7.85658E-01-4.64777E-03-4.40074E-01-1.87921E-13-6.49387E-14
 -1      4161 1.88103E+01 9.21818E-01 1.11375E-02-4.16390E-01-2.02764E-13-7.76906E-14
 -1      4162 1.92129E+01 7.42399E-01-1.82551E-04-3.90553E-01-8.65718E-14-9.23786E-14
 -1      4163 1.92996E+01 6.91517E-01-3.56943E-03-3.42589E-01-2.34641E-14-9.94202E-14
 -1      4164 1.93030E+01 7.14020E-01 6.62464E-03-2.43279E-01 7.19542E-15 7.52779E-14
 -1      4165 1.90816E+01 8.24831E-01 8.56896E-03-3.17432E-01-1.99624E-13-7.62723E-14
 -1      4166 1.83810E+01 8.91270E-01 1.82294E-03-8.38586E-01-4.92735E-14 2.78903E-14
 -1      4167 1.85119E+01 8.90462E-01-8.35363E-03-7.34868E-01 4.43717E-14 1.14630E-13
 -1      4168 1.84795E+01 9.91676E-01 1.46711E-02-5.50647E-01-4.51777E-14-5.03734E-14
 -1      4169 1.80026E+01 8.21809E-01 3.78141E-03-1.10340E+00-1.79627E-13 3.43684E-14
 -1      4170 1.81412E+01 8.60339E-01-1.16578E-02-9.62366E-01-1.09527E-13 6.97198E-14
 -1      4171 1.80768E+01 1.01713E+00 1.97056E-02-7.36750E-01-3.53116E-14 3.99815E-14
 -1      4172 1.75733E+01 6.40400E-01 8.58788E-03-1.47735E+00-1.01064E-13-3.94047E-14
 -1      4173 1.77030E+01 7.36893E-01-1.64712E-02-1.27969E+00-1.58750E-13-2.07831E-15
 -1      4174 1.75834E+01 9.76014E-01 2.68771E-02-1.00086E+00-1.15138E-13-1.06405E-13
 -1      4175 1.70927E+01 2.75902E-01 1.18278E-02-2.02900E+00-6.16288E-14-4.70227E-14
 -1      4176 1.71914E+01 4.71255E-01-2.34373E-02-1.74341E+00-7.35223E-14-8.64485E-14
 -1      4177 1.69582E+01 8.37462E-01 3.34836E-02-1.38765E+00-7.62370E-14-2.11137E-13
 -1      4178 1.99401E+01 1.72307E-01 6.79871E-05-9.62691E-02 4.50931E-14 4.78964E-14
 -1      4179 1.99669E+01 1.37103E-01-6.69172E-04-8.69066E-02 3.33749E-14 2.64054E-14
 -1      4180 1.99154E+01 2.02351E-01 1.30222E-03-7.18777E-02 6.13863E-14-1.22924E-13
 -1      4181 1.95600E+01 5.36346E-01-2.85933E-04-2.38455E-01-1.54550E-14 7.48810E-15
 -1      4182 1.96190E+01 4.83438E-01-2.14797E-03-2.08390E-01 3.41651E-15 4.12004E-14
 -1      4183 1.94828E+01 5.99213E-01 5.09842E-03-1.87172E-01 2.96105E-14 1.25315E-13
 -1      4184 1.53681E+01 1.06888E+00-3.52246E-03 5.74413E-01 6.74872E-14-1.19208E-13
 -1      4185 1.49467E+01 1.14947E+00 5.10361E-02-2.15995E-02-4.82015E-15-1.57409E-13
 -1      4186 1.57831E+01 1.10807E+00-2.06042E-02 5.11589E-01 3.74095E-14-7.86362E-14
 -1      4187 1.99979E+01 1.05047E-01 1.62670E-04-8.18066E-02-1.39714E-14-1.82241E-15
 -1      4188 2.00213E+01 7.50135E-02-4.40821E-04-7.57053E-02-1.92862E-14-1.73750E-14
 -1      4189 1.99798E+01 1.28595E-01 7.02104E-04-6.02636E-02 9.13003E-16-7.40451E-14
 -1      4190 2.00487E+01 4.80453E-02 2.44559E-04-7.29859E-02-7.90392E-15-2.77892E-14
 -1      4191 2.00704E+01 2.32599E-02-2.41705E-04-6.94880E-02-5.03686E-14-1.02983E-14
 -1      4192 2.00357E+01 6.57921E-02 1.92283E-04-5.30016E-02 1.64413E-15-7.97542E-14
 -1      4193 2.03673E+01 2.69688E-01-1.13790E-03-3.18848E-02 6.57919E-14-9.77874E-14
 -1      4194 2.03816E+01 3.71727E-01 8.09825E-04 5.89552E-03 6.24496E-14-9.11237E-14
 -1      4195 2.03958E+01 4.36791E-01-3.16929E-04 1.63509E-02 5.06319E-14-1.23246E-13
 -1      4196 2.03885E+01 2.53903E-01 2.50776E-04-3.13733E-02 7.04029E-14-9.53959E-14
 -1      4197 1.46122E+01 9.70506E-01-1.74678E-02-6.48923E-01 1.15415E-14-1.46327E-13
 -1      4198 1.44439E+01 8.57676E-01 4.32829E-02-1.27731E+00 4.26781E-14-1.62139E-13
 -1      4199 1.54454E+01 5.61037E-01 5.28093E-03-1.75113E+00 6.78650E-14-2.57765E-13
 -1      4200 1.51508E+01 1.00041E+00-3.08373E-02-5.84476E-01-3.84675E-16-2.30350E-13
 -1      4201 1.62350E+01 4.52891E-01 1.88067E-02-2.00345E+00 4.99978E-14-2.79276E-13
 -1      4202 1.97889E+01 3.37142E-01-1.34786E-04-1.47225E-01 1.71225E-14 2.28456E-14
 -1      4203 1.98278E+01 2.91785E-01-1.26273E-03-1.29254E-01 4.32838E-14 8.28508E-14
 -1      4204 1.97444E+01 3.82358E-01 2.85432E-03-1.12610E-01 2.75802E-14 6.26582E-14
 -1      4205 2.01841E+01-5.70710E-02-6.01705E-04-8.93243E-02 6.62186E-14-2.27700E-14
 -1      4206 2.01779E+01-5.81880E-02 3.07014E-04-1.07296E-01 8.65465E-14-8.12413E-14
 -1      4207 2.01969E+01-5.88621E-02 3.26075E-04-1.07858E-01 7.81667E-14-6.71758E-14
 -1      4208 2.04218E+01 2.79723E-01-3.99232E-05 1.29744E-02-6.49602E-14-1.39540E-13
 -1      4209 2.04094E+01 1.92130E-01-3.64067E-04 2.91571E-02-4.91802E-14-1.60239E-13
 -1      4210 2.04109E+01 1.63499E-01-1.01313E-03 1.79065E-02-4.51367E-14-1.41051E-13
 -1      4211 2.04287E+01 3.12974E-01 1.86755E-05 8.01161E-03-4.41737E-14-1.58178E-13
 -1      4212 2.03584E+01 2.74672E-02 2.09797E-04 4.19182E-02-1.98658E-14-1.46128E-13
 -1      4213 2.03353E+01-6.68682E-03 7.39771E-05 4.78034E-02-1.47420E-14-9.94578E-14
 -1      4214 2.03790E+01 5.60907E-02-6.06527E-04 2.25547E-02 2.89714E-15-1.48533E-13
 -1      4215 2.03322E+01-1.65643E-02-5.75341E-04 2.67717E-02-1.31310E-14-1.29298E-13
 -1      4216 2.00959E+01 1.56971E-03 3.06813E-04-6.86448E-02-8.49886E-14-1.02205E-14
 -1      4217 2.01170E+01-1.76151E-02-6.29787E-05-6.70701E-02-4.69702E-14 4.31879E-15
 -1      4218 2.00866E+01 1.41259E-02-2.35593E-04-4.91452E-02-5.44196E-14-8.50458E-14
 -1      4219 1.59996E+01 1.25721E+00 3.95301E-02 4.40047E-03 4.01328E-14-2.92031E-13
 -1      4220 1.96278E+01 4.87220E-01 3.86693E-03-1.44638E-01 2.23552E-15 2.06737E-13
 -1      4221 1.98386E+01 2.87040E-01 2.01104E-03-8.89011E-02 4.54211E-14-1.97561E-14
 -1      4222 1.58431E+01 8.21193E-01 1.48559E-02-1.41371E+00 3.50631E-14-1.75506E-13
 -1      4223 2.04315E+01 5.24413E-01-4.03661E-04-4.21434E-03-1.67439E-14-1.63492E-13
 -1      4224 2.04405E+01 3.98389E-01 2.04343E-03-1.05878E-05-1.40376E-14-1.80259E-13
 -1      4225 2.04338E+01 3.05942E-01-2.17635E-04 3.62408E-03-3.03207E-14-1.60749E-13
 -1      4226 2.04337E+01 4.79121E-01-1.11309E-03 9.35397E-03 1.56221E-14-2.10918E-13
 -1      4227 2.01418E+01-3.34618E-02 3.49928E-04-6.76352E-02 7.43432E-16-1.06917E-14
 -1      4228 2.01634E+01-4.61521E-02 1.60169E-04-6.72282E-02 5.32608E-14-3.97079E-14
 -1      4229 2.01356E+01-2.56258E-02-5.58467E-04-4.77626E-02 3.58489E-15-4.87054E-14
 -1      4230 2.03727E+01 8.93294E-02-6.03695E-04-5.39193E-02 3.84794E-14-8.42330E-14
 -1      4231 2.03926E+01 1.52432E-01 6.02783E-04-3.99596E-02 5.54324E-14-1.01312E-13
 -1      4232 2.02196E+01-5.48600E-02 2.10004E-04-1.09715E-01 5.30480E-14-9.51551E-14
 -1      4233 2.02398E+01-4.48844E-02 4.23059E-04-1.08331E-01 5.53031E-14-1.02966E-13
 -1      4234 2.02756E+01-3.46162E-02-7.12860E-04-8.89750E-02 6.48117E-14-6.85164E-14
 -1      4235 2.02300E+01-5.77134E-02-7.56871E-04-9.10462E-02 5.23410E-14-5.50921E-14
 -1      4236 2.04149E+01 4.49604E-01-7.71000E-04 9.13246E-03 5.71933E-14-1.61848E-13
 -1      4237 2.03317E+01 3.70915E-03 1.11982E-04-6.47779E-02 3.81673E-14-1.07660E-13
 -1      4238 2.03545E+01 4.10072E-02 7.40313E-04-5.74230E-02 2.94314E-14-1.03382E-13
 -1      4239 2.03788E+01 7.36708E-02-5.53808E-04-3.83368E-02 2.75477E-14-8.66334E-14
 -1      4240 2.01882E+01-5.54018E-02 2.45192E-04-6.86046E-02 6.27053E-14-3.26954E-14
 -1      4241 2.02112E+01-6.06039E-02 1.98741E-04-6.87761E-02 4.53247E-14-5.17305E-14
 -1      4242 2.01843E+01-5.23227E-02-6.34782E-04-4.79064E-02 4.50893E-14-5.30418E-14
 -1      4243 2.03861E+01 6.37058E-02-3.21905E-05-1.01204E-02 1.44647E-14-1.23004E-13
 -1      4244 2.03641E+01 1.99210E-02 6.03886E-04-7.38433E-03 1.38599E-14-1.14448E-13
 -1      4245 2.02466E+01-6.16500E-02 1.40430E-04 4.85774E-03-1.06365E-14-3.93756E-14
 -1      4246 2.02215E+01-5.97522E-02 3.15670E-04 5.58438E-03-1.54132E-14-4.04255E-14
 -1      4247 2.01865E+01-4.94584E-02 3.37097E-04-1.01100E-02 1.54748E-14-3.17571E-14
 -1      4248 2.01611E+01-3.76353E-02 3.56277E-04-9.36640E-03 3.00493E-14-3.98855E-14
 -1      4249 2.01362E+01-2.17159E-02 2.56893E-04-1.01403E-02-1.08525E-14-3.31516E-14
 -1      4250 2.01102E+01-2.88516E-03 2.17373E-04-9.62034E-03-1.51417E-14-7.10625E-15
 -1      4251 2.00845E+01 1.92490E-02 2.72139E-05-1.09627E-02-3.20321E-14-7.74941E-14
 -1      4252 2.00574E+01 4.42653E-02-3.97704E-05-1.02861E-02-1.99222E-15-9.59495E-14
 -1      4253 2.00297E+01 7.20178E-02-2.91084E-04-1.26696E-02 1.02188E-14-8.52249E-14
 -1      4254 2.00002E+01 1.02856E-01-3.54603E-04-1.17346E-02-2.03441E-14-1.20028E-13
 -1      4255 1.99691E+01 1.35977E-01-6.78871E-04-1.55487E-02 2.17144E-14-8.42448E-14
 -1      4256 1.99354E+01 1.72595E-01-7.31841E-04-1.43400E-02 7.86291E-16-6.99528E-14
 -1      4257 1.98988E+01 2.11056E-01-1.13854E-03-1.99989E-02-1.62638E-14-4.67672E-14
 -1      4258 1.98587E+01 2.53553E-01-1.18938E-03-1.85864E-02 9.29196E-15-6.26405E-14
 -1      4259 1.98144E+01 2.97339E-01-1.68086E-03-2.65779E-02-1.79068E-14 1.70932E-14
 -1      4260 1.97652E+01 3.45747E-01-1.75345E-03-2.51394E-02-5.18831E-15 1.14076E-14
 -1      4261 1.97105E+01 3.94627E-01-2.32257E-03-3.60799E-02-1.87780E-14 5.93662E-14
 -1      4262 1.96492E+01 4.48687E-01-2.46024E-03-3.49383E-02-4.41154E-14 5.49375E-14
 -1      4263 1.95812E+01 5.01967E-01-3.08845E-03-4.96495E-02-2.57993E-14 9.63200E-14
 -1      4264 1.95042E+01 5.60878E-01-3.36102E-03-4.93225E-02 1.55221E-14 4.33285E-14
 -1      4265 1.94197E+01 6.17120E-01-4.01728E-03-6.89465E-02 5.29743E-14 5.19198E-14
 -1      4266 1.93227E+01 6.79282E-01-4.53235E-03-7.02051E-02 7.54829E-14 5.03002E-14
 -1      4267 1.92179E+01 7.36020E-01-5.17442E-03-9.63888E-02 3.56966E-14 5.94489E-14
 -1      4268 1.90957E+01 7.98786E-01-6.09504E-03-1.00321E-01-7.06782E-14-1.75609E-14
 -1      4269 1.89664E+01 8.52237E-01-6.67467E-03-1.35516E-01-1.71287E-13-4.35887E-15
 -1      4270 1.88123E+01 9.11726E-01-8.24857E-03-1.43596E-01-1.85923E-13-1.15441E-13
 -1      4271 1.86532E+01 9.56546E-01-8.72074E-03-1.91548E-01-1.29870E-13-8.69502E-14
 -1      4272 1.84581E+01 1.00755E+00-1.13292E-02-2.05734E-01-1.48212E-13-1.20537E-13
 -1      4273 1.82620E+01 1.03665E+00-1.16524E-02-2.72278E-01-8.90023E-14-8.77490E-14
 -1      4274 1.80123E+01 1.07269E+00-1.58819E-02-2.95226E-01-3.70875E-14-5.64286E-14
 -1      4275 1.77695E+01 1.07715E+00-1.59157E-02-3.89472E-01-2.90456E-14-7.43203E-14
 -1      4276 1.74443E+01 1.09063E+00-2.25517E-02-4.25237E-01 9.34756E-15-1.40661E-13
 -1      4277 1.71417E+01 1.06028E+00-2.12612E-02-5.60712E-01-2.08599E-14-2.04699E-13
 -1      4278 1.67099E+01 1.04289E+00-3.03236E-02-6.16631E-01-3.20312E-14-2.18979E-13
 -1      4279 2.04137E+01 3.06515E-01 7.74571E-04-1.22536E-02 5.64826E-14-1.31004E-13
 -1      4280 2.04268E+01 4.22307E-01-4.00431E-05 3.70746E-03 3.89135E-14-1.88673E-13
 -1      4281 2.04335E+01 3.33462E-01 1.24927E-04-7.42043E-03 2.64720E-14-1.84676E-13
 -1      4282 2.04032E+01 2.24909E-01-9.79723E-04-3.19406E-02 5.41143E-14-1.19057E-13
 -1      4283 2.04117E+01 2.00632E-01-2.06701E-04-2.38205E-02 3.66137E-14-1.16881E-13
 -1      4284 1.63292E+01 9.78429E-01-1.99815E-02-8.07003E-01-6.12596E-15-2.82119E-13
 -1      4285 2.02994E+01-4.75964E-02 3.10293E-04 5.11051E-03 1.09519E-14-7.74452E-14
 -1      4286 2.02734E+01-5.76705E-02 4.09034E-04 6.26343E-03 2.02231E-14-5.44752E-14
 -1      4287 2.02583E+01-6.05491E-02-5.38279E-04-1.75422E-02 1.67832E-15-2.09595E-14
 -1      4288 1.58036E+01 9.36216E-01-1.79685E-02-8.69081E-01 3.79601E-15-2.26575E-13
 -1      4289 2.03414E+01-2.82470E-03-8.52634E-04-3.87476E-02 3.83292E-14-8.00507E-14
 -1      4290 2.03458E+01-8.18335E-03 2.73335E-04-2.90668E-03 2.04724E-14-9.86065E-14
 -1      4291 2.03200E+01-3.32007E-02 3.25958E-04-1.23463E-03 1.60263E-14-1.07146E-13
 -1      4292 2.03161E+01-1.95482E-02 5.74535E-04-5.83758E-02 6.33464E-14-9.57030E-14
 -1      4293 2.03045E+01-4.21933E-02-8.57320E-04-2.56239E-02 5.81774E-14-3.45237E-14
 -1      4294 2.02506E+01-5.84975E-02 2.88432E-04-5.45008E-02 3.35224E-14-7.40145E-14
 -1      4295 2.02744E+01-5.13967E-02 4.81989E-04-5.33550E-02 5.17180E-14-8.77908E-14
 -1      4296 2.02933E+01-3.95341E-02 3.80519E-04-6.13342E-02 7.48787E-14-1.03668E-13
 -1      4297 2.01963E+01-5.29231E-02-2.26500E-04-3.17567E-02 2.52293E-14-3.26904E-14
 -1      4298 2.04061E+01 1.20184E-01 1.10834E-03-5.19545E-03 4.76445E-15-1.13987E-13
 -1      4299 2.04181E+01 1.76030E-01-2.14061E-04 6.42626E-03-2.21304E-14-1.53231E-13
 -1      4300 2.04180E+01 1.86559E-01-5.90382E-04-1.50866E-02-1.02879E-15-1.25632E-13
 -1      4301 2.04300E+01 2.68407E-01 6.23012E-04-6.10731E-03 2.27152E-14-1.67764E-13
 -1      4302 2.02469E+01-5.90533E-02-3.07732E-04-3.24678E-02 5.34005E-15-7.95330E-14
 -1      4303 2.04303E+01 2.43839E-01 1.40353E-03 4.84966E-03-3.52390E-14-1.52287E-13
 -1      4304 2.04337E+01 3.19406E-01-9.19137E-04-1.42987E-03-3.83764E-16-1.69556E-13
 -1      4305 2.02212E+01-5.93186E-02 4.94571E-04-3.18865E-02-7.83624E-15-5.06783E-14
 -3
    1PSTEP                         3           1           1          
  100CL  101 1.000000000        4305                     0    1           1
 -4  TOSTRAIN    6    1
 -5  EXX         1    4    1    1
 -5  EYY         1    4    2    2
 -5  EZZ         1    4    3    3
 -5  EXY         1    4    1    2
 -5  EYZ         1    4    2    3
 -5  EZX         1    4    3    1
 -1         1 2.75767E-05 2.46246E-05-2.40326E-05 4.81924E-05-3.80487E-18-2.98283E-18
 -1         2 3.83200E-05-1.16601E-04 2.11485E-05 5.07937E-07 6.48488E-18-2.11565E-18
 -1         3 9.50913E-05-2.87270E-05-2.82803E-05-1.62435E-07-4.57911E-18-3.82959E-18
 -1         4 9.50440E-05-2.87708E-05-2.81883E-05 2.08153E-07 1.67512E-18 5.95909E-20
 -1         5 1.43343E-04-2.14782E-05-4.25260E-05 3.85316E-05-1.91112E-19 1.32210E-17
 -1         6 1.45405E-04 2.57554E-10-4.41850E-05-5.35274E-05-8.15269E-19 1.16175E-17
 -1         7 9.06017E-05-5.10737E-07-3.90658E-05-2.92555E-05-1.16361E-19 1.69131E-18
 -1         8 8.51202E-05 8.65455E-08-3.63370E-05-2.02767E-05-1.55828E-19-1.23635E-18
 -1         9 8.28134E-05 7.59950E-08-3.53501E-05-1.56455E-05-1.13238E-19-2.75650E-18
 -1        10 8.17707E-05 3.97237E-08-3.48814E-05-1.20835E-05-6.72134E-20-3.48202E-18
 -1        11 8.12542E-05 1.93030E-08-3.46536E-05-9.01945E-06-4.69905E-20-3.78550E-18
 -1        12 8.09875E-05 9.05562E-09-3.45399E-05-6.28845E-06-2.70984E-20-3.84132E-18
 -1        13 8.08473E-05 4.48282E-09-3.44828E-05-3.68789E-06-5.74063E-21-3.77509E-18
 -1        14 8.07887E-05 2.64918E-09-3.44595E-05-1.18430E-06 2.51159E-20-3.69471E-18
 -1        15 8.07907E-05 2.64691E-09-3.44602E-05 1.28990E-06 5.05815E-20-3.63095E-18
 -1        16 8.08535E-05 4.44373E-09-3.44850E-05 3.79850E-06 5.89317E-20-3.53008E-18
 -1        17 8.09990E-05 8.34211E-09-3.45437E-05 6.41082E-06 6.99629E-20-3.30312E-18
 -1        18 8.12721E-05 1.81299E-08-3.46588E-05 9.16091E-06 7.06611E-20-2.89718E-18
 -1        19 8.17966E-05 3.81894E-08-3.48897E-05 1.22636E-05 1.46014E-19-2.28411E-18
 -1        20 8.28330E-05 8.15708E-08-3.53623E-05 1.58762E-05 1.56291E-19-1.17167E-18
 -1        21 8.50852E-05 1.69592E-07-3.63755E-05 2.04871E-05 1.77003E-19 9.10003E-19
 -1        22 9.16393E-05-9.93730E-08-3.87374E-05 2.80022E-05 3.57871E-20 4.83054E-18
 -1        23 1.12969E-04-3.81244E-05-3.53952E-05-4.40331E-06-5.73785E-19 8.76298E-18
 -1        24 9.27983E-05-2.76952E-05-2.89973E-05 3.91247E-07-9.60621E-20 6.31572E-18
 -1        25 8.91122E-05-2.68500E-05-2.69270E-05 3.76001E-07-5.81541E-20 4.12224E-18
 -1        26 8.80067E-05-2.64857E-05-2.63889E-05 2.03791E-07-4.93496E-21 2.44042E-18
 -1        27 8.80290E-05-2.64627E-05-2.63800E-05 1.39691E-07-6.84488E-20 1.40202E-18
 -1        28 8.85590E-05-2.65981E-05-2.65484E-05 1.00766E-07 5.46311E-21 6.83271E-19
 -1        29 8.93098E-05-2.68096E-05-2.67796E-05 7.49546E-08-1.29181E-19-1.61079E-19
 -1        30 9.01296E-05-2.70478E-05-2.70282E-05 5.64984E-08 6.88085E-21-8.06150E-19
 -1        31 9.09340E-05-2.72847E-05-2.72709E-05 4.25924E-08-7.82051E-21-1.36625E-18
 -1        32 9.16768E-05-2.75050E-05-2.74948E-05 3.17793E-08-3.28043E-20-2.46442E-18
 -1        33 9.23362E-05-2.77013E-05-2.76936E-05 2.32420E-08 2.68624E-19-2.67683E-18
 -1        34 9.29056E-05-2.78714E-05-2.78655E-05 1.64739E-08-6.09358E-20-2.82099E-18
 -1        35 9.33895E-05-2.80163E-05-2.80118E-05 1.11275E-08-1.68051E-20-3.38699E-18
 -1        36 9.37992E-05-2.81394E-05-2.81359E-05 6.95121E-09 8.97723E-20-3.18776E-18
 -1        37 9.41517E-05-2.82455E-05-2.82428E-05 3.76454E-09-2.58642E-19-3.49598E-18
 -1        38 9.44681E-05-2.83410E-05-2.83390E-05 1.45107E-09-1.24155E-19-3.72554E-18
 -1        39 9.47735E-05-2.84335E-05-2.84320E-05-3.95135E-11-7.31665E-20-4.10030E-18
 -1        40 9.50975E-05-2.85317E-05-2.85307E-05-6.83063E-10 1.73336E-19-3.35266E-18
 -1        41 9.54746E-05-2.86460E-05-2.86457E-05-3.67055E-10-8.94105E-20-3.41713E-18
 -1        42 9.59454E-05-2.87887E-05-2.87891E-05 1.12941E-09 3.52293E-19-3.50205E-18
 -1        43 9.65582E-05-2.89740E-05-2.89757E-05 4.16255E-09-3.59798E-19-3.84788E-18
 -1        44 9.73697E-05-2.92190E-05-2.92226E-05 9.25702E-09 3.72760E-19-3.66558E-18
 -1        45 9.84461E-05-2.95434E-05-2.95497E-05 1.71400E-08-2.72615E-19-3.59217E-18
 -1        46 9.98618E-05-2.99692E-05-2.99793E-05 2.87581E-08 1.85768E-19-5.69105E-18
 -1        47 1.01696E-04-3.05199E-05-3.05351E-05 4.52309E-08-2.90646E-20-4.58677E-18
 -1        48 1.04024E-04-3.12172E-05-3.12386E-05 6.76355E-08 4.92097E-19-3.26309E-18
 -1        49 1.06895E-04-3.20753E-05-3.21026E-05 9.64083E-08 1.43693E-19-2.05992E-18
 -1        50 1.10296E-04-3.30897E-05-3.31194E-05 1.29980E-07-9.37065E-20-2.47905E-18
 -1        51 1.14092E-04-3.42196E-05-3.42413E-05 1.62104E-07 1.35014E-19-2.67533E-18
 -1        52 1.17931E-04-3.53605E-05-3.53526E-05 1.77535E-07 5.97146E-20-2.30375E-18
 -1        53 1.21136E-04-3.63134E-05-3.62420E-05 1.47300E-07-6.07168E-19-4.76800E-18
 -1        54 1.22650E-04-3.67661E-05-3.65958E-05 2.93067E-08 7.41629E-19-6.48409E-18
 -1        55 1.21154E-04-3.63278E-05-3.60537E-05-2.13127E-07-6.53031E-19-6.27396E-18
 -1        56 1.15588E-04-3.46763E-05-3.43753E-05-5.60747E-07 3.76516E-19-8.17374E-18
 -1        57 1.06101E-04-3.18426E-05-3.16909E-05-8.74947E-07 3.84622E-19-7.86327E-18
 -1        58 9.49805E-05-2.84996E-05-2.86804E-05-9.10725E-07 1.12364E-20-5.23440E-18
 -1        59 8.64006E-05-2.59070E-05-2.64224E-05-5.04630E-07-9.17443E-20-3.35062E-18
 -1        60 8.42628E-05-2.52604E-05-2.58517E-05 1.91771E-07-1.77295E-19-2.66896E-18
 -1        61 8.94292E-05-2.68252E-05-2.71694E-05 7.65767E-07 3.10621E-19-7.83585E-19
 -1        62 9.90394E-05-2.97224E-05-2.96998E-05 9.17968E-07-4.00457E-19-2.78817E-18
 -1        63 1.08648E-04-3.26001E-05-3.23351E-05 6.90505E-07 2.86099E-19-1.39181E-18
 -1        64 1.14953E-04-3.44744E-05-3.41648E-05 3.24083E-07-8.20672E-19 1.07430E-18
 -1        65 1.16907E-04-3.50477E-05-3.48159E-05 1.53256E-08-1.87684E-19 3.27792E-19
 -1        66 1.15172E-04-3.45266E-05-3.43998E-05-1.69510E-07 8.55363E-19 1.81548E-18
 -1        67 1.11093E-04-3.33130E-05-3.32691E-05-2.48069E-07-6.20481E-20 1.36351E-18
 -1        68 1.06011E-04-3.18023E-05-3.18160E-05-2.58257E-07-1.14668E-20 1.08698E-19
 -1        69 1.01037E-04-3.03207E-05-3.03856E-05-2.20913E-07 4.40182E-19 2.82075E-19
 -1        70 9.71249E-05-2.91421E-05-2.92606E-05-1.06920E-07-2.71630E-20 1.65784E-18
 -1        71 9.51199E-05-2.84885E-05-2.86087E-05 7.60395E-08-5.83111E-19 1.53020E-18
 -1        72 1.02174E-04-3.05858E-05-3.41485E-05-1.92863E-06 2.20255E-19 1.21881E-17
 -1        73 9.25549E-05-2.75113E-05-2.89057E-05-3.33144E-07 8.92627E-20 9.54001E-18
 -1        74 8.90989E-05-2.66992E-05-2.69701E-05-1.25873E-07 1.54476E-20 7.66319E-18
 -1        75 8.80357E-05-2.64362E-05-2.64327E-05-9.55281E-08 5.93155E-20 6.43611E-18
 -1        76 8.80640E-05-2.64429E-05-2.64066E-05-7.65078E-08 1.49244E-20 5.32594E-18
 -1        77 8.85934E-05-2.65926E-05-2.65655E-05-6.23848E-08 6.90805E-20 4.29070E-18
 -1        78 8.93412E-05-2.68109E-05-2.67920E-05-5.15133E-08-7.45253E-20 3.90192E-18
 -1        79 9.01574E-05-2.70524E-05-2.70376E-05-4.25150E-08 9.96173E-20 3.25267E-18
 -1        80 9.09582E-05-2.72907E-05-2.72782E-05-3.47205E-08-1.31358E-19 2.11432E-18
 -1        81 9.16976E-05-2.75115E-05-2.75005E-05-2.78595E-08 1.71794E-19 1.47087E-18
 -1        82 9.23538E-05-2.77077E-05-2.76982E-05-2.18093E-08-2.97339E-20 1.93910E-18
 -1        83 9.29207E-05-2.78773E-05-2.78692E-05-1.64899E-08 1.70963E-19 2.08072E-18
 -1        84 9.34024E-05-2.80217E-05-2.80149E-05-1.18284E-08 2.66918E-20 1.85975E-18
 -1        85 9.38107E-05-2.81441E-05-2.81387E-05-7.75147E-09 9.32320E-20 1.49710E-18
 -1        86 9.41624E-05-2.82498E-05-2.82456E-05-4.18954E-09 1.13126E-19 4.98166E-19
 -1        87 9.44786E-05-2.83448E-05-2.83419E-05-1.08641E-09-2.78476E-19-4.75119E-20
 -1        88 9.47842E-05-2.84368E-05-2.84352E-05 1.58729E-09 1.88667E-19 1.19455E-18
 -1        89 9.51079E-05-2.85342E-05-2.85342E-05 3.81716E-09-3.27334E-20-1.42165E-19
 -1        90 9.54827E-05-2.86470E-05-2.86488E-05 5.52355E-09-1.04566E-19-5.19159E-20
 -1        91 9.59465E-05-2.87865E-05-2.87904E-05 6.53461E-09-7.24992E-20-4.16873E-19
 -1        92 9.65423E-05-2.89655E-05-2.89720E-05 6.55229E-09-2.38014E-20-2.71374E-19
 -1        93 9.73179E-05-2.91983E-05-2.92080E-05 5.11151E-09 1.66267E-20-1.16236E-18
 -1        94 9.83243E-05-2.94999E-05-2.95135E-05 1.53686E-09-9.47465E-20-1.89250E-18
 -1        95 9.96122E-05-2.98854E-05-2.99035E-05-5.08744E-09-3.77808E-19-1.89083E-18
 -1        96 1.01224E-04-3.03672E-05-3.03899E-05-1.58948E-08 2.22603E-19 1.37578E-19
 -1        97 1.03181E-04-3.09515E-05-3.09778E-05-3.20740E-08-4.99104E-20 2.01353E-18
 -1        98 1.05461E-04-3.16315E-05-3.16582E-05-5.44034E-08 2.71653E-19 2.09755E-18
 -1        99 1.07965E-04-3.23780E-05-3.23980E-05-8.22225E-08-4.02222E-19-2.47625E-20
 -1       100 1.10475E-04-3.31270E-05-3.31272E-05-1.11556E-07-1.67732E-19 2.47094E-18
 -1       101 1.12607E-04-3.37660E-05-3.37270E-05-1.32387E-07 2.78706E-19 1.87206E-18
 -1       102 1.13790E-04-3.41271E-05-3.40264E-05-1.26168E-07-1.63254E-19-1.51508E-18
 -1       103 1.13308E-04-3.39987E-05-3.38233E-05-6.71655E-08-7.58169E-20-1.59568E-18
 -1       104 1.10495E-04-3.31787E-05-3.29466E-05 6.56482E-08 3.54935E-20 2.63295E-19
 -1       105 1.05099E-04-3.15811E-05-3.13616E-05 2.62989E-07 2.33430E-19 1.97915E-18
 -1       106 9.77405E-05-2.93738E-05-2.92817E-05 4.60684E-07-3.68704E-19 1.29821E-18
 -1       107 9.01424E-05-2.70615E-05-2.71980E-05 5.44171E-07 3.73759E-19 2.55301E-19
 -1       108 8.47220E-05-2.53829E-05-2.57407E-05 4.20618E-07 2.93545E-19-1.86521E-18
 -1       109 8.34490E-05-2.49633E-05-2.53975E-05 1.16184E-07 4.17875E-20 2.50520E-19
 -1       110 8.66717E-05-2.59304E-05-2.62482E-05-2.22715E-07 3.51125E-19-1.42680E-18
 -1       111 9.28959E-05-2.78298E-05-2.79184E-05-4.37811E-07 1.94176E-19-1.03002E-18
 -1       112 9.96822E-05-2.99040E-05-2.97828E-05-4.66020E-07-6.26909E-19 2.78970E-18
 -1       113 1.04910E-04-3.14965E-05-3.12679E-05-3.54051E-07 4.53951E-19 4.33241E-18
 -1       114 1.07524E-04-3.22873E-05-3.20540E-05-1.89809E-07 2.29024E-19 2.51505E-18
 -1       115 1.07517E-04-3.22819E-05-3.21034E-05-3.89606E-08-4.89891E-19-2.21572E-19
 -1       116 1.05526E-04-3.16782E-05-3.15731E-05 7.14468E-08 5.23551E-19 1.24516E-18
 -1       117 1.02422E-04-3.07406E-05-3.07093E-05 1.39419E-07 1.71180E-19-3.36819E-18
 -1       118 9.90944E-05-2.97336E-05-2.97765E-05 1.67382E-07-4.51281E-20-8.59014E-18
 -1       119 9.64011E-05-2.89135E-05-2.90176E-05 1.36030E-07 4.42345E-19-1.09247E-17
 -1       120 9.51157E-05-2.84791E-05-2.85769E-05-2.31087E-08 1.53150E-18-1.11697E-17
 -1       121 9.52475E-05-2.85937E-05-2.85903E-05-8.07308E-08-1.02813E-17 3.44925E-19
 -1       122 9.48388E-05-2.72882E-05-2.90513E-05 6.16742E-08-3.52831E-18 1.67752E-18
 -1       123 9.39829E-05-2.44290E-05-2.98862E-05 1.44840E-07 8.62915E-18 7.44806E-19
 -1       124 9.28148E-05-2.05182E-05-3.10268E-05 1.91513E-07 9.90827E-18 8.74335E-19
 -1       125 9.14831E-05-1.60454E-05-3.23339E-05 2.14470E-07 5.57111E-18-2.04149E-18
 -1       126 9.01730E-05-1.16355E-05-3.36186E-05 2.10011E-07 7.43814E-19-1.89669E-19
 -1       127 8.90280E-05-7.78499E-06-3.47334E-05 1.69995E-07 4.70402E-18 1.51888E-18
 -1       128 8.82652E-05-5.21792E-06-3.54713E-05 9.37156E-08 1.59539E-18-3.65696E-19
 -1       129 8.80333E-05-4.43695E-06-3.56916E-05-6.73532E-09 1.57237E-18 7.33163E-19
 -1       130 8.83940E-05-5.64897E-06-3.53374E-05-1.10118E-07 1.08017E-18-1.32176E-18
 -1       131 8.92975E-05-8.69081E-06-3.44551E-05-1.96577E-07-8.54217E-18-1.35641E-18
 -1       132 9.05771E-05-1.29941E-05-3.32071E-05-2.43351E-07-1.31658E-17 2.05051E-18
 -1       133 9.20666E-05-1.80001E-05-3.17572E-05-2.54576E-07-6.38892E-18 3.25951E-19
 -1       134 9.35064E-05-2.28514E-05-3.03629E-05-2.36591E-07-3.20561E-18-2.24392E-19
 -1       135 9.46413E-05-2.66166E-05-2.92646E-05-1.73337E-07-2.22843E-18 6.28020E-20
 -1       136 9.51483E-05-2.84565E-05-2.86155E-05 1.84080E-07-1.72146E-18 2.65092E-20
 -1       137 2.75029E-05-9.24420E-05 1.65797E-05-2.48739E-05 1.89502E-18 1.56209E-18
 -1       138 8.49016E-06-3.77041E-05 4.30184E-06-2.01087E-05 4.72687E-18 2.07502E-18
 -1       139 1.12592E-05 1.34496E-05-1.43046E-05 2.22384E-05 8.75705E-18 6.16640E-18
 -1       140 5.72569E-05 2.83444E-05-3.52115E-05 7.87202E-05 1.18868E-17 1.40747E-17
 -1       141 1.46217E-04-2.66295E-06-5.50494E-05 1.12790E-04 8.46440E-18 1.42310E-17
 -1       142 2.47909E-04-5.69539E-05-7.12569E-05 9.70846E-05 4.18609E-18 1.12622E-17
 -1       143 3.05878E-04-9.30976E-05-7.86071E-05 3.01709E-05 1.70518E-19 2.27047E-18
 -1       144 2.94367E-04-8.61487E-05-7.70725E-05-5.22895E-05-1.04470E-19 2.43522E-20
 -1       145 2.16361E-04-3.98053E-05-6.64096E-05-1.08005E-04 1.73388E-18-3.27463E-18
 -1       146 1.14796E-04 1.08702E-05-4.90874E-05-1.06338E-04 3.07409E-18-5.03646E-18
 -1       147 3.32351E-05 2.82815E-05-2.70615E-05-5.70645E-05 5.81954E-18-4.73618E-18
 -1       148 5.47829E-06-3.42241E-06-6.54770E-06-2.19637E-06 7.00581E-18-4.70273E-18
 -1       149 1.54147E-05-6.15419E-05 1.02358E-05 2.61387E-05 1.78258E-18-1.20956E-18
 -1       150 3.40956E-05-1.06131E-04 1.92622E-05 1.47512E-05-3.25737E-18 3.80715E-19
 -1       151 3.49489E-05-1.08400E-04 1.96791E-05-1.40727E-05-3.22391E-18-5.65368E-19
 -1       152 1.63892E-05-6.53913E-05 1.10991E-05-2.77367E-05-3.58210E-18-8.30728E-19
 -1       153 5.71700E-06-8.26515E-06-5.10145E-06-1.81859E-06-4.13225E-18-2.20906E-18
 -1       154 9.86111E-05 1.57255E-05-4.52841E-05 9.91191E-05-1.37473E-18-1.75039E-18
 -1       155 2.01799E-04-3.15268E-05-6.42798E-05 1.11257E-04-1.04079E-18-3.31910E-18
 -1       156 2.87397E-04-8.09892E-05-7.63579E-05 6.68377E-05-1.02079E-18-1.86834E-18
 -1       157 3.13461E-04-9.64207E-05-7.98490E-05-1.52922E-05 3.30105E-19 1.38490E-18
 -1       158 2.63473E-04-6.54082E-05-7.34440E-05-8.94555E-05-2.57286E-18 7.19491E-18
 -1       159 1.62512E-04-9.96363E-06-5.81203E-05-1.15641E-04-7.90663E-18 1.38367E-17
 -1       160 6.96545E-05 2.58073E-05-3.87357E-05-8.66341E-05-1.01602E-17 1.30684E-17
 -1       161 1.45761E-05 1.88967E-05-1.74604E-05-2.99119E-05-9.52319E-18 8.84895E-18
 -1       162 7.09162E-06-3.06310E-05 2.24299E-06 1.65229E-05 5.12455E-20 1.33662E-18
 -1       163 2.61374E-05-9.05662E-05 1.64175E-05 2.57881E-05 1.03416E-17-2.17349E-18
 -1       164 9.48624E-05-1.23448E-05-3.55675E-05-2.23535E-05-1.77006E-18 1.39628E-19
 -1       165 8.92455E-05-8.45531E-06-3.47861E-05-1.73970E-05-1.60421E-18-1.63963E-18
 -1       166 8.65487E-05-6.50650E-06-3.44156E-05-1.35884E-05-1.20370E-18-2.55541E-18
 -1       167 8.51896E-05-5.51402E-06-3.42308E-05-1.03771E-05-8.01819E-19-3.04005E-18
 -1       168 8.44516E-05-4.94724E-06-3.41422E-05-7.55156E-06-5.00457E-19-3.15451E-18
 -1       169 8.40263E-05-4.60202E-06-3.41006E-05-4.90617E-06-2.04938E-19-3.21209E-18
 -1       170 8.38089E-05-4.41763E-06-3.40829E-05-2.39638E-06 1.21797E-19-3.11812E-18
 -1       171 8.37448E-05-4.36189E-06-3.40783E-05 5.13584E-08 4.13887E-19-3.06135E-18
 -1       172 8.38186E-05-4.42601E-06-3.40837E-05 2.50123E-06 6.78549E-19-2.96255E-18
 -1       173 8.40476E-05-4.62086E-06-3.41020E-05 5.01763E-06 8.87653E-19-2.86746E-18
 -1       174 8.44786E-05-4.97340E-06-3.41433E-05 7.62808E-06 1.12832E-18-2.56181E-18
 -1       175 8.52521E-05-5.57510E-06-3.42322E-05 1.05180E-05 1.45851E-18-2.11462E-18
 -1       176 8.66456E-05-6.60844E-06-3.44178E-05 1.37891E-05 1.71087E-18-1.36412E-18
 -1       177 8.93882E-05-8.59919E-06-3.47909E-05 1.76284E-05 1.85650E-18 5.69630E-20
 -1       178 9.57743E-05-1.36121E-05-3.54239E-05 2.18984E-05 1.77823E-18 2.53252E-18
 -1       179 1.05599E-04-2.61000E-05-3.52614E-05 1.86664E-05 1.32169E-18 5.65913E-18
 -1       180 1.03392E-04-2.72995E-05-3.26088E-05-1.21305E-05-1.52696E-18 2.37386E-18
 -1       181 9.71002E-05-2.82871E-05-2.95266E-05-4.73330E-06-1.28012E-18 1.63044E-18
 -1       182 9.34988E-05-2.76350E-05-2.81793E-05-1.77171E-06-9.51546E-19 9.40776E-19
 -1       183 9.19602E-05-2.74019E-05-2.76325E-05-4.26681E-07-7.20496E-19 3.56531E-19
 -1       184 9.13812E-05-2.73261E-05-2.74340E-05 2.38348E-07-4.05951E-19 9.90598E-20
 -1       185 9.13365E-05-2.73644E-05-2.74080E-05 5.63809E-07-5.84136E-19-8.69855E-20
 -1       186 9.15769E-05-2.74661E-05-2.74720E-05 7.01920E-07-3.80915E-19-2.53348E-19
 -1       187 9.19576E-05-2.75973E-05-2.75812E-05 7.32587E-07-2.86913E-19-3.68693E-19
 -1       188 9.23923E-05-2.77367E-05-2.77089E-05 7.02195E-07-6.14272E-19-3.97961E-19
 -1       189 9.28304E-05-2.78720E-05-2.78393E-05 6.39751E-07-3.38172E-19-6.19308E-19
 -1       190 9.32441E-05-2.79964E-05-2.79636E-05 5.64276E-07-2.86278E-19-1.37428E-18
 -1       191 9.36208E-05-2.81074E-05-2.80776E-05 4.88605E-07-2.18567E-19-1.70618E-18
 -1       192 9.39585E-05-2.82049E-05-2.81805E-05 4.21650E-07-3.55037E-20-1.53974E-18
 -1       193 9.42625E-05-2.82911E-05-2.82737E-05 3.69904E-07-3.88639E-19-1.78019E-18
 -1       194 9.45439E-05-2.83694E-05-2.83605E-05 3.38522E-07-4.30406E-19-1.69898E-18
 -1       195 9.48182E-05-2.84445E-05-2.84456E-05 3.32146E-07-4.17652E-19-2.02914E-18
 -1       196 9.51052E-05-2.85221E-05-2.85349E-05 3.55530E-07 2.41263E-19-2.44256E-18
 -1       197 9.54287E-05-2.86092E-05-2.86357E-05 4.14020E-07 1.65107E-19-2.71825E-18
 -1       198 9.58168E-05-2.87139E-05-2.87567E-05 5.13882E-07-7.71441E-20-2.21954E-18
 -1       199 9.63028E-05-2.88458E-05-2.89078E-05 6.62435E-07-2.75628E-19-2.78517E-18
 -1       200 9.69248E-05-2.90161E-05-2.91008E-05 8.67901E-07 1.87461E-19-2.73361E-18
 -1       201 9.77264E-05-2.92377E-05-2.93486E-05 1.13876E-06-5.96123E-19-3.39754E-18
 -1       202 9.87553E-05-2.95257E-05-2.96656E-05 1.48226E-06-3.80221E-19-3.00014E-18
 -1       203 1.00061E-04-2.98962E-05-3.00660E-05 1.90136E-06 4.44168E-19-2.71835E-18
 -1       204 1.01690E-04-3.03667E-05-3.05626E-05 2.38917E-06 1.80876E-19-2.54559E-18
 -1       205 1.03675E-04-3.09540E-05-3.11625E-05 2.91931E-06 5.38665E-19-2.92958E-18
 -1       206 1.06018E-04-3.16711E-05-3.18617E-05 3.43046E-06-5.59108E-20-2.98752E-18
 -1       207 1.08666E-04-3.25221E-05-3.26358E-05 3.80447E-06 1.35854E-19-2.48181E-18
 -1       208 1.11471E-04-3.34904E-05-3.34283E-05 3.84182E-06-1.63285E-19-2.20125E-18
 -1       209 1.14145E-04-3.45184E-05-3.41395E-05 3.25049E-06-1.06146E-18-2.75831E-18
 -1       210 1.16220E-04-3.54704E-05-3.46245E-05 1.68869E-06-1.20413E-18-2.56460E-18
 -1       211 1.17052E-04-3.60856E-05-3.47162E-05-1.07171E-06-3.16486E-19-3.61723E-18
 -1       212 1.15941E-04-3.59562E-05-3.42873E-05-4.80979E-06-2.85556E-19-2.77931E-18
 -1       213 1.12469E-04-3.46480E-05-3.33497E-05-8.45105E-06 5.11300E-19-2.04624E-18
 -1       214 1.07070E-04-3.21004E-05-3.21260E-05-1.00564E-05 1.10666E-18-2.52082E-18
 -1       215 1.01487E-04-2.91443E-05-3.10103E-05-7.84592E-06 1.06841E-18-3.16950E-18
 -1       216 9.82720E-05-2.73829E-05-3.03961E-05-2.00444E-06-1.67488E-20-3.47186E-18
 -1       217 9.90667E-05-2.79575E-05-3.04864E-05 4.64303E-06 1.06228E-18-1.24785E-18
 -1       218 1.03172E-04-3.03786E-05-3.11978E-05 8.61823E-06-1.18308E-18-1.81481E-18
 -1       219 1.08177E-04-3.30509E-05-3.21945E-05 8.49331E-06 5.55404E-19-1.37716E-18
 -1       220 1.11814E-04-3.47078E-05-3.30509E-05 5.38982E-06 9.38112E-19-2.37721E-18
 -1       221 1.13079E-04-3.50571E-05-3.34517E-05 1.38592E-06 4.39382E-19-1.50653E-18
 -1       222 1.12090E-04-3.44291E-05-3.33005E-05-1.98817E-06 7.09463E-19 2.89409E-19
 -1       223 1.09509E-04-3.32726E-05-3.26866E-05-4.12619E-06-2.92986E-19-1.24329E-19
 -1       224 1.06096E-04-3.19256E-05-3.17937E-05-5.03098E-06-1.89220E-19 6.63397E-19
 -1       225 1.02513E-04-3.05911E-05-3.08235E-05-4.90859E-06 3.10689E-20 1.04831E-18
 -1       226 9.92861E-05-2.93836E-05-2.99538E-05-3.93330E-06 3.12203E-19 1.16126E-18
 -1       227 9.67316E-05-2.83827E-05-2.92885E-05-2.23670E-06-9.80904E-20 1.07887E-18
 -1       228 9.94945E-05-2.85525E-05-3.05853E-05 7.21415E-06 1.24444E-18 4.96549E-18
 -1       229 9.44083E-05-2.77883E-05-2.85220E-05 2.74658E-06 1.01555E-18 3.95908E-18
 -1       230 9.20861E-05-2.73980E-05-2.76784E-05 9.32838E-07 7.80594E-19 3.01810E-18
 -1       231 9.11350E-05-2.72347E-05-2.73589E-05 7.11041E-08 6.90635E-19 2.41530E-18
 -1       232 9.09207E-05-2.72268E-05-2.72838E-05-3.56323E-07 4.86971E-19 1.98742E-18
 -1       233 9.11013E-05-2.73118E-05-2.73316E-05-5.56638E-07 1.78281E-19 1.58477E-18
 -1       234 9.14818E-05-2.74439E-05-2.74412E-05-6.29420E-07 5.71067E-19 1.01699E-18
 -1       235 9.19479E-05-2.75939E-05-2.75783E-05-6.28899E-07 4.31018E-19 4.64890E-19
 -1       236 9.24322E-05-2.77444E-05-2.77223E-05-5.87693E-07 2.77338E-19-5.12250E-20
 -1       237 9.28966E-05-2.78856E-05-2.78613E-05-5.26642E-07-2.15783E-19 1.68528E-19
 -1       238 9.33220E-05-2.80129E-05-2.79894E-05-4.59548E-07 1.16438E-19 6.28335E-19
 -1       239 9.37021E-05-2.81250E-05-2.81044E-05-3.95785E-07 2.13077E-19 6.88259E-19
 -1       240 9.40394E-05-2.82233E-05-2.82069E-05-3.41921E-07 6.14013E-19 6.53155E-19
 -1       241 9.43432E-05-2.83105E-05-2.82997E-05-3.02823E-07 4.32911E-19 1.25028E-19
 -1       242 9.46272E-05-2.83912E-05-2.83867E-05-2.82444E-07-1.99116E-20 6.23064E-19
 -1       243 9.49097E-05-2.84705E-05-2.84736E-05-2.84397E-07-3.14302E-19-2.44272E-21
 -1       244 9.52122E-05-2.85551E-05-2.85668E-05-3.12343E-07 5.97586E-19 3.66987E-20
 -1       245 9.55604E-05-2.86525E-05-2.86741E-05-3.70208E-07-1.84588E-19-3.75671E-19
 -1       246 9.59833E-05-2.87712E-05-2.88043E-05-4.62180E-07 1.46652E-19-1.15718E-19
 -1       247 9.65136E-05-2.89212E-05-2.89671E-05-5.92431E-07-2.23192E-19-3.31569E-19
 -1       248 9.71870E-05-2.91133E-05-2.91732E-05-7.64405E-07 1.53671E-19 2.87459E-19
 -1       249 9.80400E-05-2.93590E-05-2.94335E-05-9.79493E-07 5.06734E-19-1.10226E-19
 -1       250 9.91075E-05-2.96701E-05-2.97578E-05-1.23476E-06-1.58575E-19-1.30054E-18
 -1       251 1.00416E-04-3.00568E-05-3.01535E-05-1.51931E-06-7.04483E-19-1.84082E-18
 -1       252 1.01977E-04-3.05259E-05-3.06219E-05-1.80889E-06-9.53801E-19-6.06160E-19
 -1       253 1.03766E-04-3.10767E-05-3.11540E-05-2.05849E-06 2.64827E-19 8.78387E-19
 -1       254 1.05712E-04-3.16954E-05-3.17239E-05-2.19384E-06 4.14792E-19 3.41091E-19
 -1       255 1.07663E-04-3.23467E-05-3.22820E-05-2.10490E-06-8.46592E-19-2.37510E-19
 -1       256 1.09371E-04-3.29634E-05-3.27494E-05-1.64959E-06 4.62996E-19-1.90637E-19
 -1       257 1.10476E-04-3.34345E-05-3.30187E-05-6.82297E-07 1.04095E-18-6.04274E-19
 -1       258 1.10539E-04-3.36002E-05-3.29699E-05 8.72590E-07-5.00008E-19-8.26672E-20
 -1       259 1.09145E-04-3.32687E-05-3.25086E-05 2.89299E-06-4.32735E-19-6.41869E-19
 -1       260 1.06106E-04-3.22870E-05-3.16250E-05 4.92151E-06-6.02546E-19 3.92252E-19
 -1       261 1.01736E-04-3.06756E-05-3.04491E-05 6.16067E-06-2.68648E-20 1.47290E-18
 -1       262 9.70156E-05-2.87719E-05-2.92571E-05 5.75231E-06 5.31962E-19-2.83452E-19
 -1       263 9.34321E-05-2.72417E-05-2.83912E-05 3.38308E-06 3.96358E-19 3.06805E-19
 -1       264 9.23047E-05-2.67565E-05-2.81172E-05-2.18655E-07-1.25639E-18 1.17640E-18
 -1       265 9.39703E-05-2.75098E-05-2.84942E-05-3.55701E-06 5.15224E-19 2.47339E-18
 -1       266 9.75649E-05-2.90796E-05-2.93439E-05-5.30666E-06-6.85117E-19 3.78839E-18
 -1       267 1.01564E-04-3.07348E-05-3.03389E-05-5.07374E-06-1.10623E-18 3.58198E-18
 -1       268 1.04614E-04-3.18923E-05-3.11516E-05-3.40431E-06 1.64940E-19 2.71561E-18
 -1       269 1.06024E-04-3.23369E-05-3.15731E-05-1.20976E-06 8.37338E-20 2.75960E-18
 -1       270 1.05764E-04-3.21430E-05-3.15519E-05 7.67945E-07 1.45277E-18 4.02416E-18
 -1       271 1.04215E-04-3.15103E-05-3.11627E-05 2.13893E-06 1.91770E-19 1.17059E-18
 -1       272 1.01922E-04-3.06504E-05-3.05497E-05 2.79032E-06 2.26109E-18 3.14519E-19
 -1       273 9.94424E-05-2.97427E-05-2.98782E-05 2.73861E-06 1.98921E-18 6.91349E-19
 -1       274 9.72746E-05-2.89285E-05-2.92974E-05 2.02972E-06 2.25760E-18-3.86641E-19
 -1       275 9.57755E-05-2.83929E-05-2.88746E-05 8.28305E-07-9.01167E-19-1.57895E-18
 -1       276 9.53479E-05-2.74189E-05-2.91055E-05 1.61343E-06 1.16209E-18 4.72111E-18
 -1       277 9.46969E-05-2.55830E-05-2.96146E-05 2.94655E-06 1.45562E-18 6.65691E-18
 -1       278 9.38153E-05-2.30826E-05-3.03104E-05 3.94921E-06 2.61793E-18 1.27469E-18
 -1       279 9.27830E-05-2.01059E-05-3.11468E-05 4.49627E-06 2.44944E-18-6.34634E-20
 -1       280 9.16865E-05-1.70033E-05-3.20115E-05 4.49651E-06 1.69563E-18-3.30083E-18
 -1       281 9.06165E-05-1.40629E-05-3.28178E-05 3.85713E-06 6.11631E-19-8.54180E-20
 -1       282 8.97650E-05-1.17939E-05-3.34290E-05 2.56987E-06-2.10765E-19 1.77501E-19
 -1       283 8.93009E-05-1.06022E-05-3.37428E-05 7.83062E-07-4.70571E-20-2.15033E-18
 -1       284 8.93343E-05-1.07385E-05-3.36985E-05-1.20721E-06-1.62802E-18-5.53635E-19
 -1       285 8.98744E-05-1.22148E-05-3.32949E-05-3.03437E-06-1.88126E-18-3.55427E-18
 -1       286 9.08041E-05-1.47411E-05-3.26062E-05-4.35159E-06-4.95562E-19-2.42825E-18
 -1       287 9.19938E-05-1.79909E-05-3.17181E-05-4.99220E-06-1.11904E-18 2.95997E-18
 -1       288 9.32472E-05-2.14204E-05-3.07806E-05-4.84658E-06-5.55612E-19 1.56346E-18
 -1       289 9.44481E-05-2.45569E-05-2.99455E-05-3.85947E-06-1.34086E-18 9.64473E-19
 -1       290 9.55873E-05-2.66403E-05-2.95379E-05-3.46016E-06-1.11125E-18 4.76811E-19
 -1       291 1.32500E-05-5.19252E-05 1.28949E-05 7.19607E-06 4.63740E-18-7.61694E-19
 -1       292 2.65976E-05-4.60474E-05 5.40998E-06 2.10419E-05 4.41008E-18 2.54581E-18
 -1       293 5.65138E-05-4.03355E-05-8.47971E-06 3.69796E-05 3.24244E-18 4.50452E-18
 -1       294 8.96589E-05-3.14495E-05-2.53130E-05 4.49316E-05 3.73944E-18 7.53584E-18
 -1       295 1.33193E-04-2.98358E-05-4.30984E-05 4.84616E-05 4.73057E-18 5.07330E-18
 -1       296 1.72508E-04-3.30486E-05-5.78539E-05 3.05770E-05 4.50893E-18 4.87425E-18
 -1       297 2.04946E-04-3.55072E-05-6.91597E-05 2.14261E-05 5.56808E-18 3.20581E-18
 -1       298 2.05297E-04-3.25199E-05-7.08792E-05-2.04242E-06 1.76585E-18 4.85932E-19
 -1       299 1.98377E-04-3.53253E-05-6.65593E-05-2.73599E-05 1.20205E-18-1.28198E-18
 -1       300 1.63031E-04-3.13941E-05-5.42383E-05-4.35838E-05 1.29173E-18-1.05540E-18
 -1       301 1.16720E-04-2.90486E-05-3.69697E-05-4.76559E-05 1.75950E-18-7.78212E-19
 -1       302 7.30286E-05-3.25535E-05-1.83104E-05-4.08219E-05 2.01784E-18-1.11522E-18
 -1       303 4.17027E-05-4.05567E-05-2.45876E-06-3.17574E-05-2.47969E-19-2.80880E-18
 -1       304 1.80275E-05-4.74163E-05 9.37752E-06-1.43228E-05-1.63276E-18-2.10064E-18
 -1       305 1.14939E-05-5.16046E-05 1.35223E-05-1.14999E-06-1.50929E-18 4.88103E-20
 -1       306 1.72371E-05-4.85057E-05 1.00181E-05 1.18892E-05-8.07117E-19 4.13987E-20
 -1       307 4.03340E-05-4.15199E-05-1.56346E-06 2.94374E-05-5.57983E-19-1.90609E-19
 -1       308 7.25655E-05-3.64967E-05-1.65953E-05 3.89260E-05-1.29596E-18-1.09500E-18
 -1       309 1.11241E-04-3.12741E-05-3.40053E-05 4.57320E-05-1.46897E-18 4.91491E-19
 -1       310 1.57540E-04-3.35719E-05-5.13861E-05 4.04221E-05 8.47033E-20-7.02190E-19
 -1       311 1.95446E-04-3.59443E-05-6.51669E-05 2.95101E-05-3.63854E-19-9.09078E-19
 -1       312 2.10826E-04-3.56575E-05-7.15265E-05 6.31680E-06-1.84431E-18-1.23857E-18
 -1       313 2.03203E-04-3.30605E-05-6.98070E-05-1.44407E-05-3.29316E-18 1.44821E-18
 -1       314 1.82010E-04-3.37299E-05-6.09296E-05-3.46776E-05-4.99244E-18 2.14088E-18
 -1       315 1.42296E-04-3.15901E-05-4.60239E-05-4.71082E-05-3.61005E-18 4.94477E-18
 -1       316 9.75341E-05-3.19633E-05-2.82801E-05-4.56564E-05-1.92869E-18 5.43435E-18
 -1       317 5.73764E-05-3.72632E-05-1.03527E-05-3.54633E-05 5.36595E-19 5.92023E-18
 -1       318 3.04176E-05-4.46882E-05 3.71947E-06-2.54973E-05 3.51646E-18 4.86155E-18
 -1       319 1.31466E-05-5.00006E-05 1.24451E-05-7.64222E-06 3.14419E-18-2.25215E-18
 -1       320 9.16469E-05-1.43946E-05-3.31712E-05-1.30716E-05-1.64178E-18-1.49843E-18
 -1       321 9.57030E-05-1.91085E-05-3.28892E-05-1.46358E-05-1.82403E-18-5.38574E-19
 -1       322 8.80099E-05-1.03796E-05-3.33234E-05-8.15923E-06-8.14841E-19-2.42698E-18
 -1       323 8.71964E-05-9.45771E-06-3.33647E-05-5.72070E-06-4.98438E-19-2.45300E-18
 -1       324 8.67382E-05-8.92843E-06-3.33920E-05-3.36870E-06-4.92773E-20-2.41951E-18
 -1       325 8.65340E-05-8.68891E-06-3.34057E-05-1.07311E-06 3.46051E-19-2.38578E-18
 -1       326 8.65426E-05-8.69859E-06-3.34053E-05 1.20428E-06 6.88821E-19-2.40555E-18
 -1       327 8.67655E-05-8.95922E-06-3.33907E-05 3.50238E-06 9.14166E-19-2.22486E-18
 -1       328 8.72355E-05-9.50249E-06-3.33629E-05 5.81871E-06 1.23381E-18-2.03990E-18
 -1       329 8.80717E-05-1.04527E-05-3.33207E-05 8.25913E-06 1.60786E-18-1.68214E-18
 -1       330 8.94831E-05-1.20342E-05-3.32590E-05 1.07687E-05 1.86347E-18-1.21409E-18
 -1       331 9.18997E-05-1.47219E-05-3.31574E-05 1.31742E-05 2.06321E-18-3.26981E-19
 -1       332 9.58001E-05-1.94560E-05-3.28267E-05 1.43806E-05 1.99547E-18 1.33739E-18
 -1       333 9.87859E-05-2.44426E-05-3.19496E-05 1.19021E-05 1.66921E-18 2.79698E-18
 -1       334 9.63837E-05-2.68106E-05-2.97876E-05 5.74563E-06 1.48849E-18 2.20310E-18
 -1       335 9.64269E-05-2.60239E-05-3.01290E-05-6.35202E-06-1.45714E-18-2.84833E-19
 -1       336 9.49206E-05-2.70394E-05-2.90680E-05-2.84275E-06-1.06316E-18-4.34189E-19
 -1       337 9.39334E-05-2.74225E-05-2.84903E-05-9.27707E-07-7.71278E-19-3.80262E-19
 -1       338 9.34125E-05-2.76356E-05-2.81833E-05 1.30536E-07-4.84285E-19-5.91490E-19
 -1       339 9.32190E-05-2.77884E-05-2.80388E-05 6.94348E-07-5.42262E-19-4.77626E-19
 -1       340 9.32345E-05-2.79168E-05-2.79923E-05 9.62148E-07-1.77008E-19-4.52976E-19
 -1       341 9.33731E-05-2.80302E-05-2.80040E-05 1.05169E-06-4.89385E-19-7.03017E-19
 -1       342 9.35760E-05-2.81300E-05-2.80487E-05 1.03650E-06-7.49585E-19-6.41559E-19
 -1       343 9.38054E-05-2.82159E-05-2.81104E-05 9.64759E-07-5.61902E-19-6.07253E-19
 -1       344 9.40389E-05-2.82883E-05-2.81795E-05 8.68940E-07-7.99890E-19-7.76564E-19
 -1       345 9.42649E-05-2.83480E-05-2.82507E-05 7.71485E-07-2.62048E-19-9.13983E-19
 -1       346 9.44798E-05-2.83970E-05-2.83217E-05 6.88408E-07-4.09722E-20-1.22051E-18
 -1       347 9.46860E-05-2.84373E-05-2.83925E-05 6.31759E-07-4.43493E-19-8.92799E-19
 -1       348 9.48902E-05-2.84719E-05-2.84650E-05 6.11420E-07-7.36232E-19-1.14004E-18
 -1       349 9.51030E-05-2.85036E-05-2.85423E-05 6.36438E-07-3.74978E-19-6.18553E-19
 -1       350 9.53379E-05-2.85362E-05-2.86286E-05 7.16006E-07-1.70949E-19-7.24525E-19
 -1       351 9.56118E-05-2.85737E-05-2.87295E-05 8.60149E-07 2.98177E-19-1.31033E-18
 -1       352 9.59444E-05-2.86210E-05-2.88513E-05 1.08007E-06-4.43558E-19-2.07293E-18
 -1       353 9.63584E-05-2.86840E-05-2.90011E-05 1.38805E-06-5.13251E-19-2.36305E-18
 -1       354 9.68794E-05-2.87703E-05-2.91868E-05 1.79678E-06-1.21998E-19-2.76051E-18
 -1       355 9.75358E-05-2.88898E-05-2.94162E-05 2.31749E-06-5.31845E-19-2.19691E-18
 -1       356 9.83577E-05-2.90559E-05-2.96967E-05 2.95661E-06 1.15381E-19-2.05893E-18
 -1       357 9.93769E-05-2.92884E-05-3.00334E-05 3.70940E-06 7.31555E-19-1.78741E-18
 -1       358 1.00625E-04-2.96166E-05-3.04275E-05 4.54957E-06 4.06164E-19-2.24797E-18
 -1       359 1.02132E-04-3.00849E-05-3.08736E-05 5.41252E-06 7.10140E-19-1.90081E-18
 -1       360 1.03925E-04-3.07588E-05-3.13557E-05 6.17117E-06 4.29450E-19-1.78497E-18
 -1       361 1.06027E-04-3.17274E-05-3.18454E-05 6.60531E-06-2.70004E-19-1.43403E-18
 -1       362 1.08439E-04-3.30894E-05-3.23021E-05 6.37386E-06-4.23610E-19-1.34668E-18
 -1       363 1.11110E-04-3.48925E-05-3.26821E-05 5.01750E-06-8.15239E-19-6.65165E-19
 -1       364 1.13836E-04-3.69863E-05-3.29607E-05 2.05804E-06-4.75407E-19 1.82953E-19
 -1       365 1.16111E-04-3.87903E-05-3.31653E-05-2.70338E-06-4.24830E-19 1.30677E-18
 -1       366 1.16999E-04-3.91247E-05-3.33958E-05-8.61675E-06-4.70078E-19 4.65156E-19
 -1       367 1.15438E-04-3.66234E-05-3.37933E-05-1.35436E-05 6.51484E-19 4.15018E-19
 -1       368 1.11385E-04-3.12309E-05-3.43763E-05-1.41024E-05 3.57084E-19-2.92630E-19
 -1       369 1.07067E-04-2.57604E-05-3.48862E-05-8.11769E-06-1.80789E-20-1.07430E-18
 -1       370 1.05876E-04-2.44698E-05-3.49335E-05 2.13754E-06 9.64691E-19-1.65918E-18
 -1       371 1.08641E-04-2.83957E-05-3.44221E-05 1.05758E-05 7.34007E-19-2.21974E-18
 -1       372 1.12703E-04-3.42092E-05-3.36611E-05 1.27846E-05 5.62576E-19 2.49842E-20
 -1       373 1.14958E-04-3.80117E-05-3.30009E-05 9.24588E-06 1.25454E-19 3.06851E-20
 -1       374 1.14499E-04-3.86522E-05-3.25331E-05 3.25297E-06-1.56855E-19-9.62733E-19
 -1       375 1.12122E-04-3.71444E-05-3.21605E-05-2.33612E-06 1.43508E-18-5.72416E-19
 -1       376 1.08899E-04-3.48321E-05-3.17637E-05-6.20897E-06 1.34223E-18 8.96549E-19
 -1       377 1.05542E-04-3.25399E-05-3.12976E-05-8.18178E-06 9.97299E-20 3.12820E-18
 -1       378 1.02391E-04-3.05488E-05-3.07907E-05-8.53932E-06-2.45889E-19 2.72253E-18
 -1       379 9.95896E-05-2.88492E-05-3.03097E-05-7.61561E-06-2.80528E-19 3.37126E-18
 -1       380 9.74733E-05-2.76356E-05-2.99170E-05-5.82946E-06-9.99597E-19 1.64444E-18
 -1       381 9.43621E-05-2.73389E-05-2.86860E-05 2.47373E-06 1.25618E-18 1.72661E-18
 -1       382 9.31537E-05-2.74582E-05-2.81334E-05 7.49257E-07 1.05974E-18 1.24031E-18
 -1       383 9.25975E-05-2.75352E-05-2.78740E-05-1.71215E-07 6.94281E-19 8.29600E-19
 -1       384 9.24533E-05-2.76269E-05-2.77786E-05-6.46317E-07 4.74517E-19 1.21305E-19
 -1       385 9.25534E-05-2.77352E-05-2.77776E-05-8.64167E-07 6.52319E-19-1.98502E-19
 -1       386 9.27869E-05-2.78504E-05-2.78295E-05-9.30049E-07 8.18413E-19-2.03330E-19
 -1       387 9.30828E-05-2.79635E-05-2.79085E-05-9.07861E-07 4.45651E-19-2.91744E-19
 -1       388 9.33972E-05-2.80685E-05-2.79986E-05-8.38543E-07-4.17583E-19-1.72286E-19
 -1       389 9.37051E-05-2.81624E-05-2.80904E-05-7.49302E-07-1.04583E-19-5.28241E-20
 -1       390 9.39942E-05-2.82444E-05-2.81791E-05-6.58702E-07 4.96387E-19-1.64963E-19
 -1       391 9.42614E-05-2.83153E-05-2.82632E-05-5.79781E-07 9.28905E-19-1.10645E-19
 -1       392 9.45104E-05-2.83773E-05-2.83431E-05-5.22137E-07 5.53765E-19 7.30656E-20
 -1       393 9.47495E-05-2.84333E-05-2.84213E-05-4.93381E-07-5.01441E-20-3.62207E-20
 -1       394 9.49914E-05-2.84874E-05-2.85015E-05-5.00178E-07 2.31126E-19 1.55089E-19
 -1       395 9.52521E-05-2.85442E-05-2.85885E-05-5.48945E-07 6.47868E-19-2.66852E-19
 -1       396 9.55506E-05-2.86092E-05-2.86882E-05-6.46239E-07 3.48966E-19-5.67901E-19
 -1       397 9.59089E-05-2.86889E-05-2.88071E-05-7.98763E-07-3.25044E-19-8.66402E-19
 -1       398 9.63518E-05-2.87909E-05-2.89528E-05-1.01292E-06-2.22592E-19-3.82838E-19
 -1       399 9.69062E-05-2.89241E-05-2.91328E-05-1.29366E-06-3.49735E-19-1.75475E-19
 -1       400 9.76000E-05-2.90992E-05-2.93547E-05-1.64248E-06 1.10743E-18-6.59214E-19
 -1       401 9.84601E-05-2.93286E-05-2.96248E-05-2.05387E-06 6.11840E-19-1.12169E-18
 -1       402 9.95095E-05-2.96266E-05-2.99469E-05-2.51004E-06-1.21281E-18-2.24992E-18
 -1       403 1.00761E-04-3.00096E-05-3.03198E-05-2.97306E-06-1.41657E-18-1.14275E-18
 -1       404 1.02212E-04-3.04949E-05-3.07348E-05-3.37458E-06-2.07867E-19-1.51707E-18
 -1       405 1.03829E-04-3.10979E-05-3.11720E-05-3.60416E-06 9.02656E-19 8.96236E-19
 -1       406 1.05540E-04-3.18245E-05-3.15972E-05-3.50070E-06-5.95195E-19 1.01816E-19
 -1       407 1.07210E-04-3.26547E-05-3.19613E-05-2.85755E-06 1.07498E-18 3.83763E-19
 -1       408 1.08623E-04-3.35113E-05-3.22040E-05-1.46055E-06 1.12176E-18 1.22964E-18
 -1       409 1.09472E-04-3.42164E-05-3.22678E-05 8.14471E-07-3.60381E-19 5.99261E-19
 -1       410 1.09371E-04-3.44569E-05-3.21201E-05 3.82564E-06-2.05923E-19-1.48226E-19
 -1       411 1.07966E-04-3.38363E-05-3.17766E-05 6.95550E-06-1.36056E-18 3.81019E-19
 -1       412 1.05196E-04-3.21134E-05-3.13198E-05 9.06047E-06-2.28557E-19 2.28650E-18
 -1       413 1.01590E-04-2.95403E-05-3.08709E-05 8.80312E-06 9.78008E-19 2.93642E-18
 -1       414 9.84204E-05-2.71376E-05-3.05381E-05 5.53990E-06-1.35889E-20 2.56036E-18
 -1       415 9.71408E-05-2.62140E-05-3.03849E-05 2.00572E-07-1.72984E-18 3.29936E-18
 -1       416 9.82942E-05-2.72780E-05-3.04215E-05-4.93791E-06-2.90512E-19 3.40248E-18
 -1       417 1.01103E-04-2.96391E-05-3.06151E-05-7.73960E-06-1.38527E-18 2.65048E-18
 -1       418 1.04075E-04-3.19954E-05-3.08885E-05-7.49793E-06-7.30434E-19 3.80305E-18
 -1       419 1.06005E-04-3.33934E-05-3.11288E-05-5.01305E-06-1.79928E-20 4.22785E-18
 -1       420 1.06466E-04-3.36438E-05-3.12264E-05-1.68346E-06 4.90131E-19 3.17541E-18
 -1       421 1.05624E-04-3.30440E-05-3.11233E-05 1.34736E-06 1.34259E-18 3.40952E-18
 -1       422 1.03896E-04-3.19909E-05-3.08298E-05 3.47319E-06 2.15679E-18 4.05550E-18
 -1       423 1.01719E-04-3.07818E-05-3.04081E-05 4.51436E-06 2.43593E-18 2.43285E-18
 -1       424 9.94534E-05-2.95811E-05-2.99454E-05 4.50797E-06 1.52296E-18 2.66526E-18
 -1       425 9.73885E-05-2.85016E-05-2.95193E-05 3.57160E-06 2.08614E-18 5.02190E-18
 -1       426 9.62620E-05-2.78706E-05-2.93045E-05 2.70686E-06 2.51930E-18 6.61087E-18
 -1       427 9.42793E-05-2.33789E-05-3.03813E-05 7.14926E-06 3.06946E-20 1.28905E-18
 -1       428 9.53681E-05-2.54824E-05-2.99423E-05 5.93099E-06 1.89243E-19 4.49154E-18
 -1       429 9.58981E-05-2.67539E-05-2.96234E-05 4.38349E-06 1.77138E-18 5.97261E-18
 -1       430 9.29895E-05-2.10189E-05-3.08453E-05 7.62150E-06 7.30924E-19-3.73755E-18
 -1       431 9.15281E-05-1.85207E-05-3.12954E-05 7.13153E-06 4.22840E-19-1.01567E-18
 -1       432 9.01302E-05-1.62768E-05-3.16630E-05 5.53159E-06 1.14882E-19-5.52945E-20
 -1       433 8.90955E-05-1.47053E-05-3.18965E-05 2.92041E-06-2.30891E-18-1.12466E-18
 -1       434 8.87020E-05-1.41608E-05-3.19625E-05-3.17352E-07-1.84673E-18-1.99066E-18
 -1       435 8.90774E-05-1.47937E-05-3.18509E-05-3.58927E-06-1.26451E-18-1.34204E-18
 -1       436 9.01164E-05-1.64493E-05-3.15828E-05-6.23803E-06 1.47635E-18-1.14405E-18
 -1       437 9.16171E-05-1.88551E-05-3.11893E-05-7.90091E-06 1.24483E-18 1.10744E-18
 -1       438 9.32901E-05-2.15758E-05-3.07330E-05-8.32698E-06 2.13926E-18 2.50393E-18
 -1       439 9.49311E-05-2.42457E-05-3.02825E-05-7.56517E-06-3.49320E-19-1.38405E-18
 -1       440 5.83820E-05-4.24161E-05-6.86575E-06 4.40899E-05 1.89841E-19 4.11552E-19
 -1       441 1.37253E-05-2.22462E-05 3.69089E-06 1.20172E-06 1.25342E-18-5.78312E-19
 -1       442 2.83578E-05-3.06510E-05 8.94762E-07 3.04085E-05 3.45791E-18 9.86793E-20
 -1       443 9.92675E-05-5.36975E-05-1.96152E-05 4.23499E-05-5.55336E-19 3.23604E-18
 -1       444 1.32304E-04-5.46313E-05-3.32557E-05 2.88394E-05 1.51248E-19 1.40184E-19
 -1       445 8.93409E-05-1.18603E-05-3.32797E-05-1.06876E-05-1.28925E-18-2.04585E-18
 -1       446 1.55549E-04-2.23634E-05-5.71315E-05-9.67596E-07 4.69203E-18-1.63700E-18
 -1       447 1.56721E-04-1.29113E-05-6.15768E-05-4.20977E-07 4.11838E-18 1.44710E-19
 -1       448 1.57253E-04-1.57123E-05-6.05905E-05 2.98143E-06 1.38755E-18 1.26954E-18
 -1       449 1.59274E-04-3.07647E-05-5.48152E-05-3.49399E-06 7.55130E-19 5.42101E-19
 -1       450 1.46489E-04-4.68366E-05-4.26322E-05-1.70093E-05 2.33993E-20 2.03923E-19
 -1       451 1.22042E-04-5.68766E-05-2.79948E-05-3.19312E-05 4.14411E-19 8.51903E-19
 -1       452 8.87415E-05-5.13401E-05-1.59728E-05-4.35744E-05-1.45584E-18-5.72502E-19
 -1       453 4.34060E-05-3.20110E-05-4.49415E-06-3.89574E-05-1.33318E-18-3.37908E-18
 -1       454 1.42762E-05-2.60592E-05 4.71108E-06-1.55070E-05-1.06652E-18-2.03711E-19
 -1       455 1.42314E-05-2.54748E-05 4.53320E-06 1.25917E-05-9.39042E-19 2.51675E-19
 -1       456 3.79813E-05-3.37569E-05-1.90459E-06 3.53221E-05 5.17537E-19 2.27217E-19
 -1       457 7.85590E-05-4.92027E-05-1.27546E-05 4.25862E-05-2.82168E-19-4.99025E-19
 -1       458 1.17661E-04-5.60487E-05-2.64764E-05 3.39580E-05-1.25530E-18 2.25279E-18
 -1       459 1.44593E-04-5.16430E-05-3.98354E-05 1.69335E-05 8.67044E-19 8.26598E-19
 -1       460 1.60091E-04-3.51299E-05-5.32916E-05 2.55178E-06 1.45229E-18 7.13413E-19
 -1       461 1.65318E-04-2.07131E-05-6.15629E-05-1.95094E-06 4.11658E-19 1.46198E-18
 -1       462 1.57840E-04-1.25038E-05-6.22243E-05-6.07445E-07-2.84783E-18 1.85499E-18
 -1       463 1.57220E-04-2.35468E-05-5.73902E-05 3.19003E-06-4.11976E-18 4.87044E-19
 -1       464 1.54333E-04-4.33282E-05-4.76834E-05-4.82411E-06-1.17298E-18-2.55455E-18
 -1       465 1.38676E-04-5.56457E-05-3.55981E-05-2.43124E-05 2.35766E-18 7.05578E-19
 -1       466 1.05342E-04-5.58531E-05-2.13110E-05-4.05785E-05 4.62522E-18 1.47262E-18
 -1       467 6.71273E-05-4.60721E-05-9.20254E-06-4.38529E-05 3.55468E-18 3.67893E-18
 -1       468 2.56984E-05-3.05267E-05 1.86124E-06-2.74381E-05 9.32107E-19 2.00355E-18
 -1       469 1.49986E-04-4.43346E-05-4.53162E-05 1.35089E-05 5.37188E-19 9.68053E-19
 -1       470 1.46818E-04-3.54762E-05-4.80484E-05-7.01079E-06 1.26420E-18-4.51034E-18
 -1       471 5.53427E-05-3.68280E-05-7.61991E-06-4.17808E-05 3.13932E-18 3.33927E-18
 -1       472 9.58148E-05-2.51475E-05-3.02717E-05 6.02397E-06 1.54978E-18 3.14454E-19
 -1       473 8.95488E-05-1.34062E-05-3.26516E-05-3.92673E-06-2.53828E-19-2.14316E-18
 -1       474 9.02523E-05-1.43677E-05-3.25426E-05-5.88876E-06-5.94161E-19-2.16792E-18
 -1       475 8.90523E-05-1.27268E-05-3.27287E-05 5.43792E-08 4.60890E-19-2.11849E-18
 -1       476 8.91873E-05-1.29102E-05-3.27082E-05 2.04728E-06 7.21340E-19-2.17020E-18
 -1       477 8.95805E-05-1.34470E-05-3.26478E-05 4.00166E-06 1.02772E-18-2.00867E-18
 -1       478 9.03019E-05-1.44327E-05-3.25364E-05 5.95703E-06 1.48956E-18-1.55240E-18
 -1       479 9.14465E-05-1.60100E-05-3.23530E-05 7.78586E-06 1.66572E-18-1.33943E-18
 -1       480 9.32313E-05-1.84794E-05-3.20567E-05 9.30139E-06 1.85444E-18-7.67660E-19
 -1       481 3.04841E-05-1.77989E-05-4.81735E-06 1.86607E-05 1.02940E-18 1.77655E-18
 -1       482 9.51062E-05-2.65764E-05-2.93520E-05 2.88122E-06 1.44985E-18 1.37403E-20
 -1       483 9.54594E-05-2.44138E-05-3.04351E-05-5.82286E-06-1.15890E-18-1.03238E-18
 -1       484 9.53109E-05-2.62858E-05-2.95806E-05-2.91115E-06-8.63289E-19-8.74056E-19
 -1       485 9.49105E-05-2.71589E-05-2.90323E-05-1.03880E-06-6.43874E-19-8.42072E-19
 -1       486 9.46363E-05-2.76923E-05-2.86885E-05 8.37349E-08-6.08514E-19-8.41488E-19
 -1       487 9.44793E-05-2.80168E-05-2.84833E-05 7.19258E-07-4.57727E-19-8.94332E-19
 -1       488 9.44246E-05-2.82262E-05-2.83706E-05 1.04009E-06-5.82961E-19-1.24288E-18
 -1       489 9.44419E-05-2.83643E-05-2.83192E-05 1.16154E-06-5.25098E-19-1.19561E-18
 -1       490 9.45046E-05-2.84544E-05-2.83075E-05 1.16288E-06-7.05592E-19-1.02557E-18
 -1       491 9.45929E-05-2.85104E-05-2.83214E-05 1.09884E-06-6.50625E-19-8.81918E-19
 -1       492 9.46939E-05-2.85414E-05-2.83514E-05 1.00773E-06-6.29136E-19-6.99999E-19
 -1       493 9.48002E-05-2.85532E-05-2.83918E-05 9.16847E-07-4.98716E-19-9.70520E-19
 -1       494 9.49091E-05-2.85503E-05-2.84397E-05 8.46253E-07-1.51818E-20-1.02464E-18
 -1       495 9.50209E-05-2.85354E-05-2.84939E-05 8.11535E-07-6.99058E-19-3.13046E-19
 -1       496 9.51388E-05-2.85105E-05-2.85549E-05 8.25851E-07-4.90232E-19-6.23181E-20
 -1       497 9.52682E-05-2.84771E-05-2.86246E-05 9.01427E-07-5.96111E-19-6.80077E-19
 -1       498 9.54159E-05-2.84359E-05-2.87054E-05 1.05063E-06-3.43380E-19-9.82581E-19
 -1       499 9.55905E-05-2.83878E-05-2.88006E-05 1.28661E-06-6.01893E-19-1.38333E-18
 -1       500 9.58020E-05-2.83343E-05-2.89139E-05 1.62344E-06-8.91616E-19-1.28600E-18
 -1       501 9.60615E-05-2.82780E-05-2.90490E-05 2.07573E-06-3.94605E-19-1.70768E-18
 -1       502 9.63818E-05-2.82241E-05-2.92091E-05 2.65725E-06 4.90678E-21-1.08235E-18
 -1       503 9.67778E-05-2.81830E-05-2.93961E-05 3.37841E-06 8.97708E-20-1.11421E-18
 -1       504 9.72682E-05-2.81742E-05-2.96098E-05 4.24167E-06 6.38585E-19-8.98159E-19
 -1       505 9.78794E-05-2.82328E-05-2.98464E-05 5.23414E-06 3.92196E-19-1.73890E-18
 -1       506 9.86525E-05-2.84207E-05-3.00973E-05 6.31599E-06 5.56004E-20-1.58215E-18
 -1       507 9.96562E-05-2.88407E-05-3.03481E-05 7.40303E-06 7.43254E-19-2.44614E-18
 -1       508 1.01005E-04-2.96524E-05-3.05797E-05 8.34203E-06 7.41382E-19-1.96913E-18
 -1       509 1.02880E-04-3.10780E-05-3.07745E-05 8.87796E-06 3.37200E-19-7.41561E-20
 -1       510 1.05528E-04-3.33676E-05-3.09317E-05 8.61619E-06-3.88050E-19 5.04431E-19
 -1       511 1.09194E-04-3.66569E-05-3.10976E-05 6.99239E-06-1.02454E-19 2.30327E-18
 -1       512 1.13861E-04-4.06063E-05-3.14100E-05 3.34326E-06-8.32047E-19 1.03927E-18
 -1       513 1.18825E-04-4.39025E-05-3.21310E-05-2.74504E-06-8.34474E-19 1.05934E-18
 -1       514 1.22151E-04-4.38369E-05-3.35943E-05-1.04918E-05-3.05972E-19 2.23451E-18
 -1       515 1.21339E-04-3.76068E-05-3.59818E-05-1.64829E-05-7.68616E-20 1.01749E-18
 -1       516 1.16322E-04-2.64823E-05-3.86956E-05-1.50652E-05-1.17288E-19-8.10637E-20
 -1       517 1.12222E-04-1.87685E-05-4.02687E-05-4.16745E-06-7.09549E-19-9.01670E-19
 -1       518 1.13819E-04-2.20493E-05-3.95304E-05 9.04307E-06-9.92220E-20-1.47486E-18
 -1       519 1.18964E-04-3.29083E-05-3.70064E-05 1.48471E-05 4.76344E-19-2.49059E-18
 -1       520 1.21592E-04-4.18124E-05-3.42583E-05 1.13848E-05 1.07422E-18-1.47945E-18
 -1       521 1.19594E-04-4.43684E-05-3.22634E-05 3.64957E-06 7.38609E-19 8.79142E-19
 -1       522 1.14786E-04-4.21029E-05-3.11630E-05-3.55128E-06 5.61457E-19 1.05231E-18
 -1       523 1.09533E-04-3.80379E-05-3.06522E-05-8.40532E-06 1.28524E-18-6.11675E-19
 -1       524 1.05051E-04-3.40789E-05-3.04235E-05-1.08710E-05 1.60296E-18-8.37628E-19
 -1       525 1.01583E-04-3.08720E-05-3.03053E-05-1.14731E-05 6.91705E-19-3.53710E-19
 -1       526 9.89302E-05-2.83799E-05-3.02333E-05-1.06804E-05-4.97528E-19-4.07259E-19
 -1       527 4.79679E-05-2.85426E-05-7.80016E-06 3.58751E-05 1.33265E-18-3.33281E-18
 -1       528 9.41346E-05-2.76841E-05-2.84753E-05-1.12290E-07 1.09566E-18-5.27831E-20
 -1       529 9.39578E-05-2.79297E-05-2.82965E-05-7.22540E-07 7.65258E-19-3.89668E-19
 -1       530 9.39279E-05-2.80996E-05-2.82118E-05-1.02255E-06 6.61520E-19-5.38516E-19
 -1       531 9.39927E-05-2.82237E-05-2.81869E-05-1.13026E-06 3.31035E-19-3.38623E-19
 -1       532 9.41123E-05-2.83158E-05-2.81989E-05-1.12333E-06 1.60990E-19-1.30468E-19
 -1       533 9.42592E-05-2.83838E-05-2.82328E-05-1.05424E-06-4.01759E-20-9.56673E-19
 -1       534 9.44161E-05-2.84325E-05-2.82792E-05-9.59111E-07 2.87768E-19-1.10001E-18
 -1       535 9.45739E-05-2.84659E-05-2.83324E-05-8.63320E-07 3.82980E-19-5.62182E-19
 -1       536 9.47293E-05-2.84871E-05-2.83898E-05-7.85192E-07 6.55022E-19-2.87504E-19
 -1       537 9.48836E-05-2.84987E-05-2.84508E-05-7.38627E-07 4.83453E-19-1.67875E-19
 -1       538 9.50416E-05-2.85035E-05-2.85163E-05-7.34951E-07 2.07817E-19-8.66087E-20
 -1       539 9.52110E-05-2.85040E-05-2.85885E-05-7.84211E-07 3.47142E-19-5.28989E-19
 -1       540 9.54016E-05-2.85030E-05-2.86704E-05-8.95990E-07 5.26238E-19 7.88083E-19
 -1       541 9.56256E-05-2.85039E-05-2.87657E-05-1.07972E-06-3.36978E-19 7.00551E-19
 -1       542 9.58974E-05-2.85113E-05-2.88787E-05-1.34444E-06-5.86474E-19 3.91595E-19
 -1       543 9.62329E-05-2.85318E-05-2.90134E-05-1.69778E-06 2.90625E-19 9.52389E-20
 -1       544 9.66504E-05-2.85748E-05-2.91736E-05-2.14402E-06 7.21460E-19-1.37009E-18
 -1       545 9.71698E-05-2.86543E-05-2.93619E-05-2.68075E-06 5.09272E-19-4.43358E-19
 -1       546 9.78135E-05-2.87914E-05-2.95789E-05-3.29364E-06-1.25846E-19 5.83979E-19
 -1       547 9.86062E-05-2.90170E-05-2.98222E-05-3.94896E-06-9.26306E-19-8.80944E-19
 -1       548 9.95763E-05-2.93753E-05-3.00849E-05-4.58311E-06-4.78683E-19-1.95298E-18
 -1       549 1.00756E-04-2.99258E-05-3.03556E-05-5.08981E-06-2.33529E-19-1.41701E-18
 -1       550 1.02178E-04-3.07404E-05-3.06181E-05-5.30660E-06 7.48098E-20-1.98814E-18
 -1       551 1.03870E-04-3.18856E-05-3.08551E-05-5.00696E-06-2.84807E-19-1.54861E-18
 -1       552 1.05820E-04-3.33765E-05-3.10548E-05-3.91169E-06 2.03706E-20 1.23524E-19
 -1       553 1.07918E-04-3.50881E-05-3.12233E-05-1.74620E-06 5.99787E-19 1.46656E-18
 -1       554 1.09860E-04-3.66245E-05-3.13984E-05 1.62000E-06 1.20329E-19 7.39639E-19
 -1       555 1.11051E-04-3.72231E-05-3.16524E-05 5.89438E-06-1.09658E-18 1.63538E-18
 -1       556 1.10775E-04-3.59859E-05-3.20525E-05 9.98103E-06-1.64744E-18 1.85976E-18
 -1       557 1.08518E-04-3.23587E-05-3.26439E-05 1.21006E-05-1.81244E-19 2.06398E-18
 -1       558 1.05071E-04-2.74792E-05-3.32555E-05 1.02264E-05-2.94725E-19 3.51235E-18
 -1       559 1.02418E-04-2.39632E-05-3.36317E-05 4.09449E-06-3.65399E-19 3.78433E-18
 -1       560 1.02464E-04-2.42634E-05-3.35301E-05-3.59145E-06-9.60615E-19 2.74373E-18
 -1       561 1.05079E-04-2.81761E-05-3.29673E-05-9.04447E-06 4.55260E-19 3.06612E-18
 -1       562 1.08096E-04-3.29518E-05-3.22068E-05-1.01044E-05-1.15554E-18 8.13578E-19
 -1       563 1.09669E-04-3.61317E-05-3.15222E-05-7.35187E-06-7.25020E-19 1.33394E-18
 -1       564 1.09273E-04-3.69159E-05-3.10230E-05-2.90465E-06 2.95814E-19 2.12187E-18
 -1       565 1.07455E-04-3.58981E-05-3.06815E-05 1.41071E-06 3.22748E-19 3.12059E-18
 -1       566 1.04978E-04-3.40049E-05-3.04278E-05 4.61661E-06 8.98146E-19 5.26428E-18
 -1       567 1.02385E-04-3.19100E-05-3.02097E-05 6.41982E-06 3.21209E-18 6.84903E-18
 -1       568 9.99626E-05-2.99367E-05-3.00103E-05 6.88376E-06 2.45676E-18 6.43922E-18
 -1       569 9.77787E-05-2.81774E-05-2.98239E-05 6.19283E-06 1.27900E-18 5.76608E-18
 -1       570 9.27351E-05-2.23124E-05-3.01839E-05 9.87281E-06 7.58499E-19-3.17276E-18
 -1       571 9.04463E-05-1.98829E-05-3.02464E-05 8.65755E-06-2.65914E-20-1.58026E-18
 -1       572 9.63030E-05-2.63645E-05-2.99696E-05 8.49331E-06 1.29471E-18 8.67965E-19
 -1       573 9.47461E-05-2.45378E-05-3.00883E-05 9.68733E-06-5.55844E-19-3.57360E-20
 -1       574 8.83739E-05-1.77458E-05-3.02757E-05 5.90830E-06-1.33353E-18-1.64315E-18
 -1       575 8.70917E-05-1.64530E-05-3.02809E-05 1.92049E-06-1.83117E-18-1.90923E-18
 -1       576 8.70242E-05-1.63953E-05-3.02769E-05-2.57552E-06-4.56232E-19 8.14893E-19
 -1       577 8.81849E-05-1.75730E-05-3.02686E-05-6.59997E-06 1.84259E-18 2.04499E-18
 -1       578 9.02836E-05-1.96995E-05-3.02547E-05-9.49775E-06 1.75831E-18-1.29607E-18
 -1       579 9.27429E-05-2.22301E-05-3.02208E-05-1.08139E-05 2.00213E-18 2.50540E-18
 -1       580 9.52118E-05-2.47521E-05-3.01982E-05-1.04923E-05 1.83499E-19-1.06095E-18
 -1       581 2.83292E-05-1.80093E-05-3.81189E-06-1.74121E-05-1.13209E-18-8.30516E-19
 -1       582 9.45130E-05-2.72920E-05-2.88004E-05 9.91091E-07 1.10392E-18 1.63856E-20
 -1       583 9.31333E-05-5.27586E-05-1.70466E-05 4.30514E-05-2.16809E-18 8.11537E-19
 -1       584 9.45918E-05-2.07022E-05-3.16857E-05-9.57460E-06-1.53989E-18-1.26519E-18
 -1       585 1.29498E-04-6.30731E-05-2.84457E-05-2.51841E-05 4.29324E-18 1.45698E-18
 -1       586 1.38682E-04-5.78673E-05-3.47424E-05-9.32584E-06-4.17448E-19 8.22840E-19
 -1       587 8.91667E-05-1.28842E-05-3.27105E-05-1.93874E-06 1.18589E-19-2.07026E-18
 -1       588 1.38574E-04-2.20109E-05-5.05329E-05 1.21890E-05 1.28590E-18 7.27601E-19
 -1       589 1.34148E-04-1.40583E-05-5.20761E-05-8.35204E-06 2.82464E-18-2.65598E-18
 -1       590 3.26655E-05-1.80972E-05-5.61211E-06-2.21394E-05-3.16870E-19-2.56640E-18
 -1       591 1.32518E-04-7.57963E-06-5.41476E-05 3.00828E-06 1.44229E-18-1.34969E-19
 -1       592 1.43631E-04-4.34791E-05-4.33311E-05 6.12563E-06 3.67771E-19 4.76403E-19
 -1       593 1.14195E-04-5.91447E-05-2.34860E-05-3.27159E-05-1.86734E-18 1.10273E-18
 -1       594 7.42463E-05-4.13313E-05-1.37170E-05-4.15868E-05-1.42243E-18-8.84408E-19
 -1       595 2.43786E-05-1.31707E-05-4.08320E-06 2.03633E-06-7.38831E-19 6.90755E-19
 -1       596 3.56991E-05-2.01769E-05-6.05904E-06 2.54930E-05-1.38935E-18 1.78073E-18
 -1       597 7.19426E-05-4.19746E-05-1.24273E-05 4.16124E-05 4.90644E-19-8.19557E-19
 -1       598 1.10292E-04-5.85807E-05-2.19798E-05 3.41034E-05-5.00067E-19 8.94222E-19
 -1       599 1.33672E-04-6.20868E-05-3.07778E-05 1.83691E-05-1.48411E-18 5.29449E-19
 -1       600 1.45722E-04-4.74768E-05-4.24430E-05-7.85580E-06 4.63751E-20 8.88485E-19
 -1       601 1.44854E-04-2.48526E-05-5.18869E-05-1.22151E-05 1.71154E-19 2.13971E-18
 -1       602 1.36543E-04-1.12493E-05-5.42801E-05-7.24853E-06-7.74612E-19 2.66454E-18
 -1       603 1.35397E-04-1.34611E-05-5.29111E-05 7.54420E-06-1.77644E-18 8.45339E-19
 -1       604 1.41355E-04-3.41600E-05-4.64702E-05 1.25998E-05-2.18693E-19-1.10077E-18
 -1       605 1.44655E-04-5.57740E-05-3.83742E-05-3.17204E-06 1.88047E-18-1.64076E-18
 -1       606 9.80731E-05-5.47240E-05-1.82981E-05-4.14972E-05 4.21097E-18 8.21033E-19
 -1       607 1.24447E-04-6.18174E-05-2.68090E-05 2.96837E-05-1.71837E-18-2.66252E-18
 -1       608 1.42243E-04-5.68206E-05-3.68318E-05 7.71542E-06-1.78904E-18-2.93995E-18
 -1       609 9.61547E-05-2.31890E-05-3.12746E-05 9.58822E-06 1.82212E-18 6.37372E-19
 -1       610 9.13585E-05-1.58631E-05-3.23775E-05-7.79370E-06-1.02024E-18-1.86957E-18
 -1       611 3.44935E-05-1.33182E-05-8.46771E-06 1.11758E-06-4.78917E-19 2.67768E-18
 -1       612 7.54132E-05-3.97979E-05-1.48396E-05 4.05552E-05 3.46701E-19-2.74169E-18
 -1       613 4.84848E-05-2.47838E-05-9.61292E-06-3.12905E-05 1.61823E-18-1.69179E-18
 -1       614 9.74572E-05-2.69865E-05-3.01968E-05-9.50747E-06-1.02917E-18-1.13559E-18
 -1       615 5.58991E-05-2.62655E-05-1.22082E-05-3.28228E-05-6.01473E-19-1.67112E-18
 -1       616 9.15641E-05-1.68561E-05-3.20234E-05 2.44319E-06 8.23020E-19-1.77723E-18
 -1       617 9.13064E-05-1.64544E-05-3.20848E-05 8.41161E-07 4.75360E-19-2.06129E-18
 -1       618 9.28955E-05-1.90018E-05-3.16744E-05 5.27025E-06 1.38406E-18-1.32658E-18
 -1       619 9.39859E-05-2.09318E-05-3.13169E-05 6.14842E-06 1.60800E-18-8.77238E-19
 -1       620 9.61828E-05-2.62637E-05-2.99597E-05-1.19829E-05 7.59138E-20-2.63713E-18
 -1       621 9.52707E-05-2.40959E-05-3.04932E-05 5.15523E-06 1.55251E-18-5.42450E-19
 -1       622 9.54267E-05-2.57046E-05-2.98738E-05-2.44816E-06-7.56745E-19-1.29147E-18
 -1       623 9.54762E-05-2.69430E-05-2.93700E-05-8.81375E-07-6.73269E-19-9.71352E-19
 -1       624 9.54184E-05-2.77044E-05-2.90200E-05 1.26545E-07-4.59908E-19-9.59875E-19
 -1       625 9.53441E-05-2.81743E-05-2.87870E-05 7.17849E-07-6.65459E-19-1.05028E-18
 -1       626 9.52805E-05-2.84608E-05-2.86370E-05 1.02521E-06-5.12435E-19-1.18759E-18
 -1       627 9.52366E-05-2.86278E-05-2.85467E-05 1.14738E-06-4.65702E-19-7.92295E-19
 -1       628 9.52111E-05-2.87143E-05-2.84987E-05 1.15640E-06-7.15221E-19-3.38699E-19
 -1       629 9.52001E-05-2.87451E-05-2.84808E-05 1.10466E-06-7.47051E-19-6.54524E-19
 -1       630 9.51996E-05-2.87366E-05-2.84842E-05 1.03018E-06-6.74288E-19-9.66329E-19
 -1       631 9.52069E-05-2.86991E-05-2.85034E-05 9.60869E-07-2.24267E-19-5.44533E-19
 -1       632 9.52198E-05-2.86389E-05-2.85347E-05 9.17849E-07 4.17707E-20-6.85483E-19
 -1       633 9.52372E-05-2.85592E-05-2.85763E-05 9.18028E-07-2.23721E-19-4.27177E-19
 -1       634 9.52582E-05-2.84608E-05-2.86274E-05 9.76028E-07-7.03781E-19-1.18836E-20
 -1       635 9.52827E-05-2.83429E-05-2.86884E-05 1.10559E-06-8.12513E-19-3.77739E-19
 -1       636 9.53104E-05-2.82036E-05-2.87599E-05 1.32053E-06-4.05966E-19-3.20555E-19
 -1       637 9.53409E-05-2.80406E-05-2.88428E-05 1.63516E-06-1.73709E-19-2.80754E-19
 -1       638 9.53742E-05-2.78524E-05-2.89376E-05 2.06425E-06-7.85200E-19 3.07282E-19
 -1       639 9.54101E-05-2.76395E-05-2.90441E-05 2.62241E-06-5.43346E-19-2.54137E-19
 -1       640 9.54498E-05-2.74075E-05-2.91605E-05 3.32258E-06-1.00512E-19-8.37570E-19
 -1       641 9.54982E-05-2.71712E-05-2.92824E-05 4.17378E-06 4.10581E-19-1.99312E-19
 -1       642 9.55685E-05-2.69622E-05-2.94020E-05 5.17744E-06-1.82103E-19-7.18135E-19
 -1       643 9.56916E-05-2.68400E-05-2.95071E-05 6.32244E-06 4.08332E-19-3.42351E-19
 -1       644 9.59331E-05-2.69101E-05-2.95805E-05 7.57778E-06 5.80762E-19 6.91514E-19
 -1       645 9.64198E-05-2.73465E-05-2.96022E-05 8.88181E-06 8.74757E-19 7.80914E-19
 -1       646 9.73783E-05-2.84169E-05-2.95547E-05 1.01235E-05 1.20166E-18 5.55058E-20
 -1       647 9.91801E-05-3.04921E-05-2.94379E-05 1.11054E-05 2.93500E-19 8.87654E-20
 -1       648 1.02363E-04-3.39969E-05-2.93000E-05 1.14720E-05 9.02714E-19 1.20081E-18
 -1       649 1.07592E-04-3.92246E-05-2.92988E-05 1.05365E-05-1.82367E-18 6.66060E-20
 -1       650 1.15078E-04-4.55415E-05-2.97993E-05 7.14448E-06-6.52362E-19 5.00431E-19
 -1       651 1.24030E-04-5.06120E-05-3.14985E-05-1.06984E-07-2.44482E-19 1.77847E-18
 -1       652 1.30500E-04-4.89579E-05-3.51056E-05-1.03411E-05-4.90207E-19 1.87016E-18
 -1       653 1.29798E-04-3.57249E-05-4.06308E-05-1.79594E-05-6.46511E-19 1.75855E-18
 -1       654 1.19148E-04-1.37836E-05-4.56752E-05 3.43804E-06-1.20612E-18-8.36379E-20
 -1       655 1.25359E-04-2.70502E-05-4.25009E-05 1.51984E-05-1.25890E-19 2.93841E-19
 -1       656 1.29400E-04-4.35006E-05-3.69660E-05 1.25186E-05 7.63944E-19-6.94646E-19
 -1       657 1.26318E-04-5.01379E-05-3.27133E-05 2.73854E-06 1.21925E-18-5.38489E-19
 -1       658 1.18835E-04-4.78832E-05-3.04076E-05-5.99829E-06 9.41005E-19-2.20610E-18
 -1       659 1.10904E-04-4.20337E-05-2.95188E-05-1.13161E-05 7.30755E-19-7.51431E-20
 -1       660 1.04720E-04-3.62090E-05-2.93660E-05-1.35780E-05 7.41073E-19-6.24570E-19
 -1       661 1.00553E-04-3.16607E-05-2.95261E-05-1.38665E-05 4.95389E-19-1.74516E-18
 -1       662 9.79960E-05-2.86636E-05-2.97141E-05-1.32519E-05-4.49672E-19-3.21431E-18
 -1       663 1.32319E-04-6.04603E-05-3.08457E-05 1.42339E-05-1.00577E-18-2.22201E-18
 -1       664 9.49808E-05-2.81113E-05-2.86582E-05-7.31246E-07 8.26296E-19-3.76624E-19
 -1       665 9.50913E-05-2.77073E-05-2.88783E-05-1.19897E-07 8.88084E-19-3.91766E-19
 -1       666 9.49009E-05-2.85156E-05-2.84509E-05-1.16663E-06 1.02118E-19-1.36628E-19
 -1       667 9.49122E-05-2.86030E-05-2.84184E-05-1.17152E-06 5.76169E-19-2.25947E-19
 -1       668 9.49432E-05-2.86447E-05-2.84138E-05-1.11332E-06 2.48390E-19-1.94402E-19
 -1       669 9.49863E-05-2.86538E-05-2.84283E-05-1.03037E-06 1.93391E-19-3.21140E-19
 -1       670 9.50368E-05-2.86391E-05-2.84563E-05-9.50409E-07 2.55946E-19-1.27771E-19
 -1       671 9.50924E-05-2.86060E-05-2.84943E-05-8.94059E-07 4.49402E-19-2.69417E-19
 -1       672 9.51529E-05-2.85580E-05-2.85407E-05-8.77424E-07 2.54002E-19-4.50853E-19
 -1       673 9.52197E-05-2.84972E-05-2.85953E-05-9.13947E-07 8.83117E-20-3.23094E-19
 -1       674 9.52956E-05-2.84249E-05-2.86588E-05-1.01571E-06-1.78952E-19 3.32716E-20
 -1       675 9.53846E-05-2.83421E-05-2.87323E-05-1.19417E-06 6.64210E-20 3.35228E-19
 -1       676 9.54921E-05-2.82509E-05-2.88174E-05-1.46033E-06 1.33220E-19 2.92418E-20
 -1       677 9.56252E-05-2.81551E-05-2.89154E-05-1.82422E-06-4.13176E-20-5.44451E-19
 -1       678 9.57931E-05-2.80621E-05-2.90271E-05-2.29359E-06 5.78087E-19-1.11418E-19
 -1       679 9.60088E-05-2.79856E-05-2.91522E-05-2.87155E-06 5.06248E-19-2.20201E-19
 -1       680 9.62906E-05-2.79491E-05-2.92885E-05-3.55289E-06 3.01737E-19-7.59070E-19
 -1       681 9.66667E-05-2.79906E-05-2.94319E-05-4.31861E-06-1.36916E-21-1.38000E-18
 -1       682 9.71798E-05-2.81697E-05-2.95751E-05-5.12836E-06-9.10105E-20-1.33742E-18
 -1       683 9.78957E-05-2.85737E-05-2.97090E-05-5.91005E-06-4.89228E-19-9.28975E-19
 -1       684 9.89121E-05-2.93223E-05-2.98243E-05-6.54639E-06 1.01366E-19-5.40253E-19
 -1       685 1.00363E-04-3.05605E-05-2.99162E-05-6.85812E-06-6.72443E-19 5.18809E-19
 -1       686 1.02405E-04-3.24234E-05-2.99946E-05-6.58636E-06-6.01148E-19-1.12089E-20
 -1       687 1.05166E-04-3.49445E-05-3.00984E-05-5.38532E-06-3.35225E-19 6.01456E-19
 -1       688 1.08600E-04-3.78776E-05-3.03147E-05-2.86390E-06 8.20536E-19 1.38528E-18
 -1       689 1.12325E-04-4.04744E-05-3.07991E-05 1.28644E-06-9.37151E-19 1.26439E-18
 -1       690 1.15214E-04-4.10704E-05-3.17675E-05 7.00203E-06-1.17883E-18 1.47978E-18
 -1       691 1.15355E-04-3.78588E-05-3.32794E-05 1.23697E-05-1.07405E-18 9.81834E-19
 -1       692 1.12491E-04-3.06941E-05-3.51328E-05 1.40770E-05-2.57912E-19 7.60454E-19
 -1       693 1.08342E-04-2.28338E-05-3.66909E-05 9.71220E-06-4.58579E-19 2.06530E-20
 -1       694 1.05794E-04-1.92213E-05-3.72272E-05 1.59562E-08-3.74415E-20-8.55470E-20
 -1       695 1.08292E-04-2.35501E-05-3.63801E-05-9.05633E-06-1.26778E-18-2.78613E-19
 -1       696 1.13056E-04-3.22487E-05-3.46673E-05-1.20189E-05 6.20956E-19 2.11095E-18
 -1       697 1.15281E-04-3.90264E-05-3.26956E-05-8.99960E-06 1.19217E-19 6.40757E-19
 -1       698 1.14202E-04-4.13321E-05-3.12420E-05-3.32524E-06 1.23054E-19-9.96074E-19
 -1       699 1.10950E-04-4.01223E-05-3.03635E-05 2.18759E-06 5.32729E-19-1.81898E-18
 -1       700 1.07016E-04-3.71793E-05-2.99356E-05 6.16659E-06-4.19313E-19-2.52478E-18
 -1       701 1.03364E-04-3.38659E-05-2.97877E-05 8.39643E-06 4.05153E-20-2.41172E-18
 -1       702 1.00352E-04-3.08337E-05-2.97926E-05 9.08874E-06 2.26373E-18 1.86573E-18
 -1       703 9.81709E-05-2.85686E-05-2.98276E-05 9.17513E-06 2.47578E-19 3.08535E-18
 -1       704 8.52099E-05-1.82997E-05-2.86790E-05 5.31506E-06-3.28685E-19-1.78356E-18
 -1       705 1.28888E-04-3.35488E-05-4.12644E-05 1.55115E-05 3.76241E-19-6.60553E-19
 -1       706 9.15993E-05-2.35273E-05-2.91778E-05 1.16448E-05-2.99712E-19-3.12846E-18
 -1       707 8.40262E-05-1.72908E-05-2.86023E-05-2.25110E-07 5.07909E-19-3.67384E-20
 -1       708 8.80744E-05-2.06621E-05-2.88943E-05 9.50245E-06-7.68310E-19-2.19709E-18
 -1       709 8.48970E-05-1.79525E-05-2.86963E-05-5.74646E-06 1.51931E-18 5.71446E-19
 -1       710 8.76499E-05-2.01021E-05-2.89515E-05-1.01599E-05 6.90989E-19 1.73284E-19
 -1       711 9.12410E-05-2.28908E-05-2.92945E-05-1.25356E-05 1.21813E-18 5.14691E-19
 -1       712 9.52306E-05-2.70425E-05-2.92215E-05 9.33903E-07 1.13683E-18-4.76505E-19
 -1       713 9.46086E-05-2.22094E-05-3.10262E-05-6.02268E-06-1.01986E-18-1.40188E-18
 -1       714 9.53335E-05-2.59392E-05-2.97364E-05 2.61275E-06 1.26711E-18-5.13180E-19
 -1       715 1.36234E-04-4.72031E-05-3.84391E-05 1.01666E-05 6.52454E-19-1.00306E-18
 -1       716 1.34378E-04-4.78929E-05-3.72567E-05 8.44156E-06-4.80559E-19-5.01814E-19
 -1       717 4.11113E-05-1.36565E-05-1.12388E-05 1.25794E-05-6.48615E-19 3.84341E-19
 -1       718 9.49199E-05-2.83625E-05-2.85246E-05-1.04500E-06 3.63900E-19-2.48813E-19
 -1       719 1.13224E-04-5.76180E-05-2.37049E-05 3.15265E-05-2.67130E-18-2.48194E-18
 -1       720 9.20863E-05-1.76819E-05-3.18935E-05 3.95403E-06 1.15514E-18-1.46483E-18
 -1       721 1.27211E-04-5.91751E-05-2.91969E-05-1.44467E-05-5.81197E-19 1.63807E-18
 -1       722 9.20465E-05-1.76311E-05-3.18990E-05-3.90344E-06-4.42541E-19-1.75871E-18
 -1       723 1.17165E-04-5.87023E-05-2.48911E-05-2.84665E-05 3.52435E-18 2.86779E-18
 -1       724 1.18939E-04-1.12396E-05-4.66805E-05-3.53962E-06 1.10898E-18-8.08447E-19
 -1       725 6.23296E-05-2.90954E-05-1.38144E-05 3.31248E-05-1.72247E-18 1.12759E-18
 -1       726 3.72937E-05-1.26624E-05-9.99983E-06-9.26691E-06 3.02652E-19-1.19024E-18
 -1       727 1.01058E-04-5.01217E-05-2.16665E-05-3.21961E-05-5.29634E-19 4.44229E-19
 -1       728 5.15459E-05-2.02974E-05-1.28178E-05 2.53024E-05-2.10509E-18-1.37672E-18
 -1       729 1.20321E-04-1.45739E-05-4.58263E-05 1.10252E-05 1.56436E-18-5.64005E-19
 -1       730 9.76912E-05-4.93945E-05-2.04515E-05 3.37760E-05 4.55333E-19 4.92258E-19
 -1       731 1.25851E-04-6.01173E-05-2.80975E-05 1.70758E-05-3.30634E-19 4.59264E-19
 -1       732 1.37900E-04-5.42671E-05-3.59759E-05-5.42259E-06-5.92705E-19 1.80431E-18
 -1       733 1.36438E-04-4.44304E-05-3.97895E-05-8.01425E-06-1.52414E-18-6.70072E-18
 -1       734 1.35457E-04-6.03246E-05-3.22690E-05-8.86219E-06 2.27420E-18-1.97928E-19
 -1       735 7.98291E-05-4.17577E-05-1.59638E-05-3.98937E-05 4.91769E-18 1.17367E-18
 -1       736 1.27082E-04-2.57268E-05-4.39415E-05-1.38725E-05 1.75151E-19-3.23876E-18
 -1       737 9.28423E-05-1.89339E-05-3.16862E-05-5.21920E-06-8.91606E-19-1.73400E-18
 -1       738 9.12997E-05-1.64453E-05-3.20858E-05-7.85179E-07 1.93404E-19-1.78655E-18
 -1       739 1.33210E-04-5.25061E-05-3.47278E-05-1.93695E-06-4.69865E-19-4.97613E-18
 -1       740 9.67114E-05-4.74538E-05-2.08632E-05 3.49219E-05-1.17352E-18-1.97614E-18
 -1       741 4.34715E-05-1.59197E-05-1.13400E-05-1.51100E-05 9.62421E-19-1.99085E-18
 -1       742 1.22059E-04-1.89943E-05-4.47076E-05-1.35927E-05-7.59577E-19 1.40762E-18
 -1       743 9.64201E-05-2.71891E-05-2.96681E-05 1.09309E-05 3.03078E-21-1.30463E-18
 -1       744 9.44501E-05-2.59195E-05-2.93684E-05-1.36531E-05 1.07382E-19-6.84370E-19
 -1       745 8.25210E-05-3.76384E-05-1.89608E-05-3.29024E-05 6.46366E-19-8.81179E-19
 -1       746 5.20027E-05-1.82718E-05-1.40835E-05-2.16778E-05-7.64328E-19-1.75405E-18
 -1       747 9.43216E-05-2.55991E-05-2.94537E-05 1.17896E-05-2.92612E-19-2.07912E-18
 -1       748 9.15405E-05-1.68246E-05-3.20270E-05-2.38602E-06-5.61211E-20-1.78096E-18
 -1       749 9.46458E-05-2.27458E-05-3.08152E-05 3.90198E-06 1.22709E-18-9.26434E-19
 -1       750 1.26576E-04-5.16947E-05-3.21355E-05 1.35244E-06-1.87224E-18-9.06061E-20
 -1       751 9.58759E-05-2.68815E-05-2.95692E-05-5.96751E-07-4.94590E-19-8.84359E-19
 -1       752 9.59668E-05-2.77720E-05-2.92267E-05 2.14012E-07-8.30560E-19-8.25700E-19
 -1       753 9.59560E-05-2.83277E-05-2.89837E-05 6.96843E-07-8.18555E-19-9.24745E-19
 -1       754 9.58952E-05-2.86603E-05-2.88150E-05 9.50346E-07-2.64058E-19-1.15690E-18
 -1       755 9.58135E-05-2.88401E-05-2.87029E-05 1.05153E-06-2.36777E-19-1.02997E-18
 -1       756 9.57258E-05-2.89146E-05-2.86334E-05 1.05997E-06-6.96694E-19-5.71988E-19
 -1       757 9.56392E-05-2.89157E-05-2.85958E-05 1.02071E-06-8.09610E-19-2.19022E-19
 -1       758 9.55567E-05-2.88642E-05-2.85825E-05 9.67413E-07-2.82070E-19 2.18119E-19
 -1       759 9.54779E-05-2.87733E-05-2.85877E-05 9.25436E-07-3.66041E-19-2.88799E-19
 -1       760 9.54010E-05-2.86502E-05-2.86075E-05 9.14494E-07-1.80060E-19-5.54820E-19
 -1       761 9.53223E-05-2.84974E-05-2.86392E-05 9.50773E-07-3.47467E-19-6.31120E-19
 -1       762 9.52368E-05-2.83142E-05-2.86811E-05 1.04855E-06-8.50853E-19-5.06965E-19
 -1       763 9.51384E-05-2.80975E-05-2.87318E-05 1.22132E-06-6.01458E-19 1.83739E-20
 -1       764 9.50194E-05-2.78427E-05-2.87900E-05 1.48248E-06-4.23120E-19-3.06999E-20
 -1       765 9.48709E-05-2.75448E-05-2.88540E-05 1.84562E-06-2.84443E-19 3.91726E-20
 -1       766 9.46828E-05-2.72003E-05-2.89210E-05 2.32431E-06-7.94467E-19 8.27527E-20
 -1       767 9.44449E-05-2.68095E-05-2.89865E-05 2.93163E-06-3.31275E-19 4.52715E-19
 -1       768 9.41483E-05-2.63799E-05-2.90434E-05 3.67940E-06 2.54881E-19 7.37927E-19
 -1       769 9.37892E-05-2.59332E-05-2.90810E-05 4.57740E-06 4.05279E-20 5.81710E-19
 -1       770 9.33763E-05-2.55138E-05-2.90837E-05 5.63325E-06 5.74514E-19 1.42718E-18
 -1       771 9.29439E-05-2.52045E-05-2.90309E-05 6.85344E-06 8.17098E-19 1.57493E-18
 -1       772 9.25737E-05-2.51470E-05-2.88968E-05 8.24599E-06 9.01271E-19 1.88592E-18
 -1       773 9.24323E-05-2.55718E-05-2.86540E-05 9.82340E-06 9.28086E-19 2.25424E-18
 -1       774 9.28276E-05-2.68345E-05-2.82819E-05 1.15979E-05 1.85953E-19 1.68986E-18
 -1       775 9.42941E-05-2.94475E-05-2.77876E-05 1.35409E-05 5.86409E-19 1.97198E-18
 -1       776 9.76292E-05-3.40127E-05-2.72514E-05 1.54630E-05-1.48776E-18 8.77399E-19
 -1       777 1.04283E-04-4.13316E-05-2.69906E-05 1.66276E-05-6.54356E-19 1.63197E-18
 -1       778 1.15612E-04-5.09727E-05-2.76407E-05 1.53852E-05 5.90753E-19 1.37599E-18
 -1       779 1.21934E-04-5.68970E-05-2.78176E-05 1.83856E-05-9.25766E-19-1.23564E-18
 -1       780 9.96614E-05-4.66734E-05-2.25142E-05-3.13273E-05 1.48547E-18 5.35668E-18
 -1       781 1.22954E-04-5.51796E-05-2.89918E-05-1.33526E-05 3.95988E-19 1.29706E-19
 -1       782 1.10610E-04-4.62293E-05-2.75877E-05-1.77282E-05 1.41060E-18 7.45687E-20
 -1       783 1.02334E-04-3.79401E-05-2.75818E-05-1.82516E-05 1.05349E-18 2.20488E-18
 -1       784 9.76745E-05-3.19939E-05-2.81428E-05-1.69990E-05-1.79623E-19 1.38904E-18
 -1       785 9.55086E-05-2.88294E-05-2.85768E-05-1.11278E-06 2.06619E-19-1.17574E-19
 -1       786 9.55696E-05-2.87497E-05-2.86371E-05-1.10505E-06 4.41877E-19-2.70344E-19
 -1       787 9.54078E-05-2.88120E-05-2.85411E-05-1.00381E-06 2.39794E-19-3.98966E-19
 -1       788 9.53671E-05-2.87460E-05-2.85519E-05-9.49258E-07 4.15123E-19-8.50550E-19
 -1       789 9.53307E-05-2.86531E-05-2.85761E-05-9.23799E-07 3.41302E-19-2.69718E-19
 -1       790 9.52968E-05-2.85370E-05-2.86113E-05-9.43701E-07 3.34896E-19-2.34503E-19
 -1       791 9.52633E-05-2.83989E-05-2.86561E-05-1.02292E-06-4.41144E-19-5.84704E-20
 -1       792 9.52280E-05-2.82387E-05-2.87096E-05-1.17421E-06-3.54694E-19-2.72743E-20
 -1       793 9.51893E-05-2.80562E-05-2.87712E-05-1.40976E-06-2.60816E-19-1.49907E-19
 -1       794 9.51462E-05-2.78525E-05-2.88401E-05-1.74118E-06-1.00693E-19 3.06236E-19
 -1       795 9.50997E-05-2.76320E-05-2.89146E-05-2.17902E-06 1.58761E-19 1.00957E-18
 -1       796 9.50541E-05-2.74053E-05-2.89922E-05-2.73155E-06 3.22136E-19 1.54491E-18
 -1       797 9.50200E-05-2.71934E-05-2.90684E-05-3.40284E-06 3.70190E-19 1.97584E-18
 -1       798 9.50191E-05-2.70328E-05-2.91367E-05-4.18994E-06 7.44039E-19 1.38026E-18
 -1       799 9.50909E-05-2.69837E-05-2.91885E-05-5.07904E-06 1.99518E-19 4.91566E-19
 -1       800 9.53043E-05-2.71392E-05-2.92133E-05-6.04010E-06-1.16446E-19 4.17506E-19
 -1       801 9.57722E-05-2.76357E-05-2.92011E-05-7.01873E-06-8.28203E-19 3.25764E-19
 -1       802 9.66695E-05-2.86596E-05-2.91470E-05-7.92235E-06-7.67058E-21-1.16088E-19
 -1       803 9.82478E-05-3.04390E-05-2.90611E-05-8.59459E-06-1.11664E-18-2.44846E-19
 -1       804 1.00828E-04-3.31961E-05-2.89856E-05-8.76906E-06-7.97648E-19 7.81231E-19
 -1       805 1.04724E-04-3.70086E-05-2.90198E-05-8.00243E-06-2.81648E-19-2.94106E-19
 -1       806 1.10015E-04-4.14864E-05-2.93601E-05-5.57329E-06 3.90435E-19 3.38638E-19
 -1       807 1.16113E-04-4.52965E-05-3.03705E-05-7.47959E-07-1.05899E-18-4.72089E-20
 -1       808 1.17553E-04-2.60809E-05-3.93958E-05 1.48370E-05-1.03788E-19 7.75167E-19
 -1       809 1.22644E-04-4.12963E-05-3.49420E-05-1.03981E-05-1.55315E-19-2.01477E-18
 -1       810 1.20906E-04-4.65812E-05-3.18552E-05-2.65299E-06-4.39560E-19-5.00767E-19
 -1       811 1.15457E-04-4.53495E-05-3.00471E-05 4.48221E-06 5.16192E-19 7.81653E-20
 -1       812 1.09377E-04-4.11137E-05-2.92555E-05 9.00007E-06 2.07701E-19-1.97300E-19
 -1       813 1.04177E-04-3.62813E-05-2.90972E-05 1.11124E-05-4.68262E-19 5.35219E-20
 -1       814 1.00350E-04-3.20595E-05-2.92668E-05 1.15318E-05-7.57397E-19-8.10120E-19
 -1       815 9.81387E-05-2.95202E-05-2.94132E-05 1.14905E-05-9.87233E-19-1.01118E-18
 -1       816 8.84866E-05-2.32931E-05-2.79444E-05-1.40130E-05-5.97310E-19-9.24197E-19
 -1       817 8.05420E-05-1.79491E-05-2.68269E-05 3.63976E-06 2.84100E-19-1.35739E-18
 -1       818 1.14497E-04-5.20746E-05-2.67286E-05-1.75465E-05-4.51677E-19 1.24453E-18
 -1       819 9.57015E-05-2.69187E-05-2.94786E-05 6.97853E-07 1.09852E-18-5.07991E-19
 -1       820 9.50521E-05-2.36791E-05-3.05873E-05-2.65013E-06-5.82916E-19-1.44354E-18
 -1       821 1.24562E-04-4.00912E-05-3.62958E-05 1.34522E-05-6.97968E-19 1.19213E-18
 -1       822 8.34285E-05-1.98549E-05-2.72404E-05-1.01026E-05 1.80539E-19 6.92135E-20
 -1       823 8.52539E-05-3.67263E-05-2.06266E-05 2.90825E-05-9.78647E-19 7.64527E-19
 -1       824 9.54546E-05-2.88438E-05-2.85475E-05-1.06715E-06 1.11805E-19 1.37706E-19
 -1       825 8.02608E-05-1.76747E-05-2.68237E-05-3.58499E-06 2.17319E-19 1.38977E-18
 -1       826 9.57337E-05-2.77472E-05-2.91370E-05-1.91366E-07 7.67440E-19-5.61698E-19
 -1       827 5.14634E-05-1.40307E-05-1.56783E-05 6.77520E-06-2.10801E-18 5.47924E-20
 -1       828 6.14851E-05-2.10701E-05-1.70803E-05 2.21260E-05-7.43523E-19 3.58427E-19
 -1       829 9.52136E-05-2.44795E-05-3.03137E-05 3.43072E-06 1.22902E-18-6.71926E-19
 -1       830 6.72623E-05-2.87212E-05-1.61574E-05-3.18471E-05 1.86808E-18-2.00895E-18
 -1       831 9.56647E-05-2.55641E-05-3.00426E-05-1.57065E-06-2.09090E-19-1.11233E-18
 -1       832 9.32168E-05-1.97835E-05-3.14726E-05 1.23548E-06 5.31168E-19-1.73015E-18
 -1       833 4.73519E-05-1.23289E-05-1.47079E-05-2.98210E-07-8.88417E-20-9.29698E-19
 -1       834 7.12140E-05-2.96462E-05-1.75354E-05 3.09288E-05-3.44173E-19-2.52482E-18
 -1       835 1.25371E-04-3.68635E-05-3.81492E-05-1.27126E-05-5.20025E-19-2.83888E-18
 -1       836 9.31068E-05-1.95847E-05-3.15106E-05 2.03123E-08 2.21049E-19-1.65895E-18
 -1       837 1.09952E-04-5.09897E-05-2.51967E-05 2.52735E-05-6.88552E-19 1.35932E-19
 -1       838 5.92958E-05-1.60579E-05-1.83787E-05 1.21201E-05-6.57437E-19-3.21740E-20
 -1       839 1.26765E-04-5.41231E-05-3.12071E-05 4.81203E-06-7.03681E-19-5.48266E-18
 -1       840 9.50846E-05-2.81817E-05-2.86727E-05-1.55357E-05-8.38155E-19 4.06429E-19
 -1       841 1.30269E-04-5.27700E-05-3.32840E-05 2.29222E-06 1.80994E-18-5.78404E-19
 -1       842 9.56349E-05-2.85758E-05-2.87397E-05-9.95649E-07 6.77458E-20-1.85025E-19
 -1       843 1.18693E-04-3.23359E-05-3.71054E-05-1.25852E-05-5.14956E-19-3.10482E-18
 -1       844 9.56964E-05-2.82640E-05-2.88996E-05-7.19608E-07 5.80766E-19-4.15439E-19
 -1       845 8.40061E-05-2.05717E-05-2.71892E-05 9.86178E-06-8.14157E-19 4.26109E-19
 -1       846 8.91804E-05-2.43289E-05-2.77975E-05 1.33224E-05-1.10158E-18-3.64145E-18
 -1       847 9.35163E-05-2.03494E-05-3.13590E-05-2.32041E-06-3.22906E-19-1.57717E-18
 -1       848 9.35026E-05-2.71951E-05-2.84138E-05 1.39622E-05 8.00090E-19-3.21818E-18
 -1       849 1.01678E-04-4.49289E-05-2.42067E-05-2.39704E-05-9.04803E-20 1.45929E-18
 -1       850 5.47258E-05-1.48276E-05-1.68942E-05-1.15144E-05-9.65541E-19-1.61128E-18
 -1       851 9.40323E-05-2.13565E-05-3.11475E-05 3.31323E-06 9.98994E-19-1.21767E-18
 -1       852 9.55118E-05-2.58888E-05-2.98378E-05 1.83955E-06 1.03706E-18-5.46223E-19
 -1       853 9.35315E-05-2.03693E-05-3.13564E-05 2.36800E-06 8.59248E-19-1.45719E-18
 -1       854 6.22694E-05-1.91965E-05-1.82734E-05 1.74219E-05-1.91449E-18 1.56556E-19
 -1       855 7.26628E-05-2.82489E-05-1.88331E-05-2.74079E-05-5.83123E-19-2.27900E-18
 -1       856 9.43512E-05-2.20140E-05-3.10021E-05-2.66851E-06-5.79670E-19-1.15524E-18
 -1       857 9.63745E-05-2.79178E-05-2.93388E-05 2.89771E-07-6.54687E-19-7.73094E-19
 -1       858 9.63936E-05-2.85002E-05-2.90972E-05 6.41856E-07-6.40481E-19-5.83168E-19
 -1       859 9.63261E-05-2.88400E-05-2.89226E-05 8.24448E-07-4.20008E-19-9.40305E-19
 -1       860 9.62113E-05-2.90088E-05-2.88011E-05 8.94793E-07-1.33006E-19-1.33935E-18
 -1       861 9.60729E-05-2.90572E-05-2.87210E-05 8.98501E-07-3.91193E-19-1.06362E-18
 -1       862 9.59245E-05-2.90202E-05-2.86733E-05 8.70858E-07-4.38835E-19-6.06771E-19
 -1       863 9.57722E-05-2.89207E-05-2.86506E-05 8.38803E-07-4.60812E-19-3.40352E-19
 -1       864 9.56167E-05-2.87726E-05-2.86475E-05 8.23080E-07-4.38592E-19-2.52213E-19
 -1       865 9.54549E-05-2.85826E-05-2.86596E-05 8.40165E-07-1.28061E-20-8.97022E-20
 -1       866 9.52799E-05-2.83518E-05-2.86835E-05 9.03879E-07-4.57042E-19 4.11875E-19
 -1       867 9.50822E-05-2.80777E-05-2.87162E-05 1.02654E-06-1.34446E-19 5.98525E-19
 -1       868 9.48498E-05-2.77549E-05-2.87550E-05 1.21977E-06-7.21138E-19 3.02695E-19
 -1       869 9.45678E-05-2.73764E-05-2.87963E-05 1.49487E-06 3.65095E-20 9.41294E-19
 -1       870 9.42195E-05-2.69357E-05-2.88359E-05 1.86300E-06-7.25315E-19 1.04025E-18
 -1       871 9.37858E-05-2.64284E-05-2.88675E-05 2.33505E-06-1.48813E-20 9.63215E-19
 -1       872 9.32469E-05-2.58552E-05-2.88822E-05 2.92162E-06-8.77235E-20 1.54398E-18
 -1       873 9.25841E-05-2.52265E-05-2.88675E-05 3.63356E-06 2.60158E-19 1.85453E-18
 -1       874 9.17829E-05-2.45686E-05-2.88061E-05 4.48386E-06 3.72601E-19 1.58556E-18
 -1       875 9.08402E-05-2.39328E-05-2.86745E-05 5.49243E-06 4.21928E-19 1.61907E-18
 -1       876 8.97750E-05-2.34098E-05-2.84422E-05 6.69567E-06 7.68778E-19 1.02948E-18
 -1       877 8.86484E-05-2.31489E-05-2.80712E-05 8.16287E-06 1.15477E-18 9.10089E-19
 -1       878 8.75984E-05-2.33893E-05-2.75184E-05 1.00199E-05 6.52351E-20 7.97287E-19
 -1       879 8.69005E-05-2.45051E-05-2.67406E-05 1.24718E-05 2.12738E-19 9.97506E-19
 -1       880 8.70953E-05-2.71117E-05-2.57051E-05 1.58347E-05-7.27040E-19 8.21916E-19
 -1       881 8.94342E-05-3.21427E-05-2.45013E-05 2.03695E-05-8.18922E-19 1.02369E-18
 -1       882 8.84036E-05-2.59099E-05-2.67811E-05-1.69804E-05-2.05861E-18 4.63762E-19
 -1       883 9.52448E-05-3.73568E-05-2.47342E-05-2.45622E-05 1.38564E-18 3.76355E-18
 -1       884 9.02231E-05-3.04725E-05-2.56115E-05-2.06992E-05-3.29208E-19 1.78759E-18
 -1       885 8.35809E-05-3.26472E-05-2.16731E-05-2.79055E-05-6.62266E-19 2.68971E-18
 -1       886 9.55635E-05-2.87790E-05-2.86219E-05-8.76456E-07 2.70104E-19-4.93449E-19
 -1       887 9.56847E-05-2.89003E-05-2.86219E-05-9.03532E-07 5.75657E-19-3.19323E-19
 -1       888 9.53118E-05-2.84313E-05-2.86631E-05-9.34962E-07-6.53295E-20-4.08863E-19
 -1       889 9.51711E-05-2.82078E-05-2.86985E-05-1.04852E-06-2.39650E-19-2.66886E-19
 -1       890 9.50115E-05-2.79498E-05-2.87407E-05-1.23503E-06-3.00010E-20-9.18554E-19
 -1       891 9.48258E-05-2.76559E-05-2.87871E-05-1.50650E-06-5.79985E-19-8.92585E-19
 -1       892 9.46073E-05-2.73271E-05-2.88344E-05-1.87479E-06-3.14584E-19-2.97249E-19
 -1       893 9.43516E-05-2.69693E-05-2.88781E-05-2.35133E-06-2.98027E-19 2.54024E-19
 -1       894 9.40589E-05-2.65973E-05-2.89120E-05-2.94663E-06 4.69365E-19 7.76306E-19
 -1       895 9.37384E-05-2.62400E-05-2.89278E-05-3.66962E-06 7.78754E-19 7.02255E-19
 -1       896 9.34145E-05-2.59470E-05-2.89146E-05-4.52709E-06 6.48804E-19 7.50615E-19
 -1       897 9.31367E-05-2.57987E-05-2.88590E-05-5.52318E-06 5.06581E-20 5.22565E-19
 -1       898 9.29943E-05-2.59175E-05-2.87470E-05-6.65863E-06-8.56173E-19 2.96713E-19
 -1       899 9.31378E-05-2.64823E-05-2.85664E-05-7.92753E-06-7.48120E-19 6.93782E-19
 -1       900 9.38093E-05-2.77419E-05-2.83142E-05-9.30498E-06-1.07480E-18 1.57123E-18
 -1       901 9.53774E-05-3.00171E-05-2.80112E-05-1.07109E-05-8.51357E-19-1.22039E-19
 -1       902 9.83669E-05-3.36657E-05-2.77289E-05-1.19178E-05 1.58451E-19 3.64770E-19
 -1       903 1.03385E-04-3.89060E-05-2.76241E-05-1.24318E-05-3.75755E-19-5.43173E-19
 -1       904 1.11134E-04-4.54923E-05-2.81349E-05-1.10287E-05-3.36878E-19 6.23709E-19
 -1       905 1.03736E-04-3.85074E-05-2.79515E-05 1.52943E-05-1.14682E-18-2.48986E-19
 -1       906 9.91216E-05-3.29914E-05-2.83420E-05 1.45409E-05-4.25018E-19 1.57843E-18
 -1       907 9.32067E-05-1.97679E-05-3.14748E-05-1.19430E-06 5.92667E-20-1.65813E-18
 -1       908 5.95014E-05-1.62653E-05-1.83283E-05-1.25612E-05-1.12128E-18-5.02193E-18
 -1       909 1.10922E-04-4.53119E-05-2.81058E-05 1.42508E-05-8.55803E-19-2.58537E-18
 -1       910 1.18812E-04-5.11376E-05-2.89856E-05 1.12261E-05-9.08832E-19-3.99048E-18
 -1       911 8.03151E-05-2.06955E-05-2.55450E-05-1.30342E-05-2.55640E-18-8.81870E-19
 -1       912 9.60640E-05-2.69545E-05-2.96182E-05 4.02777E-07 9.02890E-19-1.00345E-18
 -1       913 9.54406E-05-2.86217E-05-2.86367E-05-8.81995E-07-2.55459E-20-4.81570E-19
 -1       914 7.38312E-05-2.40582E-05-2.12125E-05 2.02114E-05-8.85809E-19 1.69596E-18
 -1       915 9.60442E-05-2.89377E-05-2.87599E-05-9.74308E-07 3.48054E-19-4.97965E-19
 -1       916 9.63028E-05-2.86910E-05-2.89740E-05 1.30450E-05 8.80901E-19 5.92398E-19
 -1       917 8.92791E-05-3.81557E-05-2.17772E-05 2.96885E-05 1.52859E-18-2.11777E-18
 -1       918 9.62059E-05-2.69860E-05-2.96660E-05-2.99612E-07-3.77660E-19-1.20727E-18
 -1       919 7.59530E-05-2.64616E-05-2.11000E-05 2.34061E-05-9.48141E-19 6.50151E-19
 -1       920 9.12210E-05-3.69824E-05-2.31598E-05-2.41564E-05 4.32032E-19 1.98438E-18
 -1       921 9.61443E-05-2.87642E-05-2.88772E-05-8.91988E-07 2.24014E-19-7.49700E-19
 -1       922 9.54166E-05-2.44184E-05-3.04278E-05-1.57961E-06-2.78827E-19-1.25101E-18
 -1       923 7.45040E-05-1.70022E-05-2.46328E-05 3.26728E-07 6.75097E-19-5.07624E-20
 -1       924 9.58065E-05-2.89778E-05-2.86409E-05-9.45273E-07 3.77980E-19-5.82758E-19
 -1       925 9.46942E-05-2.26040E-05-3.08956E-05-1.19655E-06-3.00501E-19-1.05834E-18
 -1       926 9.50856E-05-2.34990E-05-3.06796E-05-1.47341E-06-3.95456E-19-1.32015E-18
 -1       927 9.52446E-05-2.42180E-05-3.04381E-05 2.28408E-06 1.01744E-18-1.02815E-18
 -1       928 9.24494E-05-2.93313E-05-2.70556E-05 1.68875E-05-1.18020E-18-6.14463E-18
 -1       929 9.62002E-05-2.78581E-05-2.92895E-05-2.74513E-07 6.10373E-19-6.72023E-19
 -1       930 7.77774E-05-1.94498E-05-2.49988E-05 9.57117E-06 9.37726E-19-1.36716E-18
 -1       931 8.46815E-05-2.42110E-05-2.58933E-05 1.52283E-05-2.47393E-20-2.81895E-19
 -1       932 9.47026E-05-2.26162E-05-3.08941E-05 1.22478E-06 5.02036E-19-1.32858E-18
 -1       933 9.45576E-05-2.22765E-05-3.09777E-05 4.30921E-07 3.07320E-19-1.51296E-18
 -1       934 5.82645E-05-1.38238E-05-1.89055E-05 1.91814E-06-2.41491E-19 2.08264E-19
 -1       935 9.54517E-05-2.50927E-05-3.01545E-05 2.11653E-06 9.38890E-19-9.50261E-19
 -1       936 6.44350E-05-1.56220E-05-2.08266E-05 2.14264E-06 3.20168E-19-1.12083E-18
 -1       937 9.59280E-05-2.89977E-05-2.86844E-05-9.78852E-07 3.89855E-19-4.75240E-19
 -1       938 9.57067E-05-2.55726E-05-3.00583E-05 1.43464E-06 8.81047E-19-1.26304E-18
 -1       939 6.83535E-05-2.17763E-05-1.98686E-05-1.97308E-05-5.55635E-19-1.67840E-18
 -1       940 9.59329E-05-2.58868E-05-3.00199E-05-9.01457E-07-1.27680E-19-1.37395E-18
 -1       941 9.66946E-05-2.86885E-05-2.91455E-05 5.37381E-07-5.74387E-19-6.32184E-19
 -1       942 9.66054E-05-2.89990E-05-2.89742E-05 6.49327E-07-4.89037E-19-4.67439E-19
 -1       943 9.64553E-05-2.91332E-05-2.88523E-05 6.89027E-07-3.09331E-19-5.95850E-19
 -1       944 9.62722E-05-2.91417E-05-2.87702E-05 6.88056E-07-8.89231E-21-2.16974E-19
 -1       945 9.60714E-05-2.90593E-05-2.87195E-05 6.70965E-07-1.95017E-19-7.49794E-20
 -1       946 9.58596E-05-2.89085E-05-2.86933E-05 6.56963E-07-4.85559E-19 1.04818E-19
 -1       947 9.56365E-05-2.87020E-05-2.86862E-05 6.61025E-07-2.21681E-19 9.72947E-19
 -1       948 9.53964E-05-2.84448E-05-2.86935E-05 6.95245E-07-2.58959E-19 6.93160E-19
 -1       949 9.51290E-05-2.81365E-05-2.87111E-05 7.69868E-07-5.24679E-19 6.74060E-19
 -1       950 9.48204E-05-2.77723E-05-2.87349E-05 8.93966E-07-5.80288E-19 5.30654E-19
 -1       951 9.44528E-05-2.73450E-05-2.87605E-05 1.07591E-06 2.10374E-19 9.72854E-19
 -1       952 9.40055E-05-2.68462E-05-2.87826E-05 1.32353E-06 9.55363E-20 1.22350E-18
 -1       953 9.34545E-05-2.62687E-05-2.87940E-05 1.64410E-06 5.02524E-20 2.28534E-18
 -1       954 9.27734E-05-2.56083E-05-2.87851E-05 2.04440E-06 3.09710E-19 2.44626E-18
 -1       955 9.19333E-05-2.48668E-05-2.87429E-05 2.53125E-06 5.26864E-19 2.33893E-18
 -1       956 9.09043E-05-2.40559E-05-2.86495E-05 3.11327E-06-2.76628E-20 2.41582E-18
 -1       957 8.96558E-05-2.32016E-05-2.84807E-05 3.80519E-06 3.36522E-19 2.18742E-18
 -1       958 8.81581E-05-2.23498E-05-2.82040E-05 4.63687E-06 4.50641E-19 1.12780E-18
 -1       959 8.63838E-05-2.15738E-05-2.77764E-05 5.67025E-06 3.33497E-19 1.15955E-18
 -1       960 8.43110E-05-2.09851E-05-2.71408E-05 7.02827E-06 6.08566E-19 1.35407E-19
 -1       961 8.19295E-05-2.07520E-05-2.62209E-05 8.94477E-06 5.75122E-19 3.86400E-19
 -1       962 7.92590E-05-2.11576E-05-2.48976E-05 1.18321E-05-1.51616E-19 4.61097E-19
 -1       963 7.65444E-05-2.20543E-05-2.33243E-05 1.53007E-05-9.36751E-19 1.14452E-18
 -1       964 9.58274E-05-2.89183E-05-2.86753E-05-7.44944E-07 4.64669E-19-4.95321E-19
 -1       965 9.65017E-05-2.72362E-05-2.96856E-05-6.77515E-08-2.30706E-19-1.23834E-18
 -1       966 9.62079E-05-2.84279E-05-2.90486E-05-6.80421E-07 8.22552E-21-4.03217E-19
 -1       967 9.49589E-05-2.79362E-05-2.87241E-05-9.76060E-07 1.35264E-19 5.19528E-19
 -1       968 9.52092E-05-2.82481E-05-2.86976E-05-8.45353E-07-1.67064E-19 7.39466E-19
 -1       969 9.43255E-05-2.71668E-05-2.87823E-05-1.45130E-06-1.23391E-19-4.78852E-19
 -1       970 9.39174E-05-2.67082E-05-2.88040E-05-1.81928E-06-5.23360E-19-6.00474E-19
 -1       971 9.34343E-05-2.62081E-05-2.88113E-05-2.29125E-06-4.30661E-19-7.95187E-19
 -1       972 9.28715E-05-2.56846E-05-2.87944E-05-2.88192E-06-1.47141E-19-2.66431E-19
 -1       973 9.22339E-05-2.51722E-05-2.87408E-05-3.60897E-06 1.06700E-19 6.96568E-19
 -1       974 9.15421E-05-2.47286E-05-2.86344E-05-4.49552E-06 6.71215E-19 1.08002E-18
 -1       975 9.08426E-05-2.44443E-05-2.84565E-05-5.57445E-06 4.49609E-20 4.49926E-19
 -1       976 9.02227E-05-2.44553E-05-2.81861E-05-6.89465E-06-1.09897E-18 3.30037E-20
 -1       977 8.98359E-05-2.49607E-05-2.78037E-05-8.52759E-06-1.00165E-18-5.51865E-20
 -1       978 8.99453E-05-2.62501E-05-2.72980E-05-1.05639E-05-5.08245E-19 2.41817E-19
 -1       979 9.09867E-05-2.87281E-05-2.66820E-05-1.30810E-05-4.88569E-19 1.20352E-19
 -1       980 9.37288E-05-3.29715E-05-2.60453E-05-1.59951E-05 8.81650E-20 7.20350E-19
 -1       981 9.53465E-05-3.53601E-05-2.56813E-05 2.13375E-05-1.25697E-18-5.03679E-18
 -1       982 9.46686E-05-2.75765E-05-2.87538E-05-1.17424E-06 7.97645E-20 2.32208E-19
 -1       983 7.79380E-05-2.29711E-05-2.35045E-05-1.81163E-05-3.32435E-18-1.47551E-18
 -1       984 9.45547E-05-2.22708E-05-3.09789E-05-4.05272E-07 1.79793E-19-1.51409E-18
 -1       985 9.95267E-05-3.91598E-05-2.58357E-05-1.79916E-05-3.86525E-20 7.87081E-19
 -1       986 1.01072E-04-4.25123E-05-2.50485E-05 2.40875E-05 9.67623E-19-2.83363E-18
 -1       987 9.59675E-05-2.57915E-05-3.00748E-05 8.42969E-07 6.06826E-19-7.78864E-19
 -1       988 9.49720E-05-2.32912E-05-3.07200E-05 1.88525E-06 8.50293E-19-1.00558E-18
 -1       989 9.66809E-05-2.81329E-05-2.93778E-05 3.13969E-07-2.57166E-19-9.91423E-19
 -1       990 9.60137E-05-2.90463E-05-2.87003E-05-7.66762E-07 4.50921E-19-9.52429E-19
 -1       991 9.62178E-05-2.62207E-05-2.99992E-05-4.52120E-07-9.82989E-20-1.39408E-18
 -1       992 8.38407E-05-2.99659E-05-2.30556E-05-2.11892E-05-6.14366E-19-6.20061E-19
 -1       993 9.64896E-05-2.89330E-05-2.89528E-05-7.38039E-07 3.16677E-19-5.00549E-19
 -1       994 6.99840E-05-1.76782E-05-2.23574E-05-9.53167E-06-1.62247E-18-1.89287E-18
 -1       995 9.56221E-05-2.44852E-05-3.04872E-05-4.77860E-07-1.42119E-19-9.04653E-19
 -1       996 9.56348E-05-2.87392E-05-2.86695E-05-7.41700E-07 1.40123E-19 3.05887E-19
 -1       997 6.66175E-05-1.64646E-05-2.14257E-05 8.76327E-06-5.12934E-19-9.44467E-19
 -1       998 9.58420E-05-2.50977E-05-3.03175E-05-6.47964E-07-2.20064E-19-1.02192E-18
 -1       999 9.54311E-05-2.85153E-05-2.86782E-05-7.71015E-07-7.23427E-20 8.14098E-19
 -1      1000 9.63752E-05-2.71395E-05-2.96724E-05 1.38435E-07 4.50745E-19-3.51176E-19
 -1      1001 9.63556E-05-2.90827E-05-2.88313E-05-7.89394E-07 3.87086E-19-7.31614E-19
 -1      1002 9.57044E-05-2.48725E-05-3.03561E-05 8.99333E-07 4.92257E-19-1.03112E-18
 -1      1003 6.33946E-05-1.58397E-05-2.02884E-05-8.84936E-06-5.07773E-20-9.38728E-19
 -1      1004 9.56318E-05-2.44943E-05-3.04865E-05 5.05778E-07 4.02337E-19-1.25536E-18
 -1      1005 7.30342E-05-2.00877E-05-2.26115E-05 1.36036E-05-2.68222E-19-8.65581E-19
 -1      1006 8.72819E-05-3.19164E-05-2.36811E-05 2.33440E-05-5.74280E-19-7.64335E-19
 -1      1007 9.68742E-05-2.88762E-05-2.91421E-05 3.75134E-07-3.76566E-19-8.48490E-19
 -1      1008 9.67500E-05-2.91271E-05-2.89812E-05 4.28519E-07-2.30592E-19-2.47251E-19
 -1      1009 9.65637E-05-2.92087E-05-2.88664E-05 4.44882E-07-1.32307E-20 2.72460E-20
 -1      1010 9.63423E-05-2.91686E-05-2.87887E-05 4.41588E-07-1.80022E-19-2.84585E-19
 -1      1011 9.60989E-05-2.90376E-05-2.87406E-05 4.33505E-07-1.69859E-20 1.51661E-19
 -1      1012 9.58390E-05-2.88362E-05-2.87155E-05 4.31635E-07-3.39826E-19 3.36818E-20
 -1      1013 9.55595E-05-2.85744E-05-2.87079E-05 4.44778E-07 1.78487E-19-2.07073E-19
 -1      1014 9.52519E-05-2.82553E-05-2.87129E-05 4.80147E-07-2.59495E-19 2.17164E-19
 -1      1015 9.49026E-05-2.78763E-05-2.87256E-05 5.43566E-07-5.32188E-19 1.07524E-18
 -1      1016 9.44934E-05-2.74310E-05-2.87411E-05 6.40014E-07-1.33210E-19 1.61192E-18
 -1      1017 9.40022E-05-2.69111E-05-2.87535E-05 7.73634E-07 2.87366E-20 1.32581E-18
 -1      1018 9.34036E-05-2.63078E-05-2.87556E-05 9.47617E-07 2.32753E-19 1.15261E-18
 -1      1019 9.26685E-05-2.56146E-05-2.87376E-05 1.16404E-06 6.64959E-19 8.00412E-19
 -1      1020 9.17644E-05-2.48287E-05-2.86871E-05 1.42388E-06 4.45570E-19 9.19740E-19
 -1      1021 9.06550E-05-2.39535E-05-2.85869E-05 1.72755E-06 3.35620E-19 1.47906E-18
 -1      1022 8.92984E-05-2.30008E-05-2.84139E-05 2.07683E-06 2.71529E-19 1.16346E-18
 -1      1023 8.76432E-05-2.19918E-05-2.81372E-05 2.47930E-06-6.75509E-19 1.17898E-18
 -1      1024 8.56203E-05-2.09556E-05-2.77148E-05 2.95738E-06-4.54693E-19-2.79483E-19
 -1      1025 8.31264E-05-1.99260E-05-2.70880E-05 3.56575E-06 2.27579E-19-9.75482E-19
 -1      1026 7.99987E-05-1.89371E-05-2.61723E-05 4.42321E-06 7.78927E-19-9.84930E-20
 -1      1027 7.59777E-05-1.80198E-05-2.48300E-05 5.73665E-06 6.44931E-19-6.74766E-20
 -1      1028 9.68924E-05-2.83879E-05-2.93590E-05 2.61627E-07-1.98200E-19-1.02249E-18
 -1      1029 9.65504E-05-2.80425E-05-2.93605E-05-3.22239E-07 3.56917E-19-4.56537E-19
 -1      1030 9.50136E-05-2.80054E-05-2.87179E-05-6.68943E-07 4.08938E-21 5.68304E-19
 -1      1031 9.55931E-05-2.43553E-05-3.05296E-05 1.56333E-08 3.21830E-19-1.50814E-18
 -1      1032 9.59072E-05-2.54498E-05-3.01952E-05-7.72910E-07-6.04352E-20-1.30003E-18
 -1      1033 9.65691E-05-2.86106E-05-2.91251E-05-5.97732E-07 3.22302E-19-7.94636E-19
 -1      1034 7.96818E-05-2.38576E-05-2.39099E-05 1.71218E-05 6.41404E-20 1.08859E-18
 -1      1035 9.31385E-05-2.60418E-05-2.87559E-05-1.54083E-06 3.30785E-20-6.31320E-19
 -1      1036 9.37385E-05-2.66272E-05-2.87621E-05-1.21742E-06 1.57318E-19 3.09320E-19
 -1      1037 9.15776E-05-2.47244E-05-2.86516E-05-2.48645E-06-3.02535E-19-1.19867E-18
 -1      1038 9.05980E-05-2.40461E-05-2.85225E-05-3.15582E-06-6.81083E-19-6.89447E-19
 -1      1039 8.94881E-05-2.34225E-05-2.83142E-05-4.00637E-06-5.00141E-19 1.22457E-18
 -1      1040 8.82686E-05-2.29374E-05-2.79995E-05-5.10166E-06-1.00459E-19 1.63540E-18
 -1      1041 8.69843E-05-2.27122E-05-2.75460E-05-6.54244E-06-9.99124E-19 9.77151E-20
 -1      1042 8.57210E-05-2.29219E-05-2.69154E-05-8.49075E-06-1.49765E-18 1.33774E-19
 -1      1043 8.46699E-05-2.38534E-05-2.60661E-05-1.11934E-05-4.37338E-19 3.55752E-19
 -1      1044 8.42023E-05-2.59233E-05-2.49710E-05-1.49454E-05-6.85892E-19 4.72177E-19
 -1      1045 9.46580E-05-2.76077E-05-2.87359E-05-7.92745E-07 5.75545E-19 8.80025E-19
 -1      1046 6.62976E-05-1.53149E-05-2.18155E-05-4.10330E-07 5.14697E-20-6.54402E-19
 -1      1047 9.53225E-05-2.83469E-05-2.87038E-05-5.91359E-07-7.32551E-20 2.64722E-19
 -1      1048 9.61918E-05-2.91085E-05-2.87500E-05-7.88924E-07 4.14681E-19-5.41352E-19
 -1      1049 9.67482E-05-2.75826E-05-2.96421E-05 6.01155E-08-2.38021E-19-7.70736E-19
 -1      1050 9.42389E-05-2.71494E-05-2.87528E-05-9.72109E-07 4.93100E-19 4.87224E-19
 -1      1051 9.24225E-05-2.54012E-05-2.87236E-05-1.95729E-06-4.41820E-19-1.06440E-18
 -1      1052 9.63588E-05-2.65570E-05-2.99158E-05 3.10043E-07 2.76517E-19-7.95315E-19
 -1      1053 9.60925E-05-2.90508E-05-2.87322E-05-5.45418E-07 3.15418E-19-5.09067E-20
 -1      1054 7.18593E-05-1.72315E-05-2.33872E-05 6.98335E-06 4.65446E-19-7.22530E-19
 -1      1055 7.50061E-05-2.16063E-05-2.28486E-05-1.47802E-05 2.99683E-19-2.25372E-18
 -1      1056 9.68042E-05-2.88011E-05-2.91442E-05-4.59329E-07 2.48632E-19-6.92875E-19
 -1      1057 9.62981E-05-2.60068E-05-3.01254E-05-1.08039E-07-1.71316E-21-8.48219E-19
 -1      1058 9.58534E-05-2.88719E-05-2.87063E-05-5.39235E-07-2.26227E-19 3.65941E-19
 -1      1059 9.64139E-05-2.64116E-05-3.00011E-05-1.84123E-07 6.71609E-20-7.65867E-19
 -1      1060 9.55988E-05-2.86356E-05-2.86985E-05-5.51117E-07-5.51450E-19 3.62969E-19
 -1      1061 9.66947E-05-2.90747E-05-2.89799E-05-5.35193E-07 3.35333E-19-5.27303E-19
 -1      1062 9.70102E-05-2.86520E-05-2.92969E-05 1.22185E-07-8.86624E-20-9.06189E-19
 -1      1063 9.64529E-05-2.64382E-05-3.00064E-05 1.49687E-07 3.00389E-19-1.40750E-18
 -1      1064 9.67712E-05-2.92096E-05-2.89549E-05 1.72795E-07-6.48275E-20-9.19415E-19
 -1      1065 9.65533E-05-2.92321E-05-2.88519E-05 1.74753E-07-1.52731E-19-5.67132E-19
 -1      1066 9.63045E-05-2.91415E-05-2.87842E-05 1.70965E-07 2.93808E-20-4.00612E-19
 -1      1067 9.60324E-05-2.89634E-05-2.87437E-05 1.70392E-07-4.13871E-20-3.72649E-19
 -1      1068 9.57369E-05-2.87163E-05-2.87230E-05 1.73302E-07 2.66639E-21 2.70375E-20
 -1      1069 9.54151E-05-2.84072E-05-2.87175E-05 1.82754E-07 3.77685E-19-2.84670E-19
 -1      1070 9.50548E-05-2.80364E-05-2.87221E-05 2.00910E-07 5.21989E-20-1.84202E-19
 -1      1071 9.46394E-05-2.75993E-05-2.87313E-05 2.29120E-07-1.50412E-19 3.22662E-19
 -1      1072 9.41477E-05-2.70887E-05-2.87394E-05 2.67801E-07-2.12584E-19 5.37422E-19
 -1      1073 9.35550E-05-2.64962E-05-2.87393E-05 3.16216E-07-9.55627E-20 4.27208E-19
 -1      1074 9.28330E-05-2.58145E-05-2.87220E-05 3.72081E-07-3.77984E-19 1.22191E-19
 -1      1075 9.19501E-05-2.50393E-05-2.86758E-05 4.31061E-07 3.74058E-19-5.45250E-19
 -1      1076 9.08707E-05-2.41711E-05-2.85853E-05 4.86248E-07 6.17114E-19-3.26259E-19
 -1      1077 8.95538E-05-2.32171E-05-2.84297E-05 5.27770E-07-3.12025E-19-1.55615E-19
 -1      1078 8.79486E-05-2.21907E-05-2.81817E-05 5.42739E-07-3.59430E-19-1.31338E-18
 -1      1079 8.59858E-05-2.11095E-05-2.78039E-05 5.15641E-07-9.46311E-19-6.86577E-19
 -1      1080 8.35596E-05-1.99880E-05-2.72450E-05 4.28768E-07-6.62355E-19-3.14083E-19
 -1      1081 8.04934E-05-1.88228E-05-2.64307E-05 2.60601E-07 6.13221E-19-1.17313E-18
 -1      1082 7.64761E-05-1.75759E-05-2.52440E-05-2.69352E-08 4.47426E-19-1.67015E-18
 -1      1083 9.43063E-05-2.72505E-05-2.87383E-05-4.90034E-07 5.53742E-19-6.33623E-19
 -1      1084 9.13889E-05-2.46006E-05-2.86238E-05-1.31657E-06 2.40353E-19 6.74185E-19
 -1      1085 9.68070E-05-2.82827E-05-2.93676E-05-3.02695E-07 3.79976E-19-5.69613E-19
 -1      1086 9.67270E-05-2.72856E-05-2.97604E-05-8.38203E-10-6.02357E-20-1.13277E-18
 -1      1087 8.73388E-05-2.20853E-05-2.79663E-05-2.95319E-06-1.00158E-18-3.21751E-19
 -1      1088 9.31182E-05-2.60767E-05-2.87322E-05-7.85746E-07 6.31168E-20 9.57455E-19
 -1      1089 8.89180E-05-2.29206E-05-2.82850E-05-2.24344E-06-1.58006E-18-4.20459E-19
 -1      1090 9.02588E-05-2.37732E-05-2.84941E-05-1.71506E-06-4.10589E-19-1.43739E-19
 -1      1091 8.54872E-05-2.13252E-05-2.74988E-05-3.92503E-06 1.09998E-19-8.03429E-20
 -1      1092 8.33143E-05-2.07130E-05-2.68302E-05-5.28662E-06-4.56815E-19-1.21298E-20
 -1      1093 8.07362E-05-2.03289E-05-2.58889E-05-7.23720E-06-6.05334E-19-9.15703E-19
 -1      1094 7.75983E-05-2.02574E-05-2.45639E-05-1.02267E-05-1.08092E-19-1.32128E-18
 -1      1095 9.47579E-05-2.77261E-05-2.87279E-05-4.02429E-07 2.59010E-19-5.13085E-19
 -1      1096 9.23336E-05-2.53739E-05-2.86972E-05-1.01436E-06 9.69308E-20 1.05745E-18
 -1      1097 7.15847E-05-1.64374E-05-2.36158E-05 8.36887E-08 4.44235E-20-1.47485E-18
 -1      1098 9.51435E-05-2.81350E-05-2.87180E-05-3.44883E-07-1.37858E-19-5.68617E-19
 -1      1099 9.54815E-05-2.84825E-05-2.87139E-05-3.11268E-07-1.67540E-19-5.89928E-19
 -1      1100 9.66663E-05-2.75727E-05-2.96122E-05-7.00300E-08 4.27990E-19-7.12977E-19
 -1      1101 7.05934E-05-1.72312E-05-2.28932E-05-7.09276E-06 3.35172E-19-1.31346E-18
 -1      1102 9.37675E-05-2.67022E-05-2.87424E-05-6.14845E-07 3.44133E-21 1.42834E-19
 -1      1103 9.63208E-05-2.91634E-05-2.87822E-05-5.59585E-07 4.44671E-19-1.90905E-19
 -1      1104 9.69401E-05-2.80974E-05-2.95036E-05 8.77659E-08-4.14840E-19-8.98183E-19
 -1      1105 9.69349E-05-2.90330E-05-2.91007E-05 1.58447E-07 4.83232E-20-8.57517E-19
 -1      1106 9.57865E-05-2.87715E-05-2.87208E-05-2.95826E-07-3.43209E-19-3.65095E-19
 -1      1107 9.67887E-05-2.73631E-05-2.97548E-05-3.78859E-09-7.08478E-20-1.14305E-18
 -1      1108 9.60685E-05-2.90022E-05-2.87430E-05-2.92562E-07 2.92404E-19-2.71060E-19
 -1      1109 9.69655E-05-2.85424E-05-2.93247E-05-1.96848E-07 1.75361E-19-5.12286E-19
 -1      1110 9.65271E-05-2.91805E-05-2.88628E-05-5.61018E-07 3.43349E-19-5.36275E-19
 -1      1111 9.69276E-05-2.89764E-05-2.91218E-05-2.63684E-07 1.61288E-19-5.75549E-19
 -1      1112 9.63240E-05-2.91549E-05-2.87862E-05-2.94842E-07 1.61049E-19-3.90982E-19
 -1      1113 9.64375E-05-2.91991E-05-2.88158E-05-1.04697E-07-8.98033E-20-1.24998E-19
 -1      1114 9.68679E-05-2.78542E-05-2.95764E-05-8.75210E-08 2.59144E-19-9.88698E-19
 -1      1115 9.66850E-05-2.92463E-05-2.89026E-05-1.08257E-07 1.78268E-19-2.20364E-19
 -1      1116 9.68363E-05-2.91698E-05-2.90001E-05-1.99580E-07 3.83637E-19-4.51220E-19
 -1      1117 9.69392E-05-2.79857E-05-2.95504E-05-9.88000E-09-7.60425E-20-1.05024E-18
 -1      1118 1.16852E-04 2.57554E-10-4.18536E-05-4.14673E-05-2.34628E-19 6.52385E-18
 -1      1119 8.86454E-05 7.19060E-11-3.72492E-05-2.41720E-05-1.18267E-19 5.31937E-19
 -1      1120 8.40743E-05 4.14483E-11-3.57653E-05-1.78837E-05-8.19504E-20-1.90884E-18
 -1      1121 8.23322E-05 3.20292E-11-3.50720E-05-1.38414E-05-4.58986E-20-3.04933E-18
 -1      1122 8.15312E-05 2.73304E-11-3.47384E-05-1.05389E-05-3.34313E-20-3.54835E-18
 -1      1123 8.11316E-05 2.46192E-11-3.45740E-05-7.64552E-06-1.10247E-20-3.77720E-18
 -1      1124 8.09248E-05 2.29659E-11-3.44915E-05-4.98299E-06-5.56858E-21-3.72957E-18
 -1      1125 8.08240E-05 2.20713E-11-3.44528E-05-2.43364E-06 3.45927E-21-3.66331E-18
 -1      1126 8.07952E-05 2.18007E-11-3.44419E-05 5.26807E-08 1.21529E-20-3.59468E-18
 -1      1127 8.08281E-05 2.21147E-11-3.44542E-05 2.54147E-06 2.04711E-20-3.52239E-18
 -1      1128 8.09334E-05 2.30631E-11-3.44945E-05 5.09888E-06 2.47095E-20-3.35618E-18
 -1      1129 8.11475E-05 2.47766E-11-3.45784E-05 7.77717E-06 4.44229E-20-3.04415E-18
 -1      1130 8.15540E-05 2.76455E-11-3.47449E-05 1.06987E-05 5.29925E-20-2.50039E-18
 -1      1131 8.23562E-05 3.24994E-11-3.50819E-05 1.40484E-05 7.54653E-20-1.65944E-18
 -1      1132 8.40697E-05 4.19185E-11-3.57852E-05 1.81345E-05 8.97326E-20-5.29263E-20
 -1      1133 8.83433E-05 6.67317E-11-3.73195E-05 2.40143E-05 9.61382E-20 2.90085E-18
 -1      1134 1.06615E-04 1.63908E-10-4.06324E-05 3.61942E-05 1.93124E-19 8.70400E-18
 -1      1135 1.30218E-04-2.57552E-05-4.02721E-05-2.61069E-05-9.55347E-19 1.02821E-17
 -1      1136 9.74490E-05-2.88603E-05-3.15753E-05-6.80771E-07-3.07473E-19 8.01579E-18
 -1      1137 9.01481E-05-2.70231E-05-2.78896E-05 3.87052E-07-7.69741E-20 5.16792E-18
 -1      1138 8.82336E-05-2.65676E-05-2.66389E-05 2.50685E-07-7.58591E-20 3.27741E-18
 -1      1139 8.78696E-05-2.64393E-05-2.63810E-05 1.65538E-07-3.69088E-20 1.89802E-18
 -1      1140 8.82224E-05-2.65141E-05-2.64641E-05 1.17866E-07-9.66015E-20 1.07555E-18
 -1      1141 8.89024E-05-2.66966E-05-2.66648E-05 8.71992E-08-3.07037E-20 2.63043E-19
 -1      1142 8.97097E-05-2.69263E-05-2.69051E-05 6.58347E-08-9.27726E-20-5.84426E-19
 -1      1143 9.05342E-05-2.71665E-05-2.71509E-05 4.99862E-08-2.06110E-20-9.38731E-19
 -1      1144 9.13146E-05-2.73964E-05-2.73843E-05 3.77508E-08 3.22828E-20-1.96848E-18
 -1      1145 9.20188E-05-2.76054E-05-2.75956E-05 2.80974E-08 5.15212E-20-2.88068E-18
 -1      1146 9.26339E-05-2.77887E-05-2.77809E-05 2.04191E-08 8.52987E-20-2.51560E-18
 -1      1147 9.31596E-05-2.79461E-05-2.79398E-05 1.43185E-08-2.98067E-20-3.31837E-18
 -1      1148 9.36043E-05-2.80797E-05-2.80747E-05 9.51310E-09-4.70302E-20-3.35408E-18
 -1      1149 9.39825E-05-2.81937E-05-2.81900E-05 5.79824E-09-6.20811E-20-3.20608E-18
 -1      1150 9.43132E-05-2.82939E-05-2.82913E-05 3.03371E-09-8.45354E-20-3.85125E-18
 -1      1151 9.46197E-05-2.83870E-05-2.83855E-05 1.14300E-09-1.10418E-19-3.69563E-18
 -1      1152 9.49292E-05-2.84814E-05-2.84811E-05 1.19380E-10 1.17197E-19-3.82797E-18
 -1      1153 9.52736E-05-2.85865E-05-2.85875E-05 3.74797E-11 8.26571E-21-3.32950E-18
 -1      1154 9.56903E-05-2.87136E-05-2.87162E-05 1.07016E-09 6.74078E-20-3.50264E-18
 -1      1155 9.62236E-05-2.88760E-05-2.88807E-05 3.51121E-09-4.76042E-21-3.56140E-18
 -1      1156 9.69259E-05-2.90893E-05-2.90967E-05 7.80345E-09 7.99495E-20-4.03969E-18
 -1      1157 9.78586E-05-2.93720E-05-2.93828E-05 1.45684E-08-5.47585E-20-3.29001E-18
 -1      1158 9.90925E-05-2.97450E-05-2.97602E-05 2.46250E-08-7.69907E-20-4.95232E-18
 -1      1159 1.00706E-04-3.02313E-05-3.02519E-05 3.89633E-08-3.48880E-20-5.19242E-18
 -1      1160 1.02777E-04-3.08540E-05-3.08806E-05 5.85979E-08 2.56959E-19-3.88404E-18
 -1      1161 1.05374E-04-3.16322E-05-3.16638E-05 8.41435E-08 3.13305E-19-2.61697E-18
 -1      1162 1.08522E-04-3.25723E-05-3.26047E-05 1.14826E-07-6.89943E-20-2.37298E-18
 -1      1163 1.12160E-04-3.36538E-05-3.36766E-05 1.46503E-07-2.22863E-20-2.80903E-18
 -1      1164 1.16057E-04-3.48065E-05-3.47994E-05 1.68294E-07 1.35235E-19-2.29850E-18
 -1      1165 1.19712E-04-3.58792E-05-3.58111E-05 1.58304E-07-2.03536E-19-3.24157E-18
 -1      1166 1.22255E-04-3.66119E-05-3.64493E-05 8.18217E-08-2.75947E-21-6.20544E-18
 -1      1167 1.22448E-04-3.66402E-05-3.63730E-05-9.93917E-08 1.78142E-20-5.88603E-18
 -1      1168 1.18991E-04-3.55874E-05-3.52712E-05-3.93690E-07-1.47040E-20-7.30942E-18
 -1      1169 1.11281E-04-3.32959E-05-3.30741E-05-7.23793E-07 2.29248E-19-7.85147E-18
 -1      1170 1.00482E-04-3.01331E-05-3.01804E-05-8.99404E-07 3.45127E-19-6.84572E-18
 -1      1171 9.00067E-05-2.71034E-05-2.74867E-05-7.14068E-07 1.14548E-20-3.71223E-18
 -1      1172 8.42770E-05-2.54574E-05-2.60366E-05-1.58309E-07-1.45028E-19-3.35700E-18
 -1      1173 8.59470E-05-2.59270E-05-2.64250E-05 4.82656E-07 3.02172E-19-1.68136E-18
 -1      1174 9.39027E-05-2.82066E-05-2.84034E-05 8.47646E-07-1.24524E-19-1.96321E-18
 -1      1175 1.04109E-04-3.11683E-05-3.10425E-05 8.09191E-07-8.85646E-20-2.73750E-18
 -1      1176 1.12396E-04-3.36091E-05-3.33052E-05 5.12446E-07-2.73221E-19 7.33795E-19
 -1      1177 1.16550E-04-3.48585E-05-3.45463E-05 1.75975E-07-2.64850E-19 8.23554E-19
 -1      1178 1.16503E-04-3.48726E-05-3.46483E-05-7.07904E-08 7.09357E-20 1.73033E-18
 -1      1179 1.13389E-04-3.39737E-05-3.38560E-05-2.03975E-07 3.07460E-19 2.42945E-18
 -1      1180 1.08619E-04-3.25760E-05-3.25479E-05-2.50273E-07-9.77777E-20 4.48292E-19
 -1      1181 1.03434E-04-3.10476E-05-3.10930E-05-2.38414E-07-3.28722E-21-6.97743E-20
 -1      1182 9.88538E-05-2.96940E-05-2.98028E-05-1.70289E-07 4.22969E-19 1.58424E-18
 -1      1183 9.58482E-05-2.88403E-05-2.89073E-05-8.52388E-09-3.00717E-19 1.32826E-18
 -1      1184 9.49673E-05-2.84752E-05-2.84049E-05 1.00175E-07 4.53341E-19 1.00993E-18
 -1      1185 1.31052E-04-3.77378E-05-3.86576E-05 1.21748E-05-1.26976E-19 1.33984E-17
 -1      1186 9.65508E-05-2.81870E-05-3.13279E-05 8.01608E-07 8.34592E-20 1.09799E-17
 -1      1187 9.03619E-05-2.69257E-05-2.78705E-05 1.20236E-07 4.41648E-20 8.70219E-18
 -1      1188 8.83192E-05-2.64947E-05-2.66751E-05 9.06626E-09-1.03894E-21 7.07593E-18
 -1      1189 8.79098E-05-2.64018E-05-2.64080E-05-2.52106E-08 4.32781E-20 6.02865E-18
 -1      1190 8.82448E-05-2.64969E-05-2.64799E-05-3.42045E-08 2.27748E-20 4.80670E-18
 -1      1191 8.89158E-05-2.66899E-05-2.66750E-05-3.53200E-08 6.00115E-20 4.00639E-18
 -1      1192 8.97181E-05-2.69250E-05-2.69125E-05-3.35021E-08-4.38875E-20 3.96807E-18
 -1      1193 9.05398E-05-2.71681E-05-2.71565E-05-3.03072E-08-3.44893E-21 2.57434E-18
 -1      1194 9.13185E-05-2.73996E-05-2.73886E-05-2.64307E-08 5.76140E-20 1.89602E-18
 -1      1195 9.20220E-05-2.76093E-05-2.75991E-05-2.22753E-08 5.00481E-20 1.47308E-18
 -1      1196 9.26370E-05-2.77930E-05-2.77837E-05-1.80903E-08 4.18918E-20 2.24293E-18
 -1      1197 9.31630E-05-2.79504E-05-2.79422E-05-1.40206E-08 1.32179E-19 1.94531E-18
 -1      1198 9.36086E-05-2.80839E-05-2.80770E-05-1.01378E-08 2.05615E-20 1.67833E-18
 -1      1199 9.39881E-05-2.81979E-05-2.81924E-05-6.46374E-09 2.51977E-20 1.19793E-18
 -1      1200 9.43207E-05-2.82981E-05-2.82939E-05-2.99045E-09 8.41596E-20-3.90495E-20
 -1      1201 9.46293E-05-2.83913E-05-2.83886E-05 3.00182E-10-1.09965E-19 6.02837E-19
 -1      1202 9.49408E-05-2.84856E-05-2.84845E-05 3.41637E-09 3.74623E-20 5.46066E-19
 -1      1203 9.52858E-05-2.85902E-05-2.85910E-05 6.33291E-09-3.56618E-21-1.40060E-19
 -1      1204 9.56998E-05-2.87156E-05-2.87187E-05 8.96220E-09 3.51618E-20 5.23014E-20
 -1      1205 9.62230E-05-2.88740E-05-2.88798E-05 1.11166E-08-1.48703E-19-1.84730E-19
 -1      1206 9.69007E-05-2.90789E-05-2.90879E-05 1.24588E-08 1.47192E-19-7.83600E-19
 -1      1207 9.77826E-05-2.93448E-05-2.93577E-05 1.24386E-08-4.70194E-20-1.30736E-18
 -1      1208 9.89200E-05-2.96868E-05-2.97044E-05 1.02181E-08-1.28802E-19-1.98959E-18
 -1      1209 1.00361E-04-3.01188E-05-3.01415E-05 4.60422E-09 1.79337E-20-1.43169E-18
 -1      1210 1.02139E-04-3.06502E-05-3.06776E-05-5.96245E-09 3.53529E-20 9.09806E-19
 -1      1211 1.04257E-04-3.12809E-05-3.13111E-05-2.32467E-08-1.69059E-20 2.26160E-18
 -1      1212 1.06661E-04-3.19936E-05-3.20215E-05-4.86637E-08 1.53202E-19 6.74132E-19
 -1      1213 1.09201E-04-3.27425E-05-3.27582E-05-8.19880E-08-4.45438E-19 1.59617E-18
 -1      1214 1.11583E-04-3.34409E-05-3.34281E-05-1.18980E-07-1.09094E-19 2.41333E-18
 -1      1215 1.13336E-04-3.39505E-05-3.38870E-05-1.48063E-07 9.41762E-20 2.23226E-19
 -1      1216 1.13806E-04-3.40836E-05-3.39481E-05-1.47815E-07 1.56618E-19-2.19107E-18
 -1      1217 1.12273E-04-3.36333E-05-3.34218E-05-9.01810E-08-2.09459E-19-5.05758E-19
 -1      1218 1.08217E-04-3.24500E-05-3.21986E-05 4.39753E-08 6.34249E-20 1.17499E-18
 -1      1219 1.01758E-04-3.05619E-05-3.03597E-05 2.38338E-07 2.17830E-20 1.88200E-18
 -1      1220 9.40417E-05-2.82865E-05-2.82541E-05 4.20793E-07-1.07658E-19 1.06218E-18
 -1      1221 8.72088E-05-2.62350E-05-2.64496E-05 4.84606E-07 3.56763E-19-1.21470E-18
 -1      1222 8.36058E-05-2.51090E-05-2.55213E-05 3.63269E-07 1.04741E-19-6.13133E-19
 -1      1223 8.45234E-05-2.53297E-05-2.57668E-05 9.77325E-08 3.22746E-19-4.56789E-19
 -1      1224 8.93976E-05-2.67645E-05-2.70408E-05-1.85042E-07 9.67404E-20-1.65420E-18
 -1      1225 9.61542E-05-2.88000E-05-2.88329E-05-3.62379E-07-6.63304E-20 6.99332E-19
 -1      1226 1.02383E-04-3.06944E-05-3.05308E-05-3.91154E-07-2.51814E-19 3.89085E-18
 -1      1227 1.06427E-04-3.19295E-05-3.16804E-05-3.07727E-07 1.87462E-19 3.94373E-18
 -1      1228 1.07757E-04-3.23395E-05-3.21023E-05-1.76953E-07 1.79584E-19 4.31603E-19
 -1      1229 1.06720E-04-3.20325E-05-3.18593E-05-4.88771E-08-3.59291E-19 3.59738E-19
 -1      1230 1.04101E-04-3.12495E-05-3.11558E-05 5.32356E-08 2.01142E-19-5.49883E-19
 -1      1231 1.00794E-04-3.02617E-05-3.02482E-05 1.23325E-07 2.63553E-19-5.73677E-18
 -1      1232 9.76719E-05-2.93295E-05-2.93895E-05 1.52439E-07 2.34143E-19-9.53103E-18
 -1      1233 9.55679E-05-2.86961E-05-2.87789E-05 9.91517E-08 6.51934E-19-1.15534E-17
 -1      1234 9.50438E-05-2.85080E-05-2.84339E-05-6.78867E-08-3.77558E-19-7.90698E-18
 -1      1235 9.53042E-05-2.87674E-05-2.84420E-05-6.36473E-08-8.31084E-18-3.39359E-19
 -1      1236 9.50862E-05-2.82055E-05-2.87988E-05-2.47861E-08-9.42660E-18 8.57368E-19
 -1      1237 9.44471E-05-2.60557E-05-2.94523E-05 1.05265E-07 4.23919E-18 2.64956E-19
 -1      1238 9.34205E-05-2.26017E-05-3.04460E-05 1.69083E-07 1.06752E-17 5.11790E-19
 -1      1239 9.21553E-05-1.83260E-05-3.16767E-05 2.02930E-07 7.71888E-18-8.91459E-19
 -1      1240 9.08162E-05-1.37869E-05-3.29793E-05 2.10720E-07 2.04461E-18-1.76086E-18
 -1      1241 8.95730E-05-9.55275E-06-3.41873E-05 1.89650E-07 3.20681E-18 1.48959E-18
 -1      1242 8.86058E-05-6.24921E-06-3.51210E-05 1.31177E-07 3.88770E-18-1.09326E-18
 -1      1243 8.81005E-05-4.51734E-06-3.56047E-05 4.30339E-08 1.04135E-18-3.91187E-19
 -1      1244 8.81645E-05-4.72933E-06-3.55382E-05-5.86518E-08 2.36942E-18 4.33370E-19
 -1      1245 8.88035E-05-6.91011E-06-3.49157E-05-1.52334E-07-3.08219E-18-2.27573E-18
 -1      1246 8.99138E-05-1.06837E-05-3.38428E-05-2.19798E-07-1.25346E-17 1.19296E-19
 -1      1247 9.13143E-05-1.54552E-05-3.24849E-05-2.48957E-07-1.02089E-17 6.74563E-19
 -1      1248 9.28061E-05-2.05166E-05-3.10524E-05-2.41012E-07-4.78754E-18-1.64356E-19
 -1      1249 9.41412E-05-2.50400E-05-2.97919E-05-2.07860E-07-2.28940E-18 6.66542E-20
 -1      1250 9.49237E-05-2.78611E-05-2.89161E-05 5.26324E-08-1.67636E-18-1.57948E-19
 -1      1251 9.53417E-05-2.88372E-05-2.84076E-05 8.01736E-08-1.17248E-19 2.14048E-19
 -1      1252 3.61294E-05-1.12322E-04 1.91191E-05-1.41250E-05 2.92226E-18 2.03553E-20
 -1      1253 1.88024E-05-6.95063E-05 1.06586E-05-2.68253E-05 2.75455E-18 1.40269E-18
 -1      1254 7.64156E-06-1.19636E-05-4.85317E-06-2.29042E-06 6.95583E-18 3.92261E-18
 -1      1255 3.11819E-05 2.40186E-05-2.47552E-05 5.00772E-05 1.01424E-17 1.03474E-17
 -1      1256 1.01344E-04 1.61398E-05-4.51696E-05 9.98016E-05 1.09623E-17 1.46503E-17
 -1      1257 2.01099E-04-2.89560E-05-6.34160E-05 1.10000E-04 6.26211E-18 1.35686E-17
 -1      1258 2.87391E-04-7.89257E-05-7.51798E-05 6.77219E-05 1.94293E-18 6.77288E-18
 -1      1259 3.10024E-04-9.29087E-05-7.81543E-05-1.15532E-05-7.25272E-20 6.79532E-19
 -1      1260 2.63829E-04-6.56770E-05-7.19966E-05-8.49937E-05 1.30740E-18-1.80079E-18
 -1      1261 1.68091E-04-1.31945E-05-5.79126E-05-1.12151E-04 2.65206E-18-4.29107E-18
 -1      1262 7.19226E-05 2.31735E-05-3.81306E-05-8.42208E-05 4.34020E-18-5.42101E-18
 -1      1263 1.62276E-05 1.45946E-05-1.67431E-05-2.74280E-05 6.75424E-18-5.13556E-18
 -1      1264 9.21912E-06-3.41264E-05 2.04576E-06 1.60450E-05 5.57686E-18-3.30512E-18
 -1      1265 2.71318E-05-9.02034E-05 1.50073E-05 2.39952E-05-1.80503E-18 3.74812E-20
 -1      1266 3.78170E-05-1.14883E-04 1.97268E-05 4.95665E-07-3.45166E-18 9.49206E-20
 -1      1267 2.82634E-05-9.36044E-05 1.56757E-05-2.44102E-05-3.30258E-18-5.91758E-19
 -1      1268 9.84060E-06-3.85497E-05 3.19853E-06-1.89498E-05-3.80487E-18-1.78555E-18
 -1      1269 1.37596E-05 9.80671E-06-1.45194E-05 2.09085E-05-4.54010E-18-3.18484E-18
 -1      1270 6.05407E-05 2.37811E-05-3.46549E-05 7.51462E-05-2.40219E-18-2.18704E-18
 -1      1271 1.51690E-04-5.84714E-06-5.49400E-05 1.09920E-04-1.18415E-18-2.58176E-18
 -1      1272 2.51959E-04-5.80544E-05-7.05502E-05 9.42052E-05-1.24450E-18-2.64274E-18
 -1      1273 3.11656E-04-9.29692E-05-7.84167E-05 2.74227E-05-3.23514E-19 2.28699E-19
 -1      1274 2.98820E-04-8.42467E-05-7.69640E-05-5.54212E-05-4.41516E-19 4.55577E-18
 -1      1275 2.18687E-04-3.79822E-05-6.60136E-05-1.08598E-04-5.22323E-18 1.15400E-17
 -1      1276 1.15998E-04 1.09163E-05-4.85008E-05-1.05083E-04-8.83709E-18 1.41658E-17
 -1      1277 3.93125E-05 2.57310E-05-2.81026E-05-5.87028E-05-1.08827E-17 1.16162E-17
 -1      1278 8.30028E-06-5.23441E-06-7.51309E-06-3.11700E-06-4.91279E-18 4.74000E-18
 -1      1279 1.70670E-05-6.48923E-05 9.60376E-06 2.56825E-05 5.32276E-18-5.68783E-19
 -1      1280 3.56301E-05-1.11863E-04 1.91024E-05 1.52219E-05 1.03618E-17-1.91379E-18
 -1      1281 1.04438E-04-2.20180E-05-3.78904E-05-1.72774E-05-3.61895E-19 5.14805E-18
 -1      1282 9.03135E-05-6.67987E-06-3.60151E-05-2.04767E-05-9.06378E-19-6.44116E-19
 -1      1283 9.26495E-05-6.73846E-06-3.72201E-05-2.57641E-05-1.18246E-18 6.58462E-19
 -1      1284 8.59007E-05-4.09620E-06-3.51284E-05-1.64396E-05-8.66621E-19-2.45280E-18
 -1      1285 8.71513E-05-4.08873E-06-3.55974E-05-1.88597E-05-1.00495E-18-1.69706E-18
 -1      1286 9.21276E-05-1.04613E-05-3.50915E-05-1.90410E-05-1.55563E-18-6.09017E-19
 -1      1287 8.40940E-05-3.19055E-06-3.46859E-05-1.28220E-05-6.45532E-19-3.28720E-18
 -1      1288 8.47054E-05-3.16129E-06-3.49100E-05-1.46370E-05-7.56877E-19-2.91093E-18
 -1      1289 8.78636E-05-7.39513E-06-3.45723E-05-1.54180E-05-1.34484E-18-2.05061E-18
 -1      1290 8.31845E-05-2.72753E-06-3.44699E-05-9.69274E-06-4.28890E-19-3.68147E-18
 -1      1291 8.34965E-05-2.70910E-06-3.45788E-05-1.12400E-05-5.08034E-19-3.51406E-18
 -1      1292 8.58647E-05-5.98245E-06-3.43045E-05-1.19605E-05-9.57710E-19-2.76069E-18
 -1      1293 8.26963E-05-2.45842E-06-3.43642E-05-6.92006E-06-2.55940E-19-3.77275E-18
 -1      1294 8.28643E-05-2.44996E-06-3.44183E-05-8.29180E-06-3.19927E-19-3.72439E-18
 -1      1295 8.48215E-05-5.21788E-06-3.41727E-05-8.95065E-06-6.38954E-19-3.05938E-18
 -1      1296 8.24226E-05-2.29314E-06-3.43121E-05-4.29804E-06-8.60814E-20-3.75798E-18
 -1      1297 8.25130E-05-2.28922E-06-3.43390E-05-5.60017E-06-1.44528E-19-3.79671E-18
 -1      1298 8.42389E-05-4.76388E-06-3.41101E-05-6.22092E-06-3.39759E-19-3.18627E-18
 -1      1299 8.22908E-05-2.20373E-06-3.42901E-05-1.79121E-06 1.01221E-19-3.67790E-18
 -1      1300 8.23295E-05-2.20218E-06-3.43011E-05-3.04320E-06 3.79891E-20-3.70671E-18
 -1      1301 8.39178E-05-4.50032E-06-3.40817E-05-3.64713E-06-5.49827E-20-3.11355E-18
 -1      1302 8.22648E-05-2.17622E-06-3.42875E-05 6.70482E-07 2.64726E-19-3.59743E-18
 -1      1303 8.22635E-05-2.17627E-06-3.42872E-05-5.66342E-07 2.10979E-19-3.64195E-18
 -1      1304 8.37770E-05-4.38071E-06-3.40711E-05-1.17126E-06 2.54489E-19-3.08041E-18
 -1      1305 8.23379E-05-2.20642E-06-3.43025E-05 3.15093E-06 4.07841E-19-3.51333E-18
 -1      1306 8.22964E-05-2.20806E-06-3.42909E-05 1.89638E-06 3.75417E-19-3.57278E-18
 -1      1307 8.37818E-05-4.38490E-06-3.40715E-05 1.27481E-06 5.20531E-19-2.98584E-18
 -1      1308 8.25298E-05-2.29927E-06-3.43417E-05 5.71692E-06 5.36900E-19-3.33392E-18
 -1      1309 8.24360E-05-2.30265E-06-3.43140E-05 4.40896E-06 4.88371E-19-3.45351E-18
 -1      1310 8.39330E-05-4.51364E-06-3.40828E-05 3.75498E-06 7.35331E-19-2.89967E-18
 -1      1311 8.28876E-05-2.46467E-06-3.44213E-05 8.39993E-06 6.74245E-19-2.96349E-18
 -1      1312 8.27157E-05-2.47338E-06-3.43667E-05 7.01960E-06 6.16230E-19-3.17595E-18
 -1      1313 8.42639E-05-4.78630E-06-3.41114E-05 6.31501E-06 9.49550E-19-2.69642E-18
 -1      1314 8.35434E-05-2.74154E-06-3.45840E-05 1.14010E-05 9.02672E-19-2.43710E-18
 -1      1315 8.32232E-05-2.75867E-06-3.44736E-05 9.83569E-06 7.99440E-19-2.76456E-18
 -1      1316 8.48645E-05-5.25882E-06-3.41738E-05 9.05919E-06 1.24934E-18-2.30859E-18
 -1      1317 8.47620E-05-3.20321E-06-3.49179E-05 1.48498E-05 1.05892E-18-1.47609E-18
 -1      1318 8.41508E-05-3.23999E-06-3.46915E-05 1.30095E-05 9.74975E-19-2.05850E-18
 -1      1319 8.59451E-05-6.06309E-06-3.43058E-05 1.21283E-05 1.50115E-18-1.70894E-18
 -1      1320 8.72505E-05-4.08973E-06-3.56190E-05 1.90966E-05 1.15684E-18 2.91485E-19
 -1      1321 8.59680E-05-4.15367E-06-3.51360E-05 1.66989E-05 1.04156E-18-7.57803E-19
 -1      1322 8.79875E-05-7.51662E-06-3.45744E-05 1.56561E-05 1.69945E-18-6.04887E-19
 -1      1323 9.34627E-05-6.79127E-06-3.71156E-05 2.51003E-05 1.00204E-18 3.42821E-18
 -1      1324 9.01291E-05-6.43690E-06-3.60378E-05 2.11537E-05 9.73717E-19 1.53747E-18
 -1      1325 9.23576E-05-1.06969E-05-3.50768E-05 1.96815E-05 1.73557E-18 1.35006E-18
 -1      1326 1.23625E-04-2.49229E-05-3.90141E-05 2.83688E-05 4.83021E-19 9.09544E-18
 -1      1327 1.00078E-04-1.44230E-05-3.73532E-05 2.40535E-05 5.18172E-19 5.18681E-18
 -1      1328 1.01676E-04-1.93411E-05-3.54014E-05 2.14026E-05 1.63098E-18 4.19366E-18
 -1      1329 1.02601E-04-2.78041E-05-3.47569E-05 7.33095E-06 8.99152E-19 8.79474E-18
 -1      1330 1.05144E-04-3.02292E-05-3.35242E-05-7.96160E-06-9.79276E-19 5.44219E-18
 -1      1331 9.82555E-05-2.78413E-05-3.07606E-05-4.99014E-06-8.52962E-19 4.30875E-18
 -1      1332 9.54965E-05-2.78471E-05-2.92527E-05-2.49095E-06-6.46921E-19 3.83070E-18
 -1      1333 9.32631E-05-2.75560E-05-2.82129E-05-2.04415E-06-6.45704E-19 2.86498E-18
 -1      1334 9.94792E-05-2.80499E-05-3.09812E-05-7.88989E-06-1.49422E-18 2.04678E-18
 -1      1335 9.15728E-05-2.71983E-05-2.75783E-05-8.39752E-07-5.04891E-19 2.46169E-18
 -1      1336 9.08546E-05-2.71025E-05-2.72756E-05-7.29923E-07-4.65445E-19 1.71678E-18
 -1      1337 9.47112E-05-2.77685E-05-2.88141E-05-3.12312E-06-1.13672E-18 1.31179E-18
 -1      1338 9.01028E-05-2.69189E-05-2.70320E-05-1.76648E-07-3.55691E-19 1.35589E-18
 -1      1339 9.00277E-05-2.69447E-05-2.69965E-05-1.18502E-07-3.89830E-19 8.40416E-19
 -1      1340 9.25099E-05-2.74966E-05-2.78927E-05-1.05766E-06-8.60678E-19 7.20521E-19
 -1      1341 8.97667E-05-2.68769E-05-2.69218E-05 1.51860E-07-2.40645E-19 7.29044E-19
 -1      1342 8.99788E-05-2.69662E-05-2.69827E-05 1.80537E-07-2.09465E-19 4.32569E-19
 -1      1343 9.15480E-05-2.73522E-05-2.75250E-05-7.50637E-08-5.93952E-19 1.73245E-19
 -1      1344 8.99810E-05-2.69690E-05-2.69886E-05 3.11404E-07-2.73570E-19 2.87574E-19
 -1      1345 9.03206E-05-2.70879E-05-2.70868E-05 3.23018E-07-3.45463E-19-1.30880E-19
 -1      1346 9.12918E-05-2.73393E-05-2.74161E-05 4.12131E-07-5.07919E-19 1.07838E-19
 -1      1347 9.04609E-05-2.71291E-05-2.71335E-05 3.77226E-07-2.67494E-19-2.04989E-19
 -1      1348 9.08453E-05-2.72563E-05-2.72445E-05 3.78806E-07-1.94899E-19-5.32638E-19
 -1      1349 9.14216E-05-2.74122E-05-2.74372E-05 6.39619E-07-4.66637E-19-1.84966E-19
 -1      1350 9.10517E-05-2.73161E-05-2.73105E-05 3.89227E-07-1.19650E-19-5.52123E-19
 -1      1351 9.14354E-05-2.74396E-05-2.74216E-05 3.85005E-07-1.74047E-19-7.97885E-19
 -1      1352 9.17509E-05-2.75300E-05-2.75252E-05 7.21479E-07-3.06083E-19-3.10187E-19
 -1      1353 9.16655E-05-2.75059E-05-2.74942E-05 3.70685E-07-3.41796E-19-9.73099E-19
 -1      1354 9.20236E-05-2.76191E-05-2.75984E-05 3.63370E-07-3.20156E-19-1.40429E-18
 -1      1355 9.21697E-05-2.76660E-05-2.76445E-05 7.19994E-07-4.55338E-19-4.24334E-19
 -1      1356 9.22526E-05-2.76849E-05-2.76703E-05 3.36191E-07-2.60576E-19-1.60738E-18
 -1      1357 9.25728E-05-2.77847E-05-2.77639E-05 3.27594E-07-3.44740E-20-1.76331E-18
 -1      1358 9.26126E-05-2.78037E-05-2.77741E-05 6.72467E-07-5.26022E-19-5.54218E-19
 -1      1359 9.27872E-05-2.78462E-05-2.78310E-05 2.95333E-07 3.19523E-20-1.96783E-18
 -1      1360 9.30655E-05-2.79320E-05-2.79126E-05 2.86685E-07-1.90819E-19-2.12594E-18
 -1      1361 9.30418E-05-2.79338E-05-2.79017E-05 6.02728E-07-2.11744E-19-1.05048E-18
 -1      1362 9.32596E-05-2.79875E-05-2.79733E-05 2.54581E-07-2.10116E-19-2.32140E-18
 -1      1363 9.34974E-05-2.80600E-05-2.80433E-05 2.46729E-07-1.29037E-19-2.47432E-18
 -1      1364 9.34382E-05-2.80517E-05-2.80209E-05 5.26595E-07-3.48960E-19-1.70973E-18
 -1      1365 9.36704E-05-2.81094E-05-2.80973E-05 2.18413E-07-7.13150E-20-2.40457E-18
 -1      1366 9.38730E-05-2.81704E-05-2.81572E-05 2.11957E-07-2.69864E-20-2.35928E-18
 -1      1367 9.37952E-05-2.81560E-05-2.81294E-05 4.54870E-07-6.19502E-20-1.59725E-18
 -1      1368 9.40280E-05-2.82145E-05-2.82056E-05 1.90075E-07-1.14927E-19-2.45394E-18
 -1      1369 9.42033E-05-2.82668E-05-2.82576E-05 1.85470E-07-3.86013E-19-2.65317E-18
 -1      1370 9.41148E-05-2.82479E-05-2.82273E-05 3.95203E-07-2.04842E-19-1.65749E-18
 -1      1371 9.43462E-05-2.83073E-05-2.83021E-05 1.72128E-07-2.58291E-19-2.66297E-18
 -1      1372 9.45044E-05-2.83539E-05-2.83494E-05 1.69769E-07-2.58286E-19-2.87677E-18
 -1      1373 9.44054E-05-2.83301E-05-2.83172E-05 3.53378E-07-4.49028E-19-1.69349E-18
 -1      1374 9.46432E-05-2.83931E-05-2.83926E-05 1.66867E-07-2.11456E-19-2.99220E-18
 -1      1375 9.47968E-05-2.84379E-05-2.84386E-05 1.67150E-07-2.07036E-19-3.17608E-18
 -1      1376 9.46805E-05-2.84068E-05-2.84030E-05 3.34263E-07-4.50013E-19-1.95770E-18
 -1      1377 9.49416E-05-2.84787E-05-2.84837E-05 1.76647E-07 1.32366E-19-3.10618E-18
 -1      1378 9.51050E-05-2.85261E-05-2.85327E-05 1.80020E-07 2.16102E-19-2.96262E-18
 -1      1379 9.49577E-05-2.84831E-05-2.84899E-05 3.42534E-07-3.36065E-20-2.06245E-18
 -1      1380 9.52681E-05-2.85720E-05-2.85835E-05 2.04133E-07 1.44404E-19-3.02131E-18
 -1      1381 9.54583E-05-2.86271E-05-2.86406E-05 2.11138E-07-4.25872E-20-2.87522E-18
 -1      1382 9.52588E-05-2.85654E-05-2.85848E-05 3.83224E-07 1.91845E-19-2.86560E-18
 -1      1383 9.56541E-05-2.86823E-05-2.87016E-05 2.52474E-07-7.01933E-20-2.87373E-18
 -1      1384 9.58912E-05-2.87511E-05-2.87727E-05 2.63773E-07 1.48214E-19-2.75495E-18
 -1      1385 9.56097E-05-2.86612E-05-2.86953E-05 4.62131E-07-5.08166E-20-2.55421E-18
 -1      1386 9.61367E-05-2.88204E-05-2.88492E-05 3.25392E-07 4.94617E-20-3.16156E-18
 -1      1387 9.64444E-05-2.89102E-05-2.89413E-05 3.41776E-07-3.75583E-19-3.25111E-18
 -1      1388 9.60411E-05-2.87795E-05-2.88310E-05 5.86051E-07-1.57376E-19-2.43997E-18
 -1      1389 9.67593E-05-2.89992E-05-2.90395E-05 4.27127E-07-4.28695E-20-3.38815E-18
 -1      1390 9.71653E-05-2.91186E-05-2.91607E-05 4.49500E-07 3.86312E-19-3.16032E-18
 -1      1391 9.65886E-05-2.89305E-05-2.90026E-05 7.62774E-07-1.14785E-19-2.88713E-18
 -1      1392 9.75720E-05-2.92337E-05-2.92875E-05 5.62154E-07-5.82534E-20-3.61080E-18
 -1      1393 9.81086E-05-2.93927E-05-2.94474E-05 5.91456E-07-4.08344E-19-3.41919E-18
 -1      1394 9.72932E-05-2.91265E-05-2.92226E-05 1.00070E-06-1.36741E-19-3.23654E-18
 -1      1395 9.86318E-05-2.95412E-05-2.96106E-05 7.34480E-07-4.61280E-19-3.64245E-18
 -1      1396 9.93351E-05-2.97511E-05-2.98196E-05 7.71514E-07-1.68431E-19-4.30467E-18
 -1      1397 9.82008E-05-2.93814E-05-2.95045E-05 1.30780E-06-5.76006E-19-3.29646E-18
 -1      1398 1.00001E-04-2.99405E-05-3.00270E-05 9.46196E-07 3.65663E-19-4.15098E-18
 -1      1399 1.00908E-04-3.02138E-05-3.02961E-05 9.91273E-07 2.40213E-19-3.82920E-18
 -1      1400 9.93608E-05-2.97109E-05-2.98627E-05 1.68934E-06 3.35670E-20-2.63480E-18
 -1      1401 1.01740E-04-3.04518E-05-3.05550E-05 1.19477E-06 1.39741E-19-3.51676E-18
 -1      1402 1.02887E-04-3.08005E-05-3.08939E-05 1.24702E-06 3.25016E-19-2.88378E-18
 -1      1403 1.00822E-04-3.01319E-05-3.03109E-05 2.14370E-06 2.80874E-19-2.77614E-18
 -1      1404 1.03902E-04-3.10934E-05-3.12088E-05 1.46827E-06 6.38722E-19-2.96079E-18
 -1      1405 1.05310E-04-3.15266E-05-3.16231E-05 1.52445E-06 4.00473E-19-2.44899E-18
 -1      1406 1.02627E-04-3.06617E-05-3.08591E-05 2.65479E-06 4.07623E-19-2.61980E-18
 -1      1407 1.06510E-04-3.18777E-05-3.19929E-05 1.73761E-06 1.11504E-20-2.36547E-18
 -1      1408 1.08169E-04-3.23962E-05-3.24780E-05 1.79004E-06-1.64668E-19-2.48015E-18
 -1      1409 1.04796E-04-3.13154E-05-3.15090E-05 3.17960E-06 1.82196E-19-3.05852E-18
 -1      1410 1.09524E-04-3.28021E-05-3.28906E-05 1.94521E-06 7.73488E-20-2.38060E-18
 -1      1411 1.11363E-04-3.33896E-05-3.34233E-05 1.97885E-06 1.62418E-19-2.52931E-18
 -1      1412 1.07310E-04-3.21016E-05-3.22469E-05 3.62955E-06 3.99967E-20-2.93562E-18
 -1      1413 1.12795E-04-3.38351E-05-3.38490E-05 1.99158E-06-6.51785E-20-2.41782E-18
 -1      1414 1.14638E-04-3.44438E-05-3.43743E-05 1.98062E-06-7.37473E-20-2.28699E-18
 -1      1415 1.10073E-04-3.30137E-05-3.30324E-05 3.84692E-06-9.53772E-20-2.32166E-18
 -1      1416 1.15992E-04-3.48938E-05-3.47587E-05 1.72739E-06-2.66422E-19-2.66860E-18
 -1      1417 1.17510E-04-3.54254E-05-3.51783E-05 1.63388E-06-8.57948E-19-3.36612E-18
 -1      1418 1.12873E-04-3.40135E-05-3.37880E-05 3.58585E-06-3.19444E-19-2.72951E-18
 -1      1419 1.18539E-04-3.58136E-05-3.54393E-05 9.70769E-07-9.76245E-19-3.81178E-18
 -1      1420 1.19229E-04-3.61035E-05-3.56096E-05 7.51922E-07-3.32368E-19-4.55398E-18
 -1      1421 1.15333E-04-3.50019E-05-3.43911E-05 2.52541E-06-1.34942E-18-2.36721E-18
 -1      1422 1.19597E-04-3.63215E-05-3.56479E-05-4.15107E-07 4.25217E-19-4.94850E-18
 -1      1423 1.18851E-04-3.61474E-05-3.54069E-05-7.80405E-07-4.17825E-19-5.20142E-18
 -1      1424 1.16881E-04-3.57770E-05-3.46847E-05 3.68622E-07-6.35897E-19-3.10509E-18
 -1      1425 1.18202E-04-3.60462E-05-3.51400E-05-2.35256E-06-6.92039E-19-4.82936E-18
 -1      1426 1.15550E-04-3.51997E-05-3.43836E-05-2.81083E-06-7.69079E-20-5.79810E-18
 -1      1427 1.16808E-04-3.60026E-05-3.45197E-05-2.91013E-06-4.30677E-19-3.39833E-18
 -1      1428 1.13690E-04-3.46399E-05-3.38054E-05-4.32883E-06 2.69595E-19-5.13133E-18
 -1      1429 1.09243E-04-3.30927E-05-3.25985E-05-4.70009E-06 5.55250E-19-5.31185E-18
 -1      1430 1.14492E-04-3.52625E-05-3.38349E-05-6.68346E-06-5.30587E-20-2.32038E-18
 -1      1431 1.06420E-04-3.20821E-05-3.18321E-05-5.35054E-06 5.12444E-19-4.96308E-18
 -1      1432 1.01261E-04-3.01865E-05-3.04836E-05-5.36377E-06 3.40769E-19-4.33580E-18
 -1      1433 1.09889E-04-3.33312E-05-3.27452E-05-9.42671E-06 9.51986E-19-2.04073E-18
 -1      1434 9.83814E-05-2.90511E-05-2.97731E-05-4.41816E-06 6.37313E-19-4.03092E-18
 -1      1435 9.44228E-05-2.75488E-05-2.87634E-05-3.91665E-06 4.20353E-19-3.30369E-18
 -1      1436 1.04113E-04-3.06186E-05-3.15604E-05-9.19040E-06 1.10977E-18-3.06593E-18
 -1      1437 9.27759E-05-2.68760E-05-2.83737E-05-1.46987E-06 2.03553E-19-3.64293E-18
 -1      1438 9.17800E-05-2.65072E-05-2.81147E-05-6.42108E-07 1.22820E-20-3.20971E-18
 -1      1439 9.94546E-05-2.83223E-05-3.06814E-05-5.07535E-06 4.04538E-19-3.48506E-18
 -1      1440 9.21873E-05-2.67077E-05-2.81902E-05 2.13678E-06 6.07627E-19-1.70854E-18
 -1      1441 9.45408E-05-2.76398E-05-2.87703E-05 2.82685E-06 8.28875E-19-1.07017E-18
 -1      1442 9.81881E-05-2.77445E-05-3.04164E-05 1.38209E-06 6.27360E-19-2.34693E-18
 -1      1443 9.66532E-05-2.85374E-05-2.92510E-05 4.50331E-06-6.05734E-19-1.59200E-18
 -1      1444 1.01068E-04-3.02213E-05-3.03729E-05 4.71068E-06-1.02316E-18-2.61003E-18
 -1      1445 1.00828E-04-2.91928E-05-3.08275E-05 6.85266E-06-8.05740E-20-1.38184E-18
 -1      1446 1.03672E-04-3.12367E-05-3.10275E-05 4.68200E-06 1.73526E-19-2.01419E-18
 -1      1447 1.08125E-04-3.28557E-05-3.22002E-05 4.42766E-06 6.14906E-19-2.23077E-18
 -1      1448 1.05683E-04-3.16837E-05-3.16977E-05 8.77291E-06-4.92851E-19-1.47953E-18
 -1      1449 1.10063E-04-3.35130E-05-3.27550E-05 3.14223E-06 5.14295E-19-2.07258E-18
 -1      1450 1.13019E-04-3.45159E-05-3.35691E-05 2.68023E-06-4.85059E-21-1.28744E-18
 -1      1451 1.10236E-04-3.38344E-05-3.26367E-05 7.04760E-06 8.58488E-19-2.02073E-18
 -1      1452 1.13750E-04-3.46786E-05-3.38391E-05 1.00132E-06-2.35660E-19-3.40666E-20
 -1      1453 1.14689E-04-3.49410E-05-3.41215E-05 5.67559E-07 6.59958E-20-7.95880E-19
 -1      1454 1.12771E-04-3.48534E-05-3.32698E-05 3.38713E-06 6.03577E-19-1.44258E-18
 -1      1455 1.14250E-04-3.47047E-05-3.40613E-05-8.56186E-07 3.03780E-19 6.07306E-19
 -1      1456 1.13446E-04-3.43794E-05-3.38572E-05-1.15299E-06 7.41299E-19 1.21218E-18
 -1      1457 1.12872E-04-3.47341E-05-3.33927E-05-3.55794E-07 7.94583E-19-7.35916E-19
 -1      1458 1.12164E-04-3.39019E-05-3.35288E-05-2.05945E-06 2.35528E-19 1.87313E-19
 -1      1459 1.10233E-04-3.32250E-05-3.29958E-05-2.20904E-06-4.41099E-19 5.71681E-19
 -1      1460 1.10991E-04-3.38538E-05-3.30047E-05-3.12244E-06 2.14643E-19-2.95932E-20
 -1      1461 1.08502E-04-3.26422E-05-3.25094E-05-2.59562E-06-1.85183E-19 1.23958E-19
 -1      1462 1.06078E-04-3.18254E-05-3.18270E-05-2.62626E-06-8.10571E-20 3.53345E-19
 -1      1463 1.07886E-04-3.26055E-05-3.22450E-05-4.63528E-06-4.42399E-19-6.85567E-20
 -1      1464 1.04250E-04-3.12346E-05-3.12971E-05-2.57859E-06 2.99036E-19 2.05882E-19
 -1      1465 1.01869E-04-3.04411E-05-3.06249E-05-2.51605E-06 3.32252E-19 6.43613E-19
 -1      1466 1.04292E-04-3.12645E-05-3.13076E-05-5.01648E-06 8.00740E-20 6.46829E-19
 -1      1467 1.00227E-04-2.99100E-05-3.01505E-05-2.10771E-06 5.78315E-19 7.13758E-19
 -1      1468 9.83429E-05-2.92766E-05-2.96186E-05-1.95762E-06 3.05524E-19 1.39819E-18
 -1      1469 1.00814E-04-2.99970E-05-3.03820E-05-4.46066E-06-1.85288E-21 1.07513E-18
 -1      1470 9.70717E-05-2.88361E-05-2.92649E-05-1.22291E-06-2.41378E-19 1.57518E-18
 -1      1471 9.60630E-05-2.85370E-05-2.89457E-05-1.00390E-06-4.39236E-19 1.51891E-18
 -1      1472 9.78942E-05-2.88980E-05-2.96138E-05-3.11964E-06 2.81255E-19 1.51591E-18
 -1      1473 9.52337E-05-2.84521E-05-2.86222E-05 2.31397E-09-1.24190E-18 1.02338E-18
 -1      1474 9.56905E-05-2.81899E-05-2.89535E-05-9.85077E-07-1.08661E-18 5.75883E-19
 -1      1475 9.65719E-05-2.83620E-05-2.97709E-05 2.99726E-06 7.23101E-19 7.16291E-18
 -1      1476 1.02532E-04-2.93974E-05-3.21547E-05 4.46444E-06 6.60368E-19 8.30855E-18
 -1      1477 1.02322E-04-2.67167E-05-3.27046E-05 1.27860E-05 1.31036E-18 5.61562E-18
 -1      1478 9.20225E-05-2.74268E-05-2.77593E-05 1.15352E-06 5.46972E-19 5.71488E-18
 -1      1479 9.39708E-05-2.75825E-05-2.86740E-05 1.47545E-06 5.28350E-19 6.58165E-18
 -1      1480 9.64807E-05-2.80284E-05-2.95319E-05 4.87054E-06 1.10517E-18 4.58012E-18
 -1      1481 9.01865E-05-2.70011E-05-2.70594E-05 3.33456E-07 4.14451E-19 4.66255E-18
 -1      1482 9.08033E-05-2.70192E-05-2.73326E-05 4.96267E-07 3.87240E-19 5.26622E-18
 -1      1483 9.30334E-05-2.75762E-05-2.80961E-05 1.85485E-06 9.07291E-19 3.59732E-18
 -1      1484 8.96654E-05-2.68818E-05-2.68826E-05-5.31688E-08 3.32454E-19 3.89100E-18
 -1      1485 8.97049E-05-2.68201E-05-2.69114E-05 3.58667E-08 3.22877E-19 4.38264E-18
 -1      1486 9.14772E-05-2.73042E-05-2.75114E-05 5.21249E-07 6.99583E-19 2.71639E-18
 -1      1487 8.97929E-05-2.69329E-05-2.69231E-05-2.40116E-07 2.99464E-19 3.06801E-18
 -1      1488 8.95669E-05-2.68262E-05-2.68587E-05-1.89996E-07 2.91838E-19 3.54192E-18
 -1      1489 9.09421E-05-2.72223E-05-2.73142E-05-1.28104E-07 5.87207E-19 2.26970E-18
 -1      1490 9.02404E-05-2.70737E-05-2.70598E-05-3.22930E-07 1.35157E-19 2.57922E-18
 -1      1491 8.98964E-05-2.69475E-05-2.69591E-05-2.95397E-07 2.06407E-19 2.84661E-18
 -1      1492 9.09557E-05-2.72641E-05-2.73021E-05-4.46247E-07 3.61903E-19 1.85583E-18
 -1      1493 9.08288E-05-2.72542E-05-2.72374E-05-3.47226E-07 2.82035E-19 2.13235E-18
 -1      1494 9.04446E-05-2.71249E-05-2.71249E-05-3.33652E-07 1.08887E-19 2.45396E-18
 -1      1495 9.12558E-05-2.73747E-05-2.73824E-05-5.85978E-07 2.14429E-19 1.33829E-18
 -1      1496 9.14563E-05-2.74445E-05-2.74264E-05-3.38113E-07 1.87147E-19 1.23493E-18
 -1      1497 9.10750E-05-2.73220E-05-2.73145E-05-3.33275E-07 3.09366E-19 1.70021E-18
 -1      1498 9.16920E-05-2.75171E-05-2.75070E-05-6.24358E-07 5.72693E-19 7.61582E-19
 -1      1499 9.20646E-05-2.76278E-05-2.76098E-05-3.10872E-07 1.77247E-19 7.26840E-19
 -1      1500 9.17101E-05-2.75172E-05-2.75054E-05-3.11366E-07 1.36235E-19 9.95641E-19
 -1      1501 9.21758E-05-2.76682E-05-2.76484E-05-6.05067E-07 4.00417E-19 2.32428E-19
 -1      1502 9.26230E-05-2.77952E-05-2.77784E-05-2.75336E-07-1.07281E-19 1.11980E-18
 -1      1503 9.23067E-05-2.76987E-05-2.76849E-05-2.78849E-07-4.15892E-20 8.98874E-19
 -1      1504 9.26560E-05-2.78146E-05-2.77906E-05-5.55017E-07 4.18578E-20 3.62322E-20
 -1      1505 9.31182E-05-2.79430E-05-2.79282E-05-2.38030E-07 1.55169E-19 1.31543E-18
 -1      1506 9.28439E-05-2.78606E-05-2.78468E-05-2.42951E-07 8.06315E-21 1.24678E-18
 -1      1507 9.31047E-05-2.79492E-05-2.79246E-05-4.91658E-07-1.04228E-19 3.47291E-19
 -1      1508 9.35491E-05-2.80710E-05-2.80588E-05-2.03386E-07 7.51417E-20 1.33578E-18
 -1      1509 9.33148E-05-2.80016E-05-2.79891E-05-2.08555E-07 1.08904E-19 1.19665E-18
 -1      1510 9.35097E-05-2.80691E-05-2.80464E-05-4.26658E-07 1.33468E-19 6.10327E-19
 -1      1511 9.39224E-05-2.81815E-05-2.81722E-05-1.74514E-07 2.86517E-19 1.13024E-18
 -1      1512 9.37228E-05-2.81229E-05-2.81126E-05-1.79064E-07 3.13857E-19 1.22345E-18
 -1      1513 9.38696E-05-2.81744E-05-2.81553E-05-3.68042E-07 5.39088E-19 8.13135E-19
 -1      1514 9.42511E-05-2.82783E-05-2.82723E-05-1.53731E-07 2.10133E-19 4.00525E-19
 -1      1515 9.40779E-05-2.82276E-05-2.82203E-05-1.56965E-07 2.01938E-19 6.70393E-19
 -1      1516 9.41903E-05-2.82672E-05-2.82531E-05-3.21557E-07 3.94027E-19 3.58909E-19
 -1      1517 9.45525E-05-2.83667E-05-2.83642E-05-1.42949E-07-1.78131E-19 2.64960E-19
 -1      1518 9.43956E-05-2.83206E-05-2.83169E-05-1.44253E-07 1.49345E-19 3.62392E-19
 -1      1519 9.44837E-05-2.83511E-05-2.83430E-05-2.91630E-07 3.50032E-19 4.05853E-19
 -1      1520 9.48482E-05-2.84531E-05-2.84545E-05-1.43956E-07-8.36959E-20 5.79925E-19
 -1      1521 9.46953E-05-2.84076E-05-2.84082E-05-1.42726E-07-4.31194E-19 8.24112E-20
 -1      1522 9.47656E-05-2.84310E-05-2.84299E-05-2.82046E-07-2.97758E-19 3.87763E-19
 -1      1523 9.51634E-05-2.85450E-05-2.85508E-05-1.58610E-07 2.81004E-19-8.10566E-20
 -1      1524 9.50003E-05-2.84956E-05-2.85012E-05-1.54198E-07 4.58609E-19 6.39857E-19
 -1      1525 9.50560E-05-2.85129E-05-2.85198E-05-2.96437E-07 1.86016E-19 1.45915E-20
 -1      1526 9.55274E-05-2.86513E-05-2.86618E-05-1.88943E-07-2.89684E-19-2.99365E-19
 -1      1527 9.53378E-05-2.85927E-05-2.86042E-05-1.80621E-07-8.62247E-20-4.22595E-19
 -1      1528 9.53785E-05-2.86037E-05-2.86199E-05-3.38585E-07 3.33507E-19-2.67113E-19
 -1      1529 9.59737E-05-2.87818E-05-2.87978E-05-2.37161E-07 7.74349E-20-2.67487E-19
 -1      1530 9.57390E-05-2.87082E-05-2.87266E-05-2.24106E-07 8.86767E-20-2.15631E-19
 -1      1531 9.57605E-05-2.87115E-05-2.87383E-05-4.12538E-07-2.26842E-20-1.65796E-19
 -1      1532 9.65401E-05-2.89481E-05-2.89701E-05-3.05486E-07-1.81962E-19-3.43995E-19
 -1      1533 9.62393E-05-2.88526E-05-2.88790E-05-2.86809E-07-2.06943E-19-3.27331E-19
 -1      1534 9.62326E-05-2.88456E-05-2.88844E-05-5.22479E-07-1.48595E-19 1.02677E-19
 -1      1535 9.72683E-05-2.91626E-05-2.91910E-05-3.95787E-07 1.53645E-19-3.47454E-19
 -1      1536 9.68779E-05-2.90379E-05-2.90732E-05-3.70608E-07 1.91104E-19-1.17860E-19
 -1      1537 9.68292E-05-2.90163E-05-2.90685E-05-6.72244E-07-6.48013E-21-2.31612E-19
 -1      1538 9.82020E-05-2.94387E-05-2.94736E-05-5.08865E-07 4.96126E-20-9.22746E-19
 -1      1539 9.76973E-05-2.92769E-05-2.93219E-05-4.76496E-07 9.72276E-20-5.74907E-19
 -1      1540 9.75864E-05-2.92348E-05-2.93011E-05-8.64332E-07 3.40464E-19 2.75934E-19
 -1      1541 9.93833E-05-2.97898E-05-2.98303E-05-6.43237E-07-2.59971E-19-1.32655E-18
 -1      1542 9.87403E-05-2.95832E-05-2.96377E-05-6.03504E-07 8.83661E-20-1.53312E-18
 -1      1543 9.85405E-05-2.95126E-05-2.95928E-05-1.09814E-06 3.27772E-19-7.76463E-19
 -1      1544 1.00846E-04-3.02270E-05-3.02706E-05-7.93167E-07-4.10070E-19-6.57403E-19
 -1      1545 1.00045E-04-2.99694E-05-3.00317E-05-7.46980E-07-6.48754E-19-1.69792E-18
 -1      1546 9.97230E-05-2.98609E-05-2.99523E-05-1.36706E-06-4.89254E-19-1.56853E-18
 -1      1547 1.02605E-04-3.07563E-05-3.07976E-05-9.45716E-07-5.21993E-19 6.22351E-19
 -1      1548 1.01638E-04-3.04453E-05-3.05106E-05-8.95968E-07-4.00709E-19-1.86228E-19
 -1      1549 1.01154E-04-3.02881E-05-3.03839E-05-1.65406E-06-7.30209E-19-1.41483E-18
 -1      1550 1.04635E-04-3.13730E-05-3.14023E-05-1.07667E-06 1.48368E-19 1.48682E-18
 -1      1551 1.03516E-04-3.10135E-05-3.10724E-05-1.02957E-06-1.66859E-19 1.62907E-18
 -1      1552 1.02829E-04-3.07973E-05-3.08839E-05-1.92532E-06-6.66586E-19 5.85834E-19
 -1      1553 1.06848E-04-3.20539E-05-3.20554E-05-1.14579E-06 4.61852E-20 1.55543E-19
 -1      1554 1.05629E-04-3.16639E-05-3.16995E-05-1.11256E-06 6.14177E-19 1.19217E-18
 -1      1555 1.04705E-04-3.13814E-05-3.14353E-05-2.12228E-06 7.45112E-19 5.17160E-19
 -1      1556 1.09057E-04-3.27469E-05-3.26974E-05-1.09320E-06-3.71874E-19 1.26719E-18
 -1      1557 1.07848E-04-3.23640E-05-3.23503E-05-1.09165E-06-7.73708E-19 2.07503E-19
 -1      1558 1.06674E-04-3.20161E-05-3.20007E-05-2.15403E-06-6.40115E-19-3.73058E-20
 -1      1559 1.10941E-04-3.33588E-05-3.32303E-05-8.41280E-07 2.45990E-19 1.04617E-18
 -1      1560 1.09935E-04-3.30477E-05-3.29494E-05-8.96030E-07 4.51260E-20 1.21843E-18
 -1      1561 1.08540E-04-3.26505E-05-3.25165E-05-1.89525E-06-1.43982E-19 7.26000E-20
 -1      1562 1.12038E-04-3.37471E-05-3.35161E-05-3.10704E-07 3.62150E-19-7.38998E-19
 -1      1563 1.11511E-04-3.36030E-05-3.33825E-05-4.49148E-07 8.13307E-19 5.41135E-19
 -1      1564 1.10002E-04-3.31966E-05-3.28895E-05-1.20123E-06 9.37798E-19-7.04374E-19
 -1      1565 1.11780E-04-3.37266E-05-3.33952E-05 5.38396E-07-3.77995E-19-9.65644E-19
 -1      1566 1.12070E-04-3.38658E-05-3.35024E-05 2.98193E-07-3.50374E-19-1.20003E-18
 -1      1567 1.10654E-04-3.35203E-05-3.30059E-05 4.29400E-08 2.42159E-19-6.34793E-19
 -1      1568 1.09646E-04-3.31093E-05-3.27353E-05 1.63513E-06-2.53514E-19-3.47601E-19
 -1      1569 1.11056E-04-3.36357E-05-3.31592E-05 1.30688E-06-3.44789E-19-7.77589E-19
 -1      1570 1.10055E-04-3.34476E-05-3.27571E-05 1.82281E-06-3.96352E-19 5.45311E-20
 -1      1571 1.05445E-04-3.17973E-05-3.15127E-05 2.72285E-06-1.31614E-19 1.15286E-18
 -1      1572 1.08067E-04-3.27373E-05-3.22621E-05 2.37694E-06-2.63288E-19 1.75945E-19
 -1      1573 1.07871E-04-3.28048E-05-3.20880E-05 3.85992E-06-5.03363E-19-6.43507E-19
 -1      1574 9.96651E-05-2.99135E-05-2.98942E-05 3.36065E-06-6.22561E-20 1.57114E-18
 -1      1575 1.03170E-04-3.11392E-05-3.08620E-05 3.12595E-06 1.62415E-19 1.76072E-18
 -1      1576 1.04134E-04-3.15214E-05-3.10560E-05 5.53034E-06-5.71665E-19 1.15566E-18
 -1      1577 9.36455E-05-2.78949E-05-2.82575E-05 3.08527E-06 5.58082E-19 2.08900E-19
 -1      1578 9.71978E-05-2.90909E-05-2.92117E-05 3.10182E-06 7.30632E-20 5.75718E-19
 -1      1579 9.94746E-05-2.97638E-05-2.98633E-05 5.99516E-06 3.85737E-19 6.83145E-19
 -1      1580 8.92811E-05-2.64153E-05-2.70859E-05 1.74618E-06 3.70987E-19-1.04444E-18
 -1      1581 9.17504E-05-2.71675E-05-2.77380E-05 2.06528E-06 3.84798E-19-3.10279E-19
 -1      1582 9.51584E-05-2.80229E-05-2.88221E-05 4.63724E-06 4.48120E-19-3.21264E-19
 -1      1583 8.81421E-05-2.60539E-05-2.67600E-05-2.34735E-07-4.76430E-19 7.98693E-19
 -1      1584 8.86412E-05-2.60686E-05-2.68943E-05 2.76429E-07-5.75427E-19 4.67986E-20
 -1      1585 9.26614E-05-2.69751E-05-2.82417E-05 1.64116E-06-4.63367E-19 1.16242E-18
 -1      1586 9.05387E-05-2.69180E-05-2.73569E-05-2.03110E-06 5.37138E-19 7.10661E-19
 -1      1587 8.89506E-05-2.62149E-05-2.69472E-05-1.54628E-06 3.55079E-19 1.14233E-18
 -1      1588 9.28768E-05-2.70796E-05-2.82884E-05-1.86742E-06-1.97557E-19 1.44493E-18
 -1      1589 9.53254E-05-2.85748E-05-2.86069E-05-2.93333E-06-1.84673E-19 1.30115E-18
 -1      1590 9.23767E-05-2.74746E-05-2.78318E-05-2.66184E-06-1.14829E-19 1.18828E-18
 -1      1591 9.55525E-05-2.82408E-05-2.89032E-05-4.44767E-06 2.00839E-20 3.45615E-18
 -1      1592 1.00589E-04-3.03339E-05-3.00352E-05-2.75394E-06-1.01751E-18 2.97594E-18
 -1      1593 9.74207E-05-2.92607E-05-2.91831E-05-2.74829E-06-4.70740E-19 1.35631E-18
 -1      1594 9.94529E-05-2.98774E-05-2.98308E-05-5.21897E-06-7.63357E-19 3.71517E-18
 -1      1595 1.04644E-04-3.16291E-05-3.11893E-05-1.81401E-06 5.77481E-19 3.34297E-18
 -1      1596 1.02232E-04-3.08942E-05-3.05207E-05-2.00054E-06-3.14891E-19 3.13900E-18
 -1      1597 1.03083E-04-3.13119E-05-3.07410E-05-4.26149E-06-8.81503E-19 3.17277E-18
 -1      1598 1.06630E-04-3.22123E-05-3.18012E-05-6.17663E-07 1.65287E-19 2.91329E-18
 -1      1599 1.05455E-04-3.19269E-05-3.14592E-05-8.78913E-07 2.09522E-19 3.53766E-18
 -1      1600 1.05386E-04-3.21304E-05-3.13635E-05-2.31880E-06 1.34691E-19 2.49515E-18
 -1      1601 1.06515E-04-3.21152E-05-3.18236E-05 4.38619E-07 5.08005E-19 2.10523E-18
 -1      1602 1.06570E-04-3.22309E-05-3.18221E-05 1.95636E-07 1.13226E-18 3.26155E-18
 -1      1603 1.05994E-04-3.22614E-05-3.15670E-05-2.25262E-07 1.07343E-18 3.13739E-18
 -1      1604 1.04786E-04-3.15196E-05-3.13707E-05 1.15602E-06 4.34667E-19 1.17571E-18
 -1      1605 1.05769E-04-3.19104E-05-3.16348E-05 9.80187E-07-4.19427E-19 8.32071E-19
 -1      1606 1.05087E-04-3.18464E-05-3.13631E-05 1.45350E-06 3.72033E-19 2.88861E-18
 -1      1607 1.02137E-04-3.06510E-05-3.06369E-05 1.48366E-06 1.29692E-18-1.37628E-18
 -1      1608 1.03634E-04-3.11739E-05-3.10511E-05 1.39223E-06 1.46832E-18 9.51681E-19
 -1      1609 1.03140E-04-3.10956E-05-3.08613E-05 2.46940E-06 1.28421E-18 6.38861E-19
 -1      1610 9.92868E-05-2.97277E-05-2.98361E-05 1.43500E-06 9.86154E-19-3.96631E-18
 -1      1611 1.00871E-04-3.02470E-05-3.02769E-05 1.43333E-06 1.32184E-18-1.87346E-18
 -1      1612 1.00712E-04-3.02067E-05-3.02164E-05 2.77723E-06 2.31073E-18 4.84099E-19
 -1      1613 9.69054E-05-2.89542E-05-2.91621E-05 1.03224E-06 1.16283E-18-5.94300E-18
 -1      1614 9.81714E-05-2.93387E-05-2.95185E-05 1.12932E-06 1.00174E-18-5.04980E-18
 -1      1615 9.83357E-05-2.93401E-05-2.95855E-05 2.41104E-06 2.22020E-18 4.78309E-19
 -1      1616 9.55390E-05-2.85229E-05-2.87244E-05 3.72654E-07-3.50815E-19-6.13621E-18
 -1      1617 9.61373E-05-2.86572E-05-2.89365E-05 5.41875E-07-2.30734E-20-6.31161E-18
 -1      1618 9.64492E-05-2.86428E-05-2.90836E-05 1.45186E-06 8.06536E-19-1.12786E-18
 -1      1619 9.52399E-05-2.84937E-05-2.85948E-05 1.06842E-08-4.10729E-18-4.68716E-18
 -1      1620 9.50421E-05-2.72519E-05-2.90726E-05 8.89434E-07-1.77491E-18 3.55939E-18
 -1      1621 9.52581E-05-2.79519E-05-2.88411E-05 7.04455E-07-4.31712E-18 1.72034E-18
 -1      1622 9.42957E-05-2.49337E-05-2.97373E-05 1.58335E-06 4.56470E-18 3.24445E-18
 -1      1623 9.47495E-05-2.63249E-05-2.93394E-05 1.45830E-06-4.49113E-19 4.03675E-18
 -1      1624 9.50276E-05-2.66131E-05-2.93532E-05 2.28570E-06 1.09660E-18 6.28652E-18
 -1      1625 9.32855E-05-2.17750E-05-3.06518E-05 2.08416E-06 6.05255E-18 3.18365E-19
 -1      1626 9.38973E-05-2.36611E-05-3.01128E-05 2.00190E-06 5.44902E-18 1.41652E-18
 -1      1627 9.42478E-05-2.44222E-05-2.99557E-05 3.46971E-06 2.94066E-18 3.96311E-18
 -1      1628 9.21103E-05-1.80972E-05-3.17213E-05 2.34588E-06 3.85625E-18-1.22563E-18
 -1      1629 9.28087E-05-2.02491E-05-3.11050E-05 2.31327E-06 5.37873E-18 9.73327E-19
 -1      1630 9.32959E-05-2.16469E-05-3.07256E-05 4.24900E-06 2.37604E-18 4.47041E-19
 -1      1631 9.09147E-05-1.43909E-05-3.27954E-05 2.31785E-06 1.38773E-18-1.57957E-18
 -1      1632 9.16069E-05-1.65062E-05-3.21912E-05 2.34527E-06 3.55243E-18-2.92239E-18
 -1      1633 9.22301E-05-1.85480E-05-3.15795E-05 4.52660E-06 1.87422E-18-3.13267E-18
 -1      1634 8.98187E-05-1.10395E-05-3.37591E-05 1.95267E-06 1.97784E-18 1.18347E-18
 -1      1635 9.04288E-05-1.28816E-05-3.32356E-05 2.05028E-06 1.08812E-18 1.12212E-19
 -1      1636 9.11509E-05-1.54602E-05-3.24194E-05 4.21227E-06 1.55321E-18-8.47986E-19
 -1      1637 8.90276E-05-8.65264E-06-3.44399E-05 1.25322E-06 9.52541E-19-5.03760E-19
 -1      1638 8.94379E-05-9.87694E-06-3.40939E-05 1.41539E-06 1.80662E-18 1.14868E-18
 -1      1639 9.01942E-05-1.27892E-05-3.31321E-05 3.24526E-06-2.98457E-19 1.04877E-18
 -1      1640 8.86957E-05-7.67341E-06-3.47154E-05 3.05584E-07 7.04616E-19-4.05219E-19
 -1      1641 8.88232E-05-8.04311E-06-3.46124E-05 5.08432E-07 5.89800E-19-8.19974E-19
 -1      1642 8.95405E-05-1.10088E-05-3.35976E-05 1.69602E-06 2.48154E-20-2.17852E-18
 -1      1643 8.89039E-05-8.32641E-06-3.45252E-05-7.29578E-07-6.65239E-19-9.64010E-19
 -1      1644 8.87140E-05-7.74477E-06-3.46915E-05-5.23782E-07 1.57138E-19 3.83097E-19
 -1      1645 8.93271E-05-1.04614E-05-3.37335E-05-2.11105E-07-4.05168E-19-5.95544E-19
 -1      1646 8.96284E-05-1.05400E-05-3.38901E-05-1.66041E-06-4.26823E-18-2.67028E-18
 -1      1647 8.91491E-05-9.08488E-06-3.43039E-05-1.49139E-06-7.67187E-19-2.98325E-18
 -1      1648 8.96116E-05-1.12844E-05-3.35084E-05-2.13927E-06-2.08429E-18-2.80778E-18
 -1      1649 9.07274E-05-1.38947E-05-3.29273E-05-2.31278E-06-6.38223E-18 3.69584E-21
 -1      1650 9.00485E-05-1.18380E-05-3.35120E-05-2.21112E-06-4.13929E-18-2.51962E-18
 -1      1651 9.03467E-05-1.33402E-05-3.29588E-05-3.72498E-06-1.07965E-18-3.34212E-18
 -1      1652 9.20571E-05-1.79605E-05-3.17602E-05-2.60671E-06-3.96311E-18 1.18182E-18
 -1      1653 9.12661E-05-1.55643E-05-3.24404E-05-2.58068E-06-6.54717E-18 2.34663E-18
 -1      1654 9.13991E-05-1.62966E-05-3.21665E-05-4.71194E-06-1.23863E-18 1.54685E-18
 -1      1655 9.33910E-05-2.20368E-05-3.05922E-05-2.49392E-06-2.41923E-18 4.24354E-19
 -1      1656 9.26214E-05-1.97184E-05-3.12470E-05-2.54494E-06-3.78584E-18 1.26117E-18
 -1      1657 9.26188E-05-1.97168E-05-3.12489E-05-4.96054E-06-1.53218E-18 2.22920E-18
 -1      1658 9.45220E-05-2.54308E-05-2.96141E-05-1.95773E-06-1.76223E-18 8.84461E-19
 -1      1659 9.38970E-05-2.36153E-05-3.01342E-05-2.09210E-06-2.02183E-18 5.55849E-19
 -1      1660 9.38337E-05-2.30679E-05-3.03553E-05-4.41184E-06-9.73840E-19 6.13837E-19
 -1      1661 9.53245E-05-2.74408E-05-2.90724E-05-1.47940E-06-1.45988E-18-2.17115E-19
 -1      1662 9.49951E-05-2.64362E-05-2.93928E-05-1.84517E-06-1.46575E-18 1.14035E-20
 -1      1663 9.49920E-05-2.56904E-05-2.97399E-05-3.65375E-06-1.02991E-18 7.37663E-19
 -1      1664 9.61873E-05-2.75774E-05-2.94135E-05-2.85844E-06-7.43262E-19 3.78422E-19
 -1      1665 2.17887E-05-7.11103E-05 1.48239E-05-6.87469E-06 3.19204E-18 6.50945E-19
 -1      1666 2.52426E-05-8.12243E-05 1.70019E-05 1.78308E-06 4.88717E-18-1.61804E-18
 -1      1667 1.97093E-05-4.20987E-05 5.04523E-06 1.00021E-06 4.48843E-18 2.73020E-18
 -1      1668 2.48173E-05-6.54996E-05 1.09117E-05-2.38694E-06 3.40253E-18 2.09196E-18
 -1      1669 3.65788E-05-1.50202E-05-1.11280E-05 2.83931E-05 5.92923E-18 5.71917E-18
 -1      1670 3.10660E-05-3.63027E-05-2.33970E-06 1.08208E-05 4.11319E-18 3.56982E-18
 -1      1671 7.30273E-05-9.85033E-07-3.00258E-05 5.93728E-05 7.85030E-18 1.04448E-17
 -1      1672 4.96110E-05-8.17707E-06-2.00393E-05 3.60652E-05 6.36206E-18 6.90332E-18
 -1      1673 1.35957E-04-1.42937E-05-4.88520E-05 7.84030E-05 6.96007E-18 9.43341E-18
 -1      1674 9.53874E-05-2.52395E-06-3.93817E-05 6.49883E-05 8.09425E-18 9.01751E-18
 -1      1675 2.04665E-04-4.21785E-05-6.44092E-05 6.31616E-05 4.73756E-18 8.33650E-18
 -1      1676 1.60998E-04-2.16497E-05-5.67801E-05 7.10964E-05 6.10330E-18 9.58418E-18
 -1      1677 2.50585E-04-6.26955E-05-7.38508E-05 2.79226E-05 2.73549E-18 2.84052E-18
 -1      1678 2.24955E-04-4.81947E-05-7.03269E-05 5.71111E-05 4.56593E-18 6.61025E-18
 -1      1679 2.46991E-04-6.00154E-05-7.40402E-05-2.36777E-05 4.58245E-19 6.09864E-20
 -1      1680 2.51848E-04-6.27197E-05-7.47622E-05 1.09413E-05 7.87317E-19 9.78323E-19
 -1      1681 2.07191E-04-4.02156E-05-6.66379E-05-6.58818E-05 1.58173E-18-1.71609E-18
 -1      1682 2.41134E-04-5.87631E-05-7.17307E-05-4.15231E-05 5.11714E-19-1.00416E-18
 -1      1683 1.39940E-04-1.34207E-05-5.18807E-05-7.51622E-05 2.34374E-18-3.12470E-18
 -1      1684 1.85193E-04-3.30984E-05-6.01361E-05-7.48527E-05 1.47723E-18-2.09471E-18
 -1      1685 7.49662E-05-1.45364E-06-3.22789E-05-5.44866E-05 3.89127E-18-2.70542E-18
 -1      1686 1.13459E-04-7.43047E-06-4.28038E-05-7.46025E-05 2.25480E-18-2.79690E-18
 -1      1687 3.74033E-05-1.59102E-05-1.26237E-05-2.35478E-05 4.06068E-18-2.88754E-18
 -1      1688 5.35860E-05-1.79248E-06-2.24238E-05-4.67058E-05 3.80995E-18-3.02221E-18
 -1      1689 2.64999E-05-4.74653E-05 3.68529E-06-3.86148E-06 1.11554E-18-2.31261E-18
 -1      1690 2.66795E-05-2.33905E-05-4.24901E-06-1.64764E-05 3.17807E-18-3.42413E-18
 -1      1691 2.44844E-05-7.34420E-05 1.42798E-05 1.35196E-06-2.35433E-18-7.85094E-19
 -1      1692 1.86447E-05-5.41087E-05 9.96159E-06 4.48096E-06-6.94567E-20-1.62768E-18
 -1      1693 2.33855E-05-7.77653E-05 1.66179E-05-5.43090E-06-2.35412E-18-1.63054E-19
 -1      1694 2.31283E-05-7.67947E-05 1.64202E-05 4.76640E-06-2.11292E-18 2.10488E-19
 -1      1695 1.87226E-05-5.66260E-05 1.06977E-05-6.49193E-06-2.23363E-18-3.85982E-19
 -1      1696 2.45579E-05-7.50609E-05 1.48076E-05-2.41341E-06-1.72244E-18-6.70850E-19
 -1      1697 2.58314E-05-2.60876E-05-3.10182E-06 1.37508E-05-1.96512E-18-8.27551E-19
 -1      1698 2.62417E-05-4.96973E-05 4.56962E-06 2.27940E-06-1.79910E-18-5.02926E-19
 -1      1699 5.15512E-05-6.59935E-06-2.00700E-05 4.16123E-05-2.42929E-18-1.63223E-18
 -1      1700 3.82516E-05-2.06985E-05-1.10874E-05 2.11945E-05-2.51061E-18-1.47723E-18
 -1      1701 1.02890E-04-6.33786E-06-3.93979E-05 6.99367E-05-1.41200E-18-5.52265E-19
 -1      1702 6.91237E-05-3.77162E-06-2.92399E-05 4.92012E-05-2.79944E-18-1.01898E-18
 -1      1703 1.75413E-04-3.02746E-05-5.76156E-05 7.40968E-05-3.05779E-19-2.24294E-18
 -1      1704 1.29511E-04-1.22393E-05-4.85978E-05 7.02506E-05-5.84876E-19-1.46283E-18
 -1      1705 2.36117E-04-5.61578E-05-7.06502E-05 4.90931E-05-8.20351E-19-1.52974E-18
 -1      1706 1.98529E-04-3.65492E-05-6.48885E-05 6.86817E-05-8.92561E-19-2.07269E-18
 -1      1707 2.57609E-04-6.54337E-05-7.56837E-05-1.34680E-06-9.77476E-19-1.05085E-19
 -1      1708 2.46759E-04-5.93576E-05-7.40294E-05 3.35746E-05-1.43233E-18-1.57887E-18
 -1      1709 2.31802E-04-5.14263E-05-7.17617E-05-4.84662E-05-2.58536E-18 3.83664E-18
 -1      1710 2.53159E-04-6.33548E-05-7.47886E-05-1.72857E-05-1.24239E-18 1.06853E-18
 -1      1711 1.72962E-04-2.53169E-05-5.97552E-05-7.41917E-05-5.73547E-18 7.38613E-18
 -1      1712 2.17071E-04-4.69761E-05-6.70446E-05-6.24127E-05-4.06777E-18 4.71120E-18
 -1      1713 1.06375E-04-5.05194E-06-4.26073E-05-6.83395E-05-6.28075E-18 9.10815E-18
 -1      1714 1.48439E-04-1.83887E-05-5.18453E-05-7.96360E-05-6.11134E-18 9.02259E-18
 -1      1715 5.55193E-05-6.47338E-06-2.31177E-05-4.03227E-05-5.55400E-18 7.05748E-18
 -1      1716 8.27493E-05-2.37155E-06-3.32606E-05-6.36025E-05-6.47726E-18 8.99549E-18
 -1      1717 3.01278E-05-3.08814E-05-4.25608E-06-1.12544E-05 4.33681E-19 3.85485E-18
 -1      1718 3.74976E-05-9.56699E-06-1.36658E-05-3.11579E-05-4.54518E-18 7.11762E-18
 -1      1719 2.57604E-05-6.29708E-05 9.98033E-06 1.10613E-07 6.78558E-18 7.78132E-19
 -1      1720 2.14532E-05-3.85684E-05 3.27142E-06-5.00230E-06 1.62461E-18 3.08828E-18
 -1      1721 2.47899E-05-7.98843E-05 1.67854E-05-1.49164E-06 5.06833E-18-2.35009E-18
 -1      1722 2.09741E-05-6.89950E-05 1.45268E-05 6.94840E-06 6.33072E-18-1.70804E-18
 -1      1723 1.12057E-04-2.99805E-05-3.42287E-05 4.73349E-05 4.11954E-18 5.89704E-18
 -1      1724 7.27447E-05-3.68187E-05-1.67327E-05 3.99965E-05 3.70153E-18 6.55095E-18
 -1      1725 9.54044E-05-2.83790E-05-2.87400E-05 3.54643E-07-4.78498E-18-9.61920E-19
 -1      1726 9.55561E-05-2.79354E-05-2.89943E-05 1.20139E-06-1.07823E-19 1.48789E-18
 -1      1727 1.93227E-05-5.20344E-05 9.37598E-06 1.32579E-05 4.46344E-18 1.40375E-18
 -1      1728 4.07373E-05-4.41761E-05-1.46687E-06 2.92001E-05 3.61514E-18 3.28021E-18
 -1      1729 1.26193E-05-5.42573E-05 1.29141E-05-1.57433E-07 3.88375E-18-2.61098E-18
 -1      1730 1.56548E-04-3.10573E-05-5.07913E-05 4.20806E-05 4.55725E-18 5.97328E-18
 -1      1731 1.91395E-04-3.31399E-05-6.36768E-05 2.70263E-05 5.35918E-18 4.37450E-18
 -1      1732 2.10242E-04-3.36228E-05-7.02765E-05 9.79649E-06 3.66215E-18 2.16046E-18
 -1      1733 2.06702E-04-3.34390E-05-6.89867E-05-1.49194E-05 1.16552E-18-1.07764E-18
 -1      1734 1.84247E-04-3.28009E-05-6.05798E-05-3.66221E-05 1.40157E-18-8.76679E-19
 -1      1735 1.41605E-04-2.94719E-05-4.57207E-05-4.68001E-05 1.34001E-18-1.30867E-18
 -1      1736 9.50287E-05-3.06637E-05-2.76279E-05-4.46188E-05 2.31240E-18-1.46791E-18
 -1      1737 5.67472E-05-3.81006E-05-1.01811E-05-3.49333E-05 8.17387E-19-1.54520E-18
 -1      1738 2.89565E-05-4.54190E-05 3.58268E-06-2.29673E-05-6.28922E-19-3.19691E-18
 -1      1739 1.44906E-05-5.28435E-05 1.17020E-05-7.20375E-06-1.79889E-18-8.19928E-19
 -1      1740 1.38703E-05-5.31629E-05 1.20181E-05 4.93748E-06-1.11681E-18-1.94394E-19
 -1      1741 2.78271E-05-4.65150E-05 4.36297E-06 2.05479E-05-1.06599E-18 4.21399E-20
 -1      1742 5.61366E-05-4.03513E-05-8.94642E-06 3.35162E-05-8.23316E-19-9.07808E-19
 -1      1743 9.16997E-05-3.39797E-05-2.52214E-05 4.20862E-05-1.92869E-18-3.93870E-20
 -1      1744 1.36284E-04-3.19413E-05-4.28217E-05 4.43257E-05-3.46860E-19-1.15196E-19
 -1      1745 1.79112E-04-3.38185E-05-5.84032E-05 3.58317E-05-4.40298E-19-7.29295E-19
 -1      1746 2.08104E-04-3.55915E-05-6.86020E-05 1.85485E-05-1.04291E-18-1.18669E-18
 -1      1747 2.11720E-04-3.34607E-05-7.09118E-05-4.42156E-06-2.51315E-18 4.86409E-19
 -1      1748 1.97414E-04-3.27725E-05-6.56345E-05-2.54698E-05-4.43930E-18 2.29969E-18
 -1      1749 1.65392E-04-3.19606E-05-5.36502E-05-4.22485E-05-4.24872E-18 3.71339E-18
 -1      1750 1.20935E-04-3.10900E-05-3.71822E-05-4.71891E-05-2.92735E-18 5.64886E-18
 -1      1751 7.72223E-05-3.47806E-05-1.92616E-05-4.06248E-05-1.04185E-18 5.47776E-18
 -1      1752 4.31886E-05-4.33611E-05-3.00908E-06-2.90614E-05 2.05998E-18 5.63298E-18
 -1      1753 2.08759E-05-4.97024E-05 8.36298E-06-1.61055E-05 4.00435E-18 1.35377E-18
 -1      1754 1.06047E-04-2.31689E-05-3.56026E-05-1.68560E-05-1.19903E-18 4.11467E-18
 -1      1755 8.91518E-05-1.05879E-05-3.37954E-05-1.33343E-05-1.39737E-18-1.80640E-18
 -1      1756 9.04794E-05-1.16309E-05-3.39346E-05-1.51431E-05-1.65714E-18-1.38789E-18
 -1      1757 9.24849E-05-1.38739E-05-3.38525E-05-1.60070E-05-1.67929E-18-7.82447E-19
 -1      1758 9.42014E-05-1.58199E-05-3.40963E-05-1.76676E-05-1.77984E-18-1.85288E-21
 -1      1759 9.34135E-05-1.63464E-05-3.30433E-05-1.37763E-05-1.70940E-18-1.00294E-18
 -1      1760 8.62145E-05-7.67653E-06-3.37300E-05-7.87002E-06-6.60955E-19-2.51346E-18
 -1      1761 8.66160E-05-7.97396E-06-3.37636E-05-9.25971E-06-8.31714E-19-2.44909E-18
 -1      1762 8.56006E-05-7.03984E-06-3.37282E-05-5.32439E-06-3.50397E-19-2.56593E-18
 -1      1763 8.58340E-05-7.21828E-06-3.37428E-05-6.62981E-06-4.96683E-19-2.54934E-18
 -1      1764 8.75990E-05-9.87084E-06-3.33437E-05-6.93484E-06-6.37857E-19-2.46042E-18
 -1      1765 8.52673E-05-6.68148E-06-3.37320E-05-2.89112E-06 3.14622E-20-2.49701E-18
 -1      1766 8.53876E-05-6.77610E-06-3.37377E-05-4.13167E-06-1.25639E-19-2.55240E-18
 -1      1767 8.69658E-05-9.15976E-06-3.33779E-05-4.54117E-06-2.59611E-19-2.45092E-18
 -1      1768 8.51372E-05-6.53357E-06-3.37356E-05-5.17894E-07 3.95818E-19-2.46673E-18
 -1      1769 8.51726E-05-6.56206E-06-3.37370E-05-1.72844E-06 2.32056E-19-2.50448E-18
 -1      1770 8.66352E-05-8.78130E-06-3.33984E-05-2.21913E-06 1.29700E-19-2.42105E-18
 -1      1771 8.51823E-05-6.57107E-06-3.37371E-05 1.84675E-06 7.03358E-19-2.38501E-18
 -1      1772 8.51408E-05-6.53818E-06-3.37355E-05 6.35164E-07 5.51120E-19-2.46403E-18
 -1      1773 8.65375E-05-8.66804E-06-3.34050E-05 6.54958E-08 4.93357E-19-2.41025E-18
 -1      1774 8.54123E-05-6.80094E-06-3.37377E-05 4.25463E-06 9.27446E-19-2.28732E-18
 -1      1775 8.52850E-05-6.70043E-06-3.37319E-05 3.01091E-06 8.10639E-19-2.33699E-18
 -1      1776 8.66527E-05-8.80102E-06-3.33975E-05 2.35150E-06 7.89031E-19-2.31638E-18
 -1      1777 8.58672E-05-7.25344E-06-3.37426E-05 6.71756E-06 1.18650E-18-2.06505E-18
 -1      1778 8.56302E-05-7.07154E-06-3.37281E-05 5.42960E-06 1.05814E-18-2.20226E-18
 -1      1779 8.69995E-05-9.19745E-06-3.33763E-05 4.65678E-06 1.06580E-18-2.15862E-18
 -1      1780 8.66777E-05-8.04213E-06-3.37626E-05 9.38040E-06 1.55813E-18-1.65555E-18
 -1      1781 8.62583E-05-7.72600E-06-3.37292E-05 7.95911E-06 1.37181E-18-1.90852E-18
 -1      1782 8.76492E-05-9.92900E-06-3.33413E-05 7.03361E-06 1.38367E-18-1.86173E-18
 -1      1783 8.80872E-05-9.38861E-06-3.38171E-05 1.22598E-05 1.80784E-18-1.07438E-18
 -1      1784 8.73486E-05-8.83121E-06-3.37454E-05 1.06667E-05 1.63454E-18-1.43902E-18
 -1      1785 8.87674E-05-1.11625E-05-3.32900E-05 9.50886E-06 1.69609E-18-1.45602E-18
 -1      1786 9.06284E-05-1.18396E-05-3.39265E-05 1.53081E-05 1.99067E-18 1.36584E-20
 -1      1787 8.92493E-05-1.07408E-05-3.37870E-05 1.35185E-05 1.86376E-18-6.41177E-19
 -1      1788 9.06616E-05-1.32236E-05-3.32064E-05 1.19812E-05 1.94136E-18-7.25298E-19
 -1      1789 9.58711E-05-1.70331E-05-3.39916E-05 1.76951E-05 1.88393E-18 2.05781E-18
 -1      1790 9.28524E-05-1.43422E-05-3.38256E-05 1.61987E-05 1.88524E-18 8.67997E-19
 -1      1791 9.39662E-05-1.68864E-05-3.30229E-05 1.38998E-05 2.00456E-18 4.98664E-19
 -1      1792 1.01919E-04-2.50927E-05-3.33576E-05 1.44261E-05 1.54933E-18 4.39758E-18
 -1      1793 9.80711E-05-1.96150E-05-3.36236E-05 1.69684E-05 1.70731E-18 2.89188E-18
 -1      1794 9.73238E-05-2.18528E-05-3.24260E-05 1.32531E-05 1.82783E-18 2.08412E-18
 -1      1795 9.87457E-05-2.61334E-05-3.13405E-05 9.43857E-06 1.49634E-18 3.89696E-18
 -1      1796 1.00150E-04-1.95612E-05-3.42164E-05-1.88733E-05-1.57207E-18 1.52424E-18
 -1      1797 9.53027E-05-2.72833E-05-2.91827E-05 4.07072E-06 1.27898E-18 3.13128E-18
 -1      1798 9.77343E-05-2.73888E-05-3.01922E-05 6.40461E-06 1.30872E-18 3.62079E-18
 -1      1799 9.75698E-05-2.56130E-05-3.08307E-05 8.76431E-06 1.55341E-18 2.52373E-18
 -1      1800 9.98095E-05-2.25400E-05-3.28345E-05-1.44721E-05-1.64978E-18 8.67415E-19
 -1      1801 9.69502E-05-2.69751E-05-2.98747E-05-5.70779E-06-1.33797E-18 6.85707E-19
 -1      1802 9.51420E-05-2.70317E-05-2.91636E-05-3.90018E-06-1.18012E-18 2.99016E-19
 -1      1803 9.43271E-05-2.72373E-05-2.86558E-05-2.42688E-06-1.00297E-18 2.24020E-19
 -1      1804 9.35521E-05-2.73156E-05-2.83506E-05-1.57768E-06-8.50858E-19-2.87462E-20
 -1      1805 9.55012E-05-2.65536E-05-2.95726E-05-4.47613E-06-1.29466E-18-3.72306E-19
 -1      1806 9.30228E-05-2.73617E-05-2.80817E-05-7.49321E-07-7.21970E-19-6.89869E-21
 -1      1807 9.27199E-05-2.74252E-05-2.79590E-05-3.10850E-07-5.35944E-19-2.03564E-19
 -1      1808 9.42875E-05-2.72222E-05-2.87643E-05-1.83937E-06-9.58788E-19-3.95564E-19
 -1      1809 9.24434E-05-2.74532E-05-2.78222E-05 1.44010E-07-4.38301E-19-2.69861E-19
 -1      1810 9.24099E-05-2.75289E-05-2.77916E-05 3.67499E-07-5.13242E-19-3.33750E-19
 -1      1811 9.35824E-05-2.75235E-05-2.83274E-05-3.72422E-07-6.38130E-19-5.04914E-19
 -1      1812 9.23051E-05-2.75599E-05-2.77329E-05 6.06297E-07-5.88914E-19-3.64290E-19
 -1      1813 9.24173E-05-2.76441E-05-2.77513E-05 7.09457E-07-3.87486E-19-4.58495E-19
 -1      1814 9.32591E-05-2.77085E-05-2.81053E-05 4.28228E-07-5.91903E-19-5.09988E-19
 -1      1815 9.24210E-05-2.76814E-05-2.77390E-05 8.19824E-07-3.17912E-19-3.52616E-19
 -1      1816 9.26058E-05-2.77669E-05-2.77829E-05 8.53022E-07-1.73126E-19-4.08284E-19
 -1      1817 9.31924E-05-2.78502E-05-2.80121E-05 8.37782E-07-3.77733E-19-4.45387E-19
 -1      1818 9.26732E-05-2.78077E-05-2.77975E-05 8.86438E-07-4.52791E-19-3.56092E-19
 -1      1819 9.28867E-05-2.78891E-05-2.78531E-05 8.79083E-07-5.21972E-19-4.50627E-19
 -1      1820 9.32842E-05-2.79719E-05-2.79961E-05 1.01268E-06-3.10664E-19-4.86917E-19
 -1      1821 9.29874E-05-2.79299E-05-2.78823E-05 8.67614E-07-7.02865E-19-3.44329E-19
 -1      1822 9.32039E-05-2.80039E-05-2.79412E-05 8.38214E-07-5.43708E-19-4.08050E-19
 -1      1823 9.34644E-05-2.80790E-05-2.80252E-05 1.04740E-06-6.35678E-19-7.91679E-19
 -1      1824 9.33185E-05-2.80423E-05-2.79773E-05 8.02820E-07-4.34082E-19-5.36302E-19
 -1      1825 9.35236E-05-2.81072E-05-2.80347E-05 7.63556E-07-3.32712E-19-7.44735E-19
 -1      1826 9.36864E-05-2.81722E-05-2.80789E-05 1.00229E-06-7.07319E-19-7.13198E-19
 -1      1827 9.36407E-05-2.81420E-05-2.80733E-05 7.18346E-07-5.45868E-19-9.61773E-19
 -1      1828 9.38280E-05-2.81976E-05-2.81267E-05 6.77472E-07-3.87112E-19-1.22207E-18
 -1      1829 9.39212E-05-2.82515E-05-2.81447E-05 9.17369E-07-6.41061E-19-6.81346E-19
 -1      1830 9.39416E-05-2.82283E-05-2.81653E-05 6.32182E-07-1.66843E-19-1.25278E-18
 -1      1831 9.41098E-05-2.82754E-05-2.82142E-05 5.95447E-07-7.91544E-20-1.28482E-18
 -1      1832 9.41526E-05-2.83177E-05-2.82150E-05 8.19926E-07-4.69460E-19-8.29391E-19
 -1      1833 9.42180E-05-2.83023E-05-2.82518E-05 5.57015E-07-5.24214E-20-1.45853E-18
 -1      1834 9.43698E-05-2.83423E-05-2.82968E-05 5.28615E-07-1.23645E-19-1.49049E-18
 -1      1835 9.43734E-05-2.83722E-05-2.82862E-05 7.29069E-07-2.41460E-19-1.17277E-18
 -1      1836 9.44738E-05-2.83662E-05-2.83337E-05 5.02265E-07-4.10608E-19-1.33923E-18
 -1      1837 9.46145E-05-2.84011E-05-2.83760E-05 4.85511E-07-4.62469E-19-1.18693E-18
 -1      1838 9.45833E-05-2.84169E-05-2.83571E-05 6.58741E-07-2.19037E-19-1.11895E-18
 -1      1839 9.47177E-05-2.84232E-05-2.84132E-05 4.75540E-07-6.05007E-19-1.36128E-18
 -1      1840 9.48551E-05-2.84555E-05-2.84551E-05 4.73365E-07-5.83661E-19-1.31190E-18
 -1      1841 9.47870E-05-2.84544E-05-2.84286E-05 6.19845E-07-6.37419E-19-1.13627E-18
 -1      1842 9.49627E-05-2.84773E-05-2.84944E-05 4.83734E-07-4.29849E-19-1.05403E-18
 -1      1843 9.51066E-05-2.85097E-05-2.85386E-05 4.99072E-07-1.04866E-19-1.42147E-18
 -1      1844 9.49935E-05-2.84876E-05-2.85033E-05 6.21796E-07-4.11402E-19-1.00332E-18
 -1      1845 9.52255E-05-2.85330E-05-2.85824E-05 5.33841E-07-3.97963E-20-1.68831E-18
 -1      1846 9.53877E-05-2.85690E-05-2.86324E-05 5.69915E-07 1.39041E-19-1.71140E-18
 -1      1847 9.52147E-05-2.85198E-05-2.85849E-05 6.73679E-07-4.10502E-19-6.83208E-19
 -1      1848 9.55264E-05-2.85961E-05-2.86836E-05 6.33547E-07 3.76663E-19-1.95317E-18
 -1      1849 9.57210E-05-2.86396E-05-2.87435E-05 6.94057E-07 1.72176E-19-1.70535E-18
 -1      1850 9.54660E-05-2.85548E-05-2.86783E-05 7.85080E-07 1.70302E-19-9.60250E-19
 -1      1851 9.58893E-05-2.86729E-05-2.88054E-05 7.91580E-07-2.95524E-19-1.87168E-18
 -1      1852 9.61328E-05-2.87286E-05-2.88800E-05 8.80766E-07-3.38019E-19-2.19996E-18
 -1      1853 9.57657E-05-2.85972E-05-2.87894E-05 9.66604E-07-1.48302E-19-1.71799E-18
 -1      1854 9.63422E-05-2.87713E-05-2.89565E-05 1.01774E-06-4.43161E-19-2.44281E-18
 -1      1855 9.66536E-05-2.88447E-05-2.90513E-05 1.14028E-06-1.88730E-19-2.47692E-18
 -1      1856 9.61349E-05-2.86524E-05-2.89248E-05 1.23001E-06-5.51191E-19-2.35968E-18
 -1      1857 9.69169E-05-2.89004E-05-2.91467E-05 1.32250E-06 8.68316E-20-2.70063E-18
 -1      1858 9.73179E-05-2.89982E-05-2.92677E-05 1.48310E-06-2.69609E-19-2.86577E-18
 -1      1859 9.65980E-05-2.87271E-05-2.90923E-05 1.58784E-06-2.52131E-19-2.59210E-18
 -1      1860 9.76492E-05-2.90715E-05-2.93865E-05 1.71577E-06-7.25968E-19-2.50693E-18
 -1      1861 9.81634E-05-2.92018E-05-2.95403E-05 1.91827E-06-3.28328E-19-2.61530E-18
 -1      1862 9.71821E-05-2.88301E-05-2.92995E-05 2.05214E-06-3.58823E-19-2.38670E-18
 -1      1863 9.85777E-05-2.92985E-05-2.96866E-05 2.20451E-06-4.41417E-20-2.48457E-18
 -1      1864 9.92299E-05-2.94708E-05-2.98798E-05 2.45012E-06 2.46334E-19-2.35347E-18
 -1      1865 9.79169E-05-2.89731E-05-2.95542E-05 2.63196E-06-2.08826E-19-2.31253E-18
 -1      1866 9.97426E-05-2.95986E-05-3.00569E-05 2.78808E-06 3.84015E-19-2.23239E-18
 -1      1867 1.00556E-04-2.98245E-05-3.02949E-05 3.07217E-06 2.93614E-19-2.15955E-18
 -1      1868 9.88339E-05-2.91727E-05-2.98626E-05 3.32849E-06 4.92736E-19-1.84507E-18
 -1      1869 1.01182E-04-2.99941E-05-3.05043E-05 3.45025E-06 3.24802E-19-2.40273E-18
 -1      1870 1.02172E-04-3.02872E-05-3.07897E-05 3.75701E-06 3.96822E-19-2.85895E-18
 -1      1871 9.99653E-05-2.94534E-05-3.02281E-05 4.12680E-06 5.40202E-19-1.96190E-18
 -1      1872 1.02925E-04-3.05140E-05-3.10293E-05 4.14612E-06 4.26521E-19-2.74073E-18
 -1      1873 1.04094E-04-3.08893E-05-3.13592E-05 4.44012E-06 3.48557E-19-2.58993E-18
 -1      1874 1.01343E-04-2.98520E-05-3.06487E-05 4.98237E-06 5.20073E-19-2.21262E-18
 -1      1875 1.04986E-04-3.11954E-05-3.16216E-05 4.78227E-06 2.17946E-19-2.60378E-18
 -1      1876 1.06308E-04-3.16677E-05-3.19836E-05 4.99679E-06 2.22184E-19-2.18286E-18
 -1      1877 1.02998E-04-3.04234E-05-3.11137E-05 5.80067E-06 6.04250E-19-1.63508E-18
 -1      1878 1.07347E-04-3.20830E-05-3.22540E-05 5.19054E-06-8.70980E-21-1.93261E-18
 -1      1879 1.08749E-04-3.26603E-05-3.26209E-05 5.21496E-06-1.43485E-19-1.72460E-18
 -1      1880 1.04954E-04-3.12447E-05-3.16009E-05 6.40965E-06 1.03307E-19-1.75203E-18
 -1      1881 1.09932E-04-3.32178E-05-3.28766E-05 5.10188E-06-2.59176E-19-1.84082E-18
 -1      1882 1.11273E-04-3.38858E-05-3.32027E-05 4.77669E-06-7.28882E-19-2.15551E-18
 -1      1883 1.07225E-04-3.24098E-05-3.20756E-05 6.52990E-06-4.62793E-19-1.31099E-18
 -1      1884 1.12573E-04-3.46011E-05-3.34158E-05 4.14252E-06-1.07783E-18-1.86231E-18
 -1      1885 1.13621E-04-3.52897E-05-3.36377E-05 3.28253E-06-9.98963E-19-1.33821E-18
 -1      1886 1.09787E-04-3.39922E-05-3.24949E-05 5.76036E-06-4.61153E-19-9.84952E-19
 -1      1887 1.14939E-04-3.61084E-05-3.37847E-05 1.90558E-06-9.30307E-19-1.35361E-18
 -1      1888 1.15369E-04-3.66398E-05-3.38344E-05 3.86512E-07-5.90011E-19-1.22143E-18
 -1      1889 1.12514E-04-3.59408E-05-3.28238E-05 3.62461E-06-8.08265E-19-4.19278E-19
 -1      1890 1.16468E-04-3.73530E-05-3.39124E-05-1.81844E-06-4.45897E-19-8.06868E-19
 -1      1891 1.15922E-04-3.74004E-05-3.37462E-05-3.88477E-06 6.70678E-20-4.52269E-19
 -1      1892 1.15056E-04-3.78901E-05-3.30629E-05-2.35315E-07-3.23004E-19 1.02629E-18
 -1      1893 1.16364E-04-3.75796E-05-3.37874E-05-6.59603E-06-1.01617E-19-5.87530E-19
 -1      1894 1.14617E-04-3.67389E-05-3.34272E-05-8.64028E-06 2.48922E-19-1.87274E-19
 -1      1895 1.16689E-04-3.89575E-05-3.32773E-05-5.63148E-06-5.20925E-19 6.30740E-19
 -1      1896 1.13905E-04-3.58790E-05-3.34938E-05-1.08471E-05 4.56349E-19-6.85786E-19
 -1      1897 1.11173E-04-3.40046E-05-3.30449E-05-1.18072E-05 1.30248E-18-8.49468E-19
 -1      1898 1.16377E-04-3.78556E-05-3.35908E-05-1.12024E-05 6.28955E-20 3.16529E-19
 -1      1899 1.09287E-04-3.20743E-05-3.31686E-05-1.19804E-05 7.21526E-19-1.58647E-18
 -1      1900 1.06451E-04-2.97756E-05-3.27790E-05-1.08246E-05 5.51974E-19-1.79963E-18
 -1      1901 1.13512E-04-3.39009E-05-3.40882E-05-1.41392E-05 5.76598E-19 4.54997E-19
 -1      1902 1.04434E-04-2.77940E-05-3.28961E-05-8.04587E-06 5.67327E-19-2.06550E-18
 -1      1903 1.02799E-04-2.64021E-05-3.26829E-05-4.81982E-06-4.69997E-19-2.18662E-18
 -1      1904 1.09179E-04-2.84975E-05-3.46445E-05-1.14633E-05 4.41807E-19-8.17149E-19
 -1      1905 1.02232E-04-2.59227E-05-3.26756E-05-1.52888E-07 5.53324E-19-2.21676E-18
 -1      1906 1.02643E-04-2.64254E-05-3.26855E-05 3.53393E-06 1.15501E-18-1.59544E-18
 -1      1907 1.06306E-04-2.51581E-05-3.49296E-05-3.06975E-06 3.25711E-19-1.60485E-18
 -1      1908 1.03920E-04-2.78330E-05-3.25233E-05 7.39991E-06 7.66446E-19-1.55002E-18
 -1      1909 1.06015E-04-2.98053E-05-3.27383E-05 9.55646E-06-4.38340E-20-1.28876E-18
 -1      1910 1.07144E-04-2.64593E-05-3.46950E-05 6.61980E-06 8.31972E-19-2.21259E-18
 -1      1911 1.07890E-04-3.18784E-05-3.25170E-05 1.06408E-05 8.11299E-21-6.48748E-19
 -1      1912 1.10435E-04-3.39666E-05-3.28469E-05 1.04935E-05 4.80833E-19 1.50190E-19
 -1      1913 1.10716E-04-3.12843E-05-3.40490E-05 1.20455E-05 7.64705E-19-1.43614E-18
 -1      1914 1.11458E-04-3.52852E-05-3.26642E-05 8.94343E-06 1.59904E-19-4.65974E-19
 -1      1915 1.13296E-04-3.64862E-05-3.29626E-05 7.17659E-06 6.16130E-19-7.74373E-19
 -1      1916 1.13983E-04-3.60914E-05-3.33299E-05 1.12297E-05 2.42621E-19 4.78534E-19
 -1      1917 1.13041E-04-3.66417E-05-3.28227E-05 4.44894E-06 3.99072E-19-1.28116E-18
 -1      1918 1.13672E-04-3.68131E-05-3.29565E-05 2.22650E-06 2.60344E-19-1.09326E-18
 -1      1919 1.14884E-04-3.83237E-05-3.27626E-05 6.27901E-06-1.11239E-20-5.14849E-19
 -1      1920 1.12511E-04-3.61854E-05-3.28065E-05-3.53507E-07 1.26565E-18-1.83161E-18
 -1      1921 1.12005E-04-3.56694E-05-3.27194E-05-2.20955E-06 1.40629E-18-3.79560E-19
 -1      1922 1.13417E-04-3.78975E-05-3.23447E-05 3.88546E-07 5.80443E-19-1.00474E-18
 -1      1923 1.10440E-04-3.47518E-05-3.25150E-05-4.01072E-06 8.30258E-19 5.11446E-19
 -1      1924 1.09138E-04-3.39265E-05-3.22320E-05-5.18104E-06 6.60236E-19 1.40109E-18
 -1      1925 1.10565E-04-3.59883E-05-3.19628E-05-4.36744E-06 1.64276E-18 2.43486E-19
 -1      1926 1.07505E-04-3.30184E-05-3.19688E-05-6.10612E-06 2.71825E-19 2.22126E-18
 -1      1927 1.05792E-04-3.21259E-05-3.15634E-05-6.59406E-06 2.12534E-19 2.48483E-18
 -1      1928 1.07233E-04-3.36857E-05-3.15319E-05-7.27975E-06 6.32727E-19 2.19898E-18
 -1      1929 1.04253E-04-3.13296E-05-3.12699E-05-6.77295E-06-1.57473E-19 1.91500E-18
 -1      1930 1.02457E-04-3.04836E-05-3.08297E-05-6.69013E-06-2.51769E-19 1.81448E-18
 -1      1931 1.03947E-04-3.15453E-05-3.10440E-05-8.42754E-06-6.06315E-20 2.43117E-18
 -1      1932 1.01077E-04-2.97965E-05-3.05461E-05-6.28300E-06-5.01255E-19 2.25206E-18
 -1      1933 9.94544E-05-2.90485E-05-3.01505E-05-5.72863E-06-1.39403E-19 2.01666E-18
 -1      1934 1.00947E-04-2.97093E-05-3.05450E-05-8.13096E-06-1.90300E-19 2.94182E-18
 -1      1935 9.84011E-05-2.85430E-05-2.99282E-05-4.89325E-06-2.20090E-19 1.27373E-18
 -1      1936 9.71236E-05-2.79450E-05-2.96148E-05-3.97924E-06-8.60400E-20 7.02074E-19
 -1      1937 9.65489E-05-2.72076E-05-2.97284E-05-4.67547E-06-1.10075E-18 1.59936E-18
 -1      1938 9.84532E-05-2.82170E-05-3.01156E-05-6.74323E-06-4.30326E-19 2.38129E-18
 -1      1939 9.32007E-05-2.73595E-05-2.81898E-05 1.60966E-06 1.06536E-18 2.33951E-18
 -1      1940 9.43967E-05-2.74653E-05-2.86268E-05 2.68037E-06 1.12933E-18 2.81310E-18
 -1      1941 9.52216E-05-2.70448E-05-2.92240E-05 4.05898E-06 1.37901E-18 1.94736E-18
 -1      1942 9.21457E-05-2.73452E-05-2.77471E-05 3.53629E-07 9.23818E-19 1.75131E-18
 -1      1943 9.26417E-05-2.73780E-05-2.79200E-05 9.01332E-07 9.04843E-19 2.06839E-18
 -1      1944 9.36149E-05-2.73653E-05-2.83995E-05 1.59108E-06 1.18102E-18 1.57608E-18
 -1      1945 9.17670E-05-2.73819E-05-2.75779E-05-2.98684E-07 5.50047E-19 1.43767E-18
 -1      1946 9.18840E-05-2.73558E-05-2.76255E-05-6.77781E-09 6.96546E-19 1.64287E-18
 -1      1947 9.27812E-05-2.74798E-05-2.79963E-05 2.79312E-07 8.55465E-19 1.08069E-18
 -1      1948 9.17867E-05-2.74712E-05-2.75537E-05-6.23282E-07 2.95343E-19 9.06651E-19
 -1      1949 9.17011E-05-2.74100E-05-2.75380E-05-4.71101E-07 4.37931E-19 1.19321E-18
 -1      1950 9.24643E-05-2.75719E-05-2.78211E-05-4.12886E-07 6.11608E-19 5.03086E-19
 -1      1951 9.20266E-05-2.75917E-05-2.76079E-05-7.60269E-07 6.91638E-19 4.92149E-19
 -1      1952 9.18384E-05-2.75138E-05-2.75600E-05-6.89531E-07 2.91352E-19 8.10859E-19
 -1      1953 9.24644E-05-2.76759E-05-2.77747E-05-7.56774E-07 5.00272E-19-1.70548E-20
 -1      1954 9.23755E-05-2.77243E-05-2.77025E-05-7.87531E-07 4.76209E-19 1.63228E-19
 -1      1955 9.21428E-05-2.76419E-05-2.76398E-05-7.65473E-07 7.64072E-19 4.08179E-19
 -1      1956 9.26458E-05-2.77898E-05-2.78015E-05-8.97313E-07 8.57852E-19-3.18203E-19
 -1      1957 9.27644E-05-2.78559E-05-2.78141E-05-7.52293E-07 3.43976E-19-2.76349E-19
 -1      1958 9.25216E-05-2.77762E-05-2.77470E-05-7.58793E-07 4.39207E-19 1.61701E-20
 -1      1959 9.29202E-05-2.79052E-05-2.78677E-05-9.18457E-07 6.35479E-19-1.09419E-19
 -1      1960 9.31527E-05-2.79788E-05-2.79288E-05-6.84849E-07-2.82892E-19-1.37983E-19
 -1      1961 9.29194E-05-2.79057E-05-2.78632E-05-7.06806E-07-5.28610E-20-1.63570E-19
 -1      1962 9.32316E-05-2.80150E-05-2.79528E-05-8.72317E-07-4.90105E-23-2.90154E-19
 -1      1963 9.35184E-05-2.80890E-05-2.80390E-05-6.05332E-07 4.05800E-20 2.89038E-19
 -1      1964 9.33043E-05-2.80243E-05-2.79780E-05-6.33895E-07-2.18931E-19-6.22875E-20
 -1      1965 9.35468E-05-2.81150E-05-2.80441E-05-7.92814E-07-2.91315E-19-3.40669E-20
 -1      1966 9.38522E-05-2.81857E-05-2.81410E-05-5.27474E-07 4.01293E-19 2.25340E-19
 -1      1967 9.36606E-05-2.81296E-05-2.80859E-05-5.56489E-07 3.03267E-19 3.77221E-19
 -1      1968 9.38475E-05-2.82032E-05-2.81346E-05-7.02747E-07 1.93721E-19-1.30139E-19
 -1      1969 9.41539E-05-2.82699E-05-2.82345E-05-4.60924E-07 8.67206E-19 2.32578E-19
 -1      1970 9.39836E-05-2.82214E-05-2.81849E-05-4.85960E-07 6.72155E-19 3.53388E-19
 -1      1971 9.41267E-05-2.82798E-05-2.82210E-05-6.17858E-07 7.30160E-19-1.70391E-19
 -1      1972 9.44299E-05-2.83442E-05-2.83210E-05-4.12818E-07 5.42706E-19 3.02485E-20
 -1      1973 9.42764E-05-2.83016E-05-2.82758E-05-4.30503E-07 4.89144E-19 2.41146E-19
 -1      1974 9.43849E-05-2.83463E-05-2.83030E-05-5.49424E-07 6.45245E-19 1.25018E-19
 -1      1975 9.46914E-05-2.84122E-05-2.84039E-05-3.88884E-07-1.86813E-19 4.15984E-19
 -1      1976 9.45477E-05-2.83732E-05-2.83609E-05-3.96422E-07 1.65973E-19 9.56388E-20
 -1      1977 9.46283E-05-2.84053E-05-2.83820E-05-5.06016E-07 3.99368E-19-2.03414E-19
 -1      1978 9.49538E-05-2.84786E-05-2.84876E-05-3.94239E-07 5.72213E-21 6.04777E-20
 -1      1979 9.48108E-05-2.84405E-05-2.84444E-05-3.89059E-07 5.06611E-20 4.70815E-19
 -1      1980 9.48676E-05-2.84603E-05-2.84611E-05-4.94745E-07 1.85321E-20 7.11508E-20
 -1      1981 9.52360E-05-2.85490E-05-2.85779E-05-4.33922E-07 4.57049E-19-1.96018E-19
 -1      1982 9.50828E-05-2.85084E-05-2.85312E-05-4.13437E-07 9.86988E-20-2.21983E-19
 -1      1983 9.51170E-05-2.85157E-05-2.85445E-05-5.22132E-07 4.54745E-19 2.58184E-21
 -1      1984 9.55602E-05-2.86300E-05-2.86815E-05-5.13185E-07 1.30293E-19-3.88818E-19
 -1      1985 9.53840E-05-2.85829E-05-2.86276E-05-4.74651E-07 5.17099E-19-2.18975E-19
 -1      1986 9.53941E-05-2.85765E-05-2.86376E-05-5.94649E-07 5.81440E-19-3.30901E-19
 -1      1987 9.59522E-05-2.87292E-05-2.88062E-05-6.37486E-07-7.42585E-20-5.25939E-19
 -1      1988 9.57383E-05-2.86712E-05-2.87408E-05-5.77997E-07-1.37836E-19-5.17172E-19
 -1      1989 9.57196E-05-2.86488E-05-2.87467E-05-7.18926E-07 7.16194E-20-7.49162E-19
 -1      1990 9.64406E-05-2.88553E-05-2.89606E-05-8.12099E-07-1.48188E-19-5.18499E-19
 -1      1991 9.61727E-05-2.87812E-05-2.88790E-05-7.28754E-07-1.24039E-19-2.09669E-19
 -1      1992 9.61168E-05-2.87396E-05-2.88786E-05-9.01534E-07-3.38940E-19-5.82193E-19
 -1      1993 9.70565E-05-2.90183E-05-2.91537E-05-1.04118E-06-2.00908E-19-2.50261E-19
 -1      1994 9.67168E-05-2.89224E-05-2.90508E-05-9.31507E-07-2.49009E-19-4.70002E-19
 -1      1995 9.66118E-05-2.88571E-05-2.90411E-05-1.14821E-06-2.82846E-19-3.29363E-19
 -1      1996 9.78323E-05-2.92294E-05-2.93948E-05-1.32600E-06 8.90874E-19-3.85211E-19
 -1      1997 9.74025E-05-2.91053E-05-2.92655E-05-1.18879E-06 4.74593E-19-8.70855E-20
 -1      1998 9.72321E-05-2.90114E-05-2.92417E-05-1.46229E-06 3.55614E-19-3.97307E-19
 -1      1999 9.87984E-05-2.95007E-05-2.96919E-05-1.66206E-06 1.73750E-19-1.48677E-18
 -1      2000 9.82616E-05-2.93420E-05-2.95316E-05-1.49875E-06 6.91065E-19-8.17328E-19
 -1      2001 9.80056E-05-2.92138E-05-2.94874E-05-1.84196E-06 8.66167E-19-1.07515E-18
 -1      2002 9.99792E-05-2.98448E-05-3.00504E-05-2.03449E-06-6.41016E-19-2.58304E-18
 -1      2003 9.93223E-05-2.96451E-05-2.98561E-05-1.85139E-06-7.55476E-19-2.34551E-18
 -1      2004 9.89578E-05-2.94778E-05-2.97832E-05-2.27593E-06-3.68161E-19-1.78169E-18
 -1      2005 1.01385E-04-3.02732E-05-3.04705E-05-2.41130E-06-9.71816E-19-9.86803E-19
 -1      2006 1.00604E-04-3.00277E-05-3.02420E-05-2.22301E-06-9.03581E-19-1.81927E-18
 -1      2007 1.00108E-04-2.98188E-05-3.01307E-05-2.73685E-06-1.21530E-18-1.57277E-18
 -1      2008 1.03002E-04-3.07943E-05-3.09430E-05-2.73451E-06-2.30246E-21-3.03891E-19
 -1      2009 1.02110E-04-3.05017E-05-3.06855E-05-2.56841E-06-8.29309E-19-7.99728E-19
 -1      2010 1.01461E-04-3.02536E-05-3.05250E-05-3.17236E-06-9.09773E-19-1.13712E-18
 -1      2011 1.04776E-04-3.14084E-05-3.14451E-05-2.90990E-06 6.94687E-19 6.24642E-19
 -1      2012 1.03810E-04-3.10740E-05-3.11718E-05-2.81154E-06 1.12281E-18 3.69300E-19
 -1      2013 1.03002E-04-3.07987E-05-3.09520E-05-3.49399E-06 6.73655E-19-5.54416E-19
 -1      2014 1.06593E-04-3.21001E-05-3.19350E-05-2.79978E-06-7.98845E-19-2.84669E-19
 -1      2015 1.05630E-04-3.17409E-05-3.16704E-05-2.83699E-06-5.07735E-19 6.84244E-21
 -1      2016 1.04681E-04-3.14643E-05-3.13848E-05-3.56681E-06-6.50896E-20 6.54244E-19
 -1      2017 1.08260E-04-3.28236E-05-3.23488E-05-2.22804E-06 7.23727E-19 4.49986E-22
 -1      2018 1.07426E-04-3.24760E-05-3.21309E-05-2.48899E-06 9.61349E-21-1.05389E-19
 -1      2019 1.06393E-04-3.22431E-05-3.17818E-05-3.20706E-06 2.83094E-20 2.39763E-19
 -1      2020 1.09493E-04-3.34822E-05-3.26036E-05-1.01500E-06 1.08034E-18 1.35593E-19
 -1      2021 1.08965E-04-3.32108E-05-3.24823E-05-1.59128E-06 9.97954E-19 1.11962E-19
 -1      2022 1.07965E-04-3.30855E-05-3.20882E-05-2.20232E-06 1.18931E-18 8.52769E-19
 -1      2023 1.09926E-04-3.39034E-05-3.26117E-05 9.34434E-07-3.62385E-19 1.13888E-19
 -1      2024 1.09917E-04-3.38074E-05-3.26405E-05-7.98319E-09 1.59262E-19 1.07696E-19
 -1      2025 1.09131E-04-3.38633E-05-3.22447E-05-3.77341E-07 4.32027E-19 1.03357E-18
 -1      2026 1.09170E-04-3.38338E-05-3.23112E-05 3.47564E-06-3.73191E-19-5.93856E-19
 -1      2027 1.09876E-04-3.40368E-05-3.25285E-05 2.23552E-06-3.27511E-19 4.38340E-20
 -1      2028 1.09537E-04-3.43294E-05-3.22052E-05 2.27072E-06-2.43601E-19 9.87865E-20
 -1      2029 1.06968E-04-3.30042E-05-3.17053E-05 6.05260E-06-9.82188E-19 4.43739E-19
 -1      2030 1.08472E-04-3.36071E-05-3.21088E-05 4.78827E-06-8.41329E-19-1.58011E-19
 -1      2031 1.08800E-04-3.41335E-05-3.19601E-05 5.37565E-06-7.10939E-19 2.22346E-21
 -1      2032 1.03444E-04-3.13183E-05-3.08990E-05 7.67775E-06-2.10972E-19 1.57845E-18
 -1      2033 1.05587E-04-3.23043E-05-3.14224E-05 6.87027E-06-4.69127E-19 1.62509E-18
 -1      2034 1.06691E-04-3.29546E-05-3.15570E-05 8.05618E-06-8.81239E-19 1.57941E-18
 -1      2035 9.93277E-05-2.90905E-05-3.00861E-05 7.26177E-06 5.60372E-19 1.37301E-18
 -1      2036 1.01643E-04-3.02315E-05-3.06050E-05 7.43245E-06 3.19058E-19 1.97216E-18
 -1      2037 1.03441E-04-3.08216E-05-3.10993E-05 9.04874E-06 3.69076E-19 2.54723E-18
 -1      2038 9.59706E-05-2.71691E-05-2.94876E-05 4.36374E-06 3.67745E-19 1.36675E-18
 -1      2039 9.77444E-05-2.80319E-05-2.98563E-05 5.69686E-06 3.07063E-19 1.13665E-18
 -1      2040 9.99658E-05-2.83576E-05-3.07015E-05 7.30209E-06 5.74864E-19 2.77888E-18
 -1      2041 9.47520E-05-2.65200E-05-2.92666E-05-1.37827E-07-1.51983E-18 1.85367E-18
 -1      2042 9.53411E-05-2.67019E-05-2.93781E-05 1.91113E-06-5.51246E-19 1.97269E-18
 -1      2043 9.76751E-05-2.67185E-05-3.04531E-05 2.92485E-06-7.82050E-19 2.43377E-18
 -1      2044 9.61382E-05-2.74647E-05-2.94607E-05-4.35134E-06 1.19557E-19 2.94247E-18
 -1      2045 9.53598E-05-2.69016E-05-2.92952E-05-2.45901E-06-8.73529E-19 1.88875E-18
 -1      2046 9.76029E-05-2.67805E-05-3.03935E-05-2.42414E-06-1.21314E-18 3.42627E-18
 -1      2047 9.93354E-05-2.94331E-05-2.99701E-05-6.57438E-06-1.16851E-18 3.20802E-18
 -1      2048 9.75861E-05-2.84368E-05-2.96045E-05-5.58050E-06-4.86078E-19 2.74944E-18
 -1      2049 9.96243E-05-2.84549E-05-3.05110E-05-6.45938E-06-7.06776E-19 3.08564E-18
 -1      2050 1.02836E-04-3.14166E-05-3.05966E-05-6.28642E-06-7.02270E-19 4.37138E-18
 -1      2051 1.00854E-04-3.04458E-05-3.01701E-05-6.38769E-06-9.35760E-19 3.96725E-18
 -1      2052 1.02572E-04-3.07862E-05-3.07488E-05-7.72469E-06-1.37062E-18 2.91716E-18
 -1      2053 1.05341E-04-3.26668E-05-3.11216E-05-4.17509E-06-6.35936E-20 3.67704E-18
 -1      2054 1.03804E-04-3.20423E-05-3.07757E-05-5.05717E-06-4.74008E-19 3.94872E-18
 -1      2055 1.05068E-04-3.26619E-05-3.10099E-05-6.30162E-06-1.83512E-19 3.85226E-18
 -1      2056 1.06280E-04-3.29930E-05-3.13846E-05-1.39712E-06 3.73687E-20 2.45222E-18
 -1      2057 1.05545E-04-3.27989E-05-3.12121E-05-2.56784E-06-1.20001E-19 2.55230E-18
 -1      2058 1.06285E-04-3.34999E-05-3.11817E-05-3.34146E-06 1.29470E-19 3.62979E-18
 -1      2059 1.05721E-04-3.25827E-05-3.13285E-05 1.10747E-06 1.26420E-18 2.98919E-18
 -1      2060 1.05818E-04-3.27443E-05-3.13536E-05 4.24283E-08 7.92128E-19 2.83348E-18
 -1      2061 1.06099E-04-3.33398E-05-3.11800E-05-1.34330E-07 1.21526E-18 3.27663E-18
 -1      2062 1.04072E-04-3.17322E-05-3.09935E-05 2.84475E-06 1.07843E-18 2.35865E-18
 -1      2063 1.04817E-04-3.21221E-05-3.11834E-05 2.09578E-06 1.62404E-18 4.27960E-18
 -1      2064 1.04805E-04-3.25224E-05-3.09811E-05 2.45040E-06 1.64193E-18 3.77135E-18
 -1      2065 1.01829E-04-3.06938E-05-3.04815E-05 3.67256E-06 2.22481E-18 1.08635E-18
 -1      2066 1.02954E-04-3.11927E-05-3.07709E-05 3.30801E-06 1.43973E-18 1.42327E-18
 -1      2067 1.02835E-04-3.13950E-05-3.06217E-05 4.03133E-06 2.17726E-18 3.19559E-18
 -1      2068 9.94568E-05-2.96390E-05-2.99180E-05 3.61987E-06 1.41428E-18 1.75026E-18
 -1      2069 1.00683E-04-3.01532E-05-3.02311E-05 3.64276E-06 1.94548E-18 1.24810E-18
 -1      2070 1.00592E-04-3.01912E-05-3.01771E-05 4.54669E-06 1.95164E-18 2.29468E-18
 -1      2071 9.73500E-05-2.86949E-05-2.94157E-05 2.77504E-06 2.05500E-18 3.18477E-18
 -1      2072 9.84234E-05-2.91492E-05-2.96858E-05 3.16993E-06 1.84494E-18 2.83974E-18
 -1      2073 9.84060E-05-2.90513E-05-2.97310E-05 4.07700E-06 1.93930E-18 3.44593E-18
 -1      2074 9.60162E-05-2.80970E-05-2.90922E-05 1.72940E-06 6.74953E-19 2.87443E-18
 -1      2075 9.68008E-05-2.84192E-05-2.93013E-05 2.36980E-06 2.37905E-18 3.66113E-18
 -1      2076 9.68181E-05-2.82177E-05-2.94109E-05 3.13786E-06 2.34254E-18 6.24672E-18
 -1      2077 9.58087E-05-2.76428E-05-2.92113E-05 2.15750E-06 1.65850E-18 5.54124E-18
 -1      2078 9.34803E-05-2.17254E-05-3.07484E-05 5.83058E-06 1.68363E-18 4.77488E-19
 -1      2079 9.40938E-05-2.32109E-05-3.03644E-05 5.51510E-06 9.53420E-19 1.55927E-18
 -1      2080 9.45557E-05-2.42542E-05-3.01169E-05 4.97196E-06 1.79197E-18 2.61445E-18
 -1      2081 9.50680E-05-2.55051E-05-2.97964E-05 4.39841E-06 9.08859E-19 6.18489E-18
 -1      2082 9.48195E-05-2.44744E-05-3.01605E-05 6.57501E-06 2.13301E-19 1.84687E-18
 -1      2083 9.52756E-05-2.61241E-05-2.96221E-05 3.67088E-06 1.52283E-18 6.61970E-18
 -1      2084 9.56506E-05-2.70713E-05-2.93747E-05 2.93955E-06 1.59338E-18 5.67542E-18
 -1      2085 9.60925E-05-2.73186E-05-2.94649E-05 3.51994E-06 2.31930E-18 5.63399E-18
 -1      2086 9.56157E-05-2.61295E-05-2.97836E-05 5.15349E-06 5.92662E-19 6.05595E-18
 -1      2087 9.22750E-05-1.90174E-05-3.14088E-05 6.04120E-06 1.10736E-18-4.29187E-18
 -1      2088 9.29442E-05-2.05632E-05-3.10135E-05 6.04021E-06 1.39610E-18-1.47086E-18
 -1      2089 9.36292E-05-2.22170E-05-3.06129E-05 7.42426E-06 2.06032E-19-8.91252E-19
 -1      2090 9.10053E-05-1.63269E-05-3.20354E-05 5.44671E-06 7.19263E-19-1.00192E-18
 -1      2091 9.16760E-05-1.77886E-05-3.16689E-05 5.81853E-06 7.31502E-19-1.22004E-18
 -1      2092 9.22562E-05-1.97481E-05-3.10725E-05 7.42820E-06 8.39433E-19-2.78162E-18
 -1      2093 8.98919E-05-1.40981E-05-3.25265E-05 3.97719E-06-2.87859E-22 4.17270E-19
 -1      2094 9.04402E-05-1.52262E-05-3.22499E-05 4.72680E-06 6.72819E-19 1.28656E-19
 -1      2095 9.08299E-05-1.73282E-05-3.14839E-05 6.38522E-06 6.29676E-19-7.24584E-19
 -1      2096 8.91700E-05-1.27363E-05-3.28055E-05 1.76468E-06-1.27317E-18-2.31859E-18
 -1      2097 8.94775E-05-1.33286E-05-3.26642E-05 2.80614E-06-8.46315E-19-1.03170E-18
 -1      2098 8.96183E-05-1.53749E-05-3.17864E-05 4.26826E-06-9.55867E-19-8.03268E-19
 -1      2099 8.90272E-05-1.25382E-05-3.28245E-05-8.45609E-07-1.69251E-18-7.42332E-19
 -1      2100 8.90148E-05-1.24706E-05-3.28451E-05 3.14294E-07-8.15952E-19-2.12277E-18
 -1      2101 8.89076E-05-1.42887E-05-3.19373E-05 1.31875E-06-2.09444E-18-1.76647E-18
 -1      2102 8.95199E-05-1.35828E-05-3.25763E-05-3.37446E-06-1.91165E-18-2.31077E-18
 -1      2103 8.91810E-05-1.28492E-05-3.27588E-05-2.31182E-06-1.62843E-18-1.14043E-18
 -1      2104 8.88973E-05-1.43312E-05-3.19143E-05-1.96752E-06-1.64508E-18-1.81264E-18
 -1      2105 9.05292E-05-1.56514E-05-3.21065E-05-5.32688E-06 2.21261E-19-2.18512E-18
 -1      2106 8.99398E-05-1.43951E-05-3.24176E-05-4.56281E-06-3.41682E-19-1.24291E-18
 -1      2107 8.96062E-05-1.55066E-05-3.17230E-05-4.95394E-06 3.28485E-19-6.25937E-19
 -1      2108 9.18856E-05-1.84494E-05-3.14725E-05-6.44724E-06 3.67467E-19 3.09014E-18
 -1      2109 9.11370E-05-1.68320E-05-3.18741E-05-6.07707E-06 5.37552E-19-5.91351E-20
 -1      2110 9.08672E-05-1.75808E-05-3.13900E-05-7.12637E-06 1.01769E-18-1.33834E-18
 -1      2111 9.33499E-05-2.14981E-05-3.07788E-05-6.55792E-06 1.41234E-18 2.15151E-18
 -1      2112 9.25626E-05-1.97843E-05-3.12034E-05-6.64080E-06 8.45117E-19 2.35894E-18
 -1      2113 9.24490E-05-2.01953E-05-3.09624E-05-8.17347E-06 1.47926E-18 2.32299E-18
 -1      2114 9.47790E-05-2.44261E-05-3.01371E-05-5.69604E-06-8.18967E-19 2.59784E-20
 -1      2115 9.39983E-05-2.28092E-05-3.05124E-05-6.20275E-06-1.45584E-20-2.93191E-19
 -1      2116 9.40971E-05-2.29335E-05-3.05053E-05-7.98114E-06 5.69461E-19 1.54182E-19
 -1      2117 5.77643E-05-4.13662E-05-7.42089E-06 4.13604E-05 1.53736E-18 2.51137E-18
 -1      2118 4.22601E-05-4.29369E-05-1.05581E-06 3.28362E-05 2.01636E-18 1.21740E-18
 -1      2119 1.32313E-05-3.55787E-05 8.24006E-06 5.98738E-06 2.98981E-18-6.57721E-19
 -1      2120 1.32272E-05-3.46817E-05 8.02222E-06-4.80294E-06 2.02864E-18-2.13198E-18
 -1      2121 2.82460E-05-3.77285E-05 3.11411E-06 2.72653E-05 3.95861E-18 1.37452E-18
 -1      2122 1.97207E-05-3.90691E-05 6.72673E-06 1.82126E-05 4.12166E-18 7.49624E-19
 -1      2123 4.30062E-05-3.71304E-05-2.97631E-06 3.75576E-05 1.77877E-18-7.28872E-19
 -1      2124 9.49751E-05-4.28650E-05-2.22967E-05 4.37691E-05 1.41539E-18 5.72340E-18
 -1      2125 7.71028E-05-4.61016E-05-1.42725E-05 3.93948E-05 1.59835E-18 3.83049E-18
 -1      2126 1.31904E-04-4.22871E-05-3.78361E-05 3.81614E-05 2.29800E-18 2.22261E-18
 -1      2127 1.11760E-04-4.41352E-05-2.95850E-05 3.68028E-05 1.77877E-18 3.10099E-18
 -1      2128 8.72465E-05-8.72325E-06-3.37485E-05-1.05450E-05-1.02416E-18-2.29669E-18
 -1      2129 8.79534E-05-9.24327E-06-3.38204E-05-1.21007E-05-1.28134E-18-2.02561E-18
 -1      2130 9.04885E-05-1.30530E-05-3.32349E-05-1.18824E-05-1.44960E-18-1.73753E-18
 -1      2131 8.86867E-05-1.10576E-05-3.32945E-05-9.41986E-06-1.02409E-18-2.23880E-18
 -1      2132 1.78579E-04-2.80793E-05-6.28978E-05 1.13675E-05 5.52943E-18 9.69429E-19
 -1      2133 1.64088E-04-2.84711E-05-5.76191E-05 1.36501E-05 4.76138E-18 1.34339E-18
 -1      2134 1.78505E-04-2.20951E-05-6.61255E-05 5.92528E-07 3.35256E-18 1.08277E-18
 -1      2135 1.79578E-04-2.47189E-05-6.52575E-05 7.90253E-06 4.71162E-18 1.89185E-18
 -1      2136 1.58099E-04-1.72043E-05-5.94235E-05-9.47350E-07 4.29827E-18-1.07171E-18
 -1      2137 1.76902E-04-2.61319E-05-6.35114E-05-9.27158E-06 1.24429E-18 2.76556E-19
 -1      2138 1.78597E-04-2.35293E-05-6.55681E-05-1.27195E-06 1.82620E-18 1.13397E-18
 -1      2139 1.61103E-04-3.23251E-05-5.46735E-05-2.16834E-05 7.32842E-19 4.65868E-20
 -1      2140 1.76147E-04-3.22255E-05-6.04433E-05-1.60929E-05 1.06281E-18-2.14723E-19
 -1      2141 1.31900E-04-3.90530E-05-4.00253E-05-3.16687E-05 6.02876E-19-2.50298E-19
 -1      2142 1.53022E-04-3.81406E-05-4.81817E-05-3.04343E-05 4.88950E-19 7.28448E-20
 -1      2143 9.87500E-05-4.56853E-05-2.35375E-05-3.69779E-05 1.53567E-18-5.50571E-19
 -1      2144 1.19605E-04-4.36303E-05-3.21006E-05-3.92471E-05 1.38405E-18 3.08320E-19
 -1      2145 6.45965E-05-4.44165E-05-9.54419E-06-3.81675E-05-8.42798E-19-1.22912E-18
 -1      2146 8.24111E-05-4.25009E-05-1.71170E-05-4.27662E-05 4.01070E-19-5.30878E-19
 -1      2147 1.06227E-04-5.47500E-05-2.21144E-05-3.79061E-05-4.06999E-19-5.91653E-19
 -1      2148 3.05103E-05-3.77738E-05 2.04094E-06-2.70490E-05-1.52889E-18-2.94344E-18
 -1      2149 4.32643E-05-3.64450E-05-3.24807E-06-3.72500E-05-7.31836E-19-2.92692E-18
 -1      2150 1.25752E-05-3.76889E-05 9.03466E-06-6.79637E-06-1.20512E-18-1.87194E-19
 -1      2151 1.64564E-05-3.61898E-05 7.02861E-06-1.59221E-05-1.53334E-18-6.33581E-19
 -1      2152 1.60851E-05-3.62460E-05 7.27111E-06 1.37233E-05-7.20402E-19 4.20975E-19
 -1      2153 1.24438E-05-3.73324E-05 8.94398E-06 4.23553E-06-1.23264E-18-3.64224E-20
 -1      2154 3.95816E-05-3.74829E-05-1.59269E-06 3.33491E-05-2.54957E-19-2.02017E-19
 -1      2155 2.72317E-05-3.97404E-05 3.75559E-06 2.32483E-05-2.74015E-19 1.55854E-19
 -1      2156 7.59983E-05-4.28423E-05-1.45407E-05 4.11802E-05-7.70376E-19-1.43318E-18
 -1      2157 5.88883E-05-4.44794E-05-7.39584E-06 3.55754E-05-5.77676E-19-4.36195E-19
 -1      2158 1.14651E-04-4.40213E-05-3.00053E-05 3.95703E-05-1.53271E-18 1.26462E-18
 -1      2159 9.50023E-05-4.62350E-05-2.18351E-05 3.63861E-05-1.56955E-18 4.23093E-19
 -1      2160 1.49449E-04-4.20396E-05-4.52882E-05 2.87311E-05 3.43684E-19 3.86671E-19
 -1      2161 1.28947E-04-4.30177E-05-3.71711E-05 3.07778E-05-6.09864E-20 5.04408E-19
 -1      2162 1.75700E-04-3.47674E-05-5.89604E-05 1.66336E-05 5.01020E-19-1.68136E-19
 -1      2163 1.58714E-04-3.53950E-05-5.25079E-05 1.98413E-05 6.34216E-19 4.18434E-19
 -1      2164 1.85666E-04-2.77133E-05-6.63820E-05 3.65477E-06-5.06102E-19-1.37431E-19
 -1      2165 1.79735E-04-2.90174E-05-6.33837E-05 1.16690E-05 1.42725E-19 1.64324E-19
 -1      2166 1.78516E-04-2.27814E-05-6.59195E-05-5.23958E-06-3.43218E-18 1.57612E-18
 -1      2167 1.82492E-04-2.37785E-05-6.67177E-05 4.62945E-07-2.43903E-18 7.80329E-20
 -1      2168 1.68921E-04-2.96021E-05-5.91964E-05-1.29550E-05-4.96044E-18 9.82135E-19
 -1      2169 1.77262E-04-2.73841E-05-6.33489E-05-6.82192E-06-4.20001E-18 8.09763E-19
 -1      2170 1.49165E-04-3.94535E-05-4.70511E-05-2.40121E-05-2.38683E-18 1.03677E-18
 -1      2171 1.65334E-04-3.78439E-05-5.39142E-05-1.94491E-05-3.50470E-18-3.34578E-19
 -1      2172 1.18808E-04-4.50904E-05-3.22169E-05-3.44846E-05 7.55130E-19 3.24329E-18
 -1      2173 1.39352E-04-4.36701E-05-4.04836E-05-3.48499E-05-6.11134E-19 2.63554E-18
 -1      2174 8.15839E-05-4.65590E-05-1.61639E-05-3.83679E-05 2.63088E-18 3.43133E-18
 -1      2175 1.01628E-04-4.43096E-05-2.45185E-05-4.29212E-05 1.28664E-18 3.56347E-18
 -1      2176 4.80291E-05-4.36688E-05-3.02200E-06-3.52077E-05 3.03407E-18 5.01052E-18
 -1      2177 6.32251E-05-4.21385E-05-9.61946E-06-4.07421E-05 2.09979E-18 4.94530E-18
 -1      2178 8.65816E-05-5.17580E-05-1.51650E-05-4.25638E-05 4.24067E-18 2.49880E-18
 -1      2179 1.87494E-05-3.93088E-05 7.07421E-06-1.63075E-05 2.35009E-18-1.69407E-21
 -1      2180 2.81975E-05-3.78241E-05 2.88798E-06-2.71062E-05 2.64190E-18 3.32947E-18
 -1      2181 1.58655E-04-3.76926E-05-5.12885E-05 2.18459E-05 2.20843E-18 3.16409E-18
 -1      2182 1.42896E-04-3.88722E-05-4.43973E-05 2.93023E-05 2.59531E-18 3.47665E-18
 -1      2183 1.42723E-04-4.95259E-05-3.93606E-05 2.11133E-05 4.14305E-19 7.20402E-19
 -1      2184 9.71814E-05-2.43119E-05-3.13030E-05-1.00075E-05-1.54684E-18 4.95250E-19
 -1      2185 1.50331E-04-2.92566E-05-5.24873E-05-4.06669E-06 2.88669E-18-2.70669E-18
 -1      2186 1.58257E-04-3.45212E-05-5.25578E-05 9.31573E-06 2.83015E-18-2.10911E-19
 -1      2187 1.49297E-04-3.95052E-05-4.67897E-05 3.07829E-06 6.46498E-19-2.02017E-18
 -1      2188 9.63404E-05-2.31021E-05-3.14533E-05-1.03923E-05-1.65801E-18-3.27206E-19
 -1      2189 1.98807E-05-2.76470E-05 2.68355E-06 1.59225E-05 2.56312E-18 8.18234E-19
 -1      2190 7.86412E-05-4.94534E-05-1.28459E-05 4.33545E-05-3.09591E-19 2.54539E-18
 -1      2191 9.53404E-05-2.54489E-05-2.99355E-05-5.50814E-06-6.22324E-19 6.64749E-19
 -1      2192 1.86428E-05-2.76195E-05 3.23417E-06-1.32883E-05 7.84035E-19-7.57247E-19
 -1      2193 1.16689E-04-5.45075E-05-2.65179E-05 3.61367E-05-3.89635E-20 1.72414E-18
 -1      2194 4.41149E-05-4.00736E-05-2.34399E-06-3.49456E-05 2.85577E-18 4.49806E-18
 -1      2195 6.02527E-05-4.20581E-05-8.28945E-06-4.29012E-05 3.49930E-18 3.63674E-18
 -1      2196 4.08805E-05-3.30386E-05-3.04256E-06-3.54042E-05 2.12817E-18 2.98918E-18
 -1      2197 1.23134E-04-5.61450E-05-2.84676E-05-3.29369E-05 3.55097E-18 1.39019E-18
 -1      2198 1.48552E-04-4.95928E-05-4.17875E-05-1.50740E-05 1.93441E-19-4.98055E-19
 -1      2199 1.57954E-04-3.31796E-05-5.26737E-05-6.89400E-07-2.42760E-18-1.13121E-18
 -1      2200 1.59825E-04-1.75074E-05-6.01027E-05 1.31047E-06-3.58464E-18 1.40205E-18
 -1      2201 1.63736E-04-1.59492E-05-6.21490E-05-1.42872E-06-1.13164E-18 1.56659E-18
 -1      2202 1.64565E-04-2.74359E-05-5.75890E-05 3.99298E-07 6.12405E-19 7.70800E-19
 -1      2203 1.54280E-04-4.35992E-05-4.66947E-05 9.53324E-06 1.13610E-18 1.05794E-18
 -1      2204 1.32224E-04-5.41737E-05-3.31958E-05 2.61480E-05-1.36372E-19 1.11766E-18
 -1      2205 9.86252E-05-5.32138E-05-1.96020E-05 3.85327E-05-5.31513E-19 5.26007E-19
 -1      2206 5.82248E-05-4.26557E-05-7.01561E-06 3.91546E-05-4.95514E-20 2.92226E-20
 -1      2207 2.57016E-05-3.03851E-05 1.42623E-06 2.43310E-05-7.72918E-20 3.96411E-19
 -1      2208 1.34384E-05-2.71459E-05 4.93964E-06-1.54791E-06-1.12362E-18-3.76083E-19
 -1      2209 6.54876E-05-4.35381E-05-9.66022E-06-4.18589E-05-1.52466E-18-1.66527E-18
 -1      2210 1.35111E-04-5.22534E-05-3.51941E-05-2.40420E-05 4.15470E-19 6.57298E-19
 -1      2211 1.54899E-04-3.86667E-05-4.89154E-05-1.06819E-05 1.86983E-19 1.00797E-19
 -1      2212 1.59679E-04-1.39505E-05-6.14899E-05 1.27275E-06 2.92480E-18 8.39807E-19
 -1      2213 1.60573E-04-2.28152E-05-5.78897E-05-2.71653E-07 1.19008E-18 1.02576E-18
 -1      2214 2.80933E-05-2.88952E-05 7.30217E-08-2.80360E-05-1.03634E-18-2.01043E-18
 -1      2215 9.52054E-05-2.63745E-05-2.94858E-05 4.20292E-06 1.37485E-18 1.00054E-18
 -1      2216 9.61812E-05-2.58602E-05-3.00640E-05 6.00777E-06 1.51031E-18 1.22694E-18
 -1      2217 8.81435E-05-1.11874E-05-3.30204E-05-3.66416E-06-1.42318E-19-2.27940E-18
 -1      2218 8.83768E-05-1.14575E-05-3.30024E-05-4.80612E-06-4.00657E-19-2.31255E-18
 -1      2219 8.87267E-05-1.19399E-05-3.29534E-05-5.82540E-06-5.31845E-19-2.33472E-18
 -1      2220 8.91333E-05-1.24135E-05-3.29244E-05-6.99815E-06-7.17179E-19-2.36378E-18
 -1      2221 8.98974E-05-1.38273E-05-3.26004E-05-4.90940E-06-4.20056E-19-2.15172E-18
 -1      2222 8.77997E-05-1.07302E-05-3.30639E-05 6.16050E-07 5.93000E-19-2.30179E-18
 -1      2223 8.77952E-05-1.07252E-05-3.30641E-05-4.96007E-07 3.77674E-19-2.24016E-18
 -1      2224 8.79799E-05-1.09548E-05-3.30451E-05 2.76051E-06 8.33837E-19-2.17337E-18
 -1      2225 8.78657E-05-1.08220E-05-3.30546E-05 1.64004E-06 7.09474E-19-2.32444E-18
 -1      2226 8.91181E-05-1.27772E-05-3.27207E-05 1.05077E-06 6.08599E-19-2.20563E-18
 -1      2227 8.84121E-05-1.15010E-05-3.29994E-05 4.89198E-06 1.17763E-18-2.05707E-18
 -1      2228 8.81738E-05-1.12248E-05-3.30178E-05 3.76785E-06 9.39797E-19-2.15037E-18
 -1      2229 8.93827E-05-1.31325E-05-3.26804E-05 3.02444E-06 8.31358E-19-2.08071E-18
 -1      2230 8.91883E-05-1.24821E-05-3.29199E-05 7.08116E-06 1.56227E-18-1.60468E-18
 -1      2231 8.87720E-05-1.19964E-05-3.29494E-05 5.90873E-06 1.31991E-18-1.81290E-18
 -1      2232 8.99375E-05-1.38793E-05-3.25954E-05 4.98081E-06 1.25606E-18-1.81428E-18
 -1      2233 9.04540E-05-1.40891E-05-3.27921E-05 9.23072E-06 1.79983E-18-1.27134E-18
 -1      2234 8.97755E-05-1.32791E-05-3.28379E-05 8.05154E-06 1.62058E-18-1.51182E-18
 -1      2235 9.08692E-05-1.51371E-05-3.24497E-05 6.87838E-06 1.55863E-18-1.44964E-18
 -1      2236 9.24476E-05-1.66590E-05-3.25813E-05 1.11151E-05 1.98971E-18-5.38283E-19
 -1      2237 9.13710E-05-1.53200E-05-3.26537E-05 1.00349E-05 1.85687E-18-9.73552E-19
 -1      2238 9.22882E-05-1.70889E-05-3.22076E-05 8.52450E-06 1.76232E-18-1.03386E-18
 -1      2239 2.92907E-05-2.42246E-05-1.90662E-06 2.48745E-05 2.15718E-18 5.43372E-19
 -1      2240 2.18611E-05-1.94868E-05-6.71705E-07 1.01432E-05 1.64557E-18 1.06599E-18
 -1      2241 9.42229E-05-2.71138E-05-2.87443E-05 1.77365E-06 1.28770E-18 6.21350E-19
 -1      2242 9.48248E-05-2.68908E-05-2.90432E-05 2.74620E-06 1.33576E-18 9.26664E-19
 -1      2243 9.53309E-05-2.58458E-05-2.97872E-05 4.37060E-06 1.49795E-18 1.94732E-19
 -1      2244 9.58869E-05-2.50768E-05-3.03016E-05-6.20259E-06-1.29305E-18-6.88543E-19
 -1      2245 9.52370E-05-2.58502E-05-2.97571E-05-4.26160E-06-1.11664E-18-7.35503E-19
 -1      2246 9.51527E-05-2.65433E-05-2.93410E-05-2.97562E-06-9.64259E-19-5.97774E-19
 -1      2247 9.46514E-05-2.68928E-05-2.90379E-05-1.89162E-06-8.38275E-19-6.70458E-19
 -1      2248 9.53497E-05-2.54464E-05-2.99932E-05-4.28259E-06-1.02024E-18-9.38352E-19
 -1      2249 9.44636E-05-2.72349E-05-2.87735E-05-1.03618E-06-7.30225E-19-5.39109E-19
 -1      2250 9.42027E-05-2.74480E-05-2.86065E-05-4.34714E-07-5.46917E-19-6.78539E-19
 -1      2251 9.50122E-05-2.66872E-05-2.92966E-05-1.92646E-06-8.03111E-19-8.82830E-19
 -1      2252 9.40539E-05-2.76288E-05-2.84451E-05 7.22837E-08-5.45816E-19-6.08178E-19
 -1      2253 9.39545E-05-2.77719E-05-2.83613E-05 4.01695E-07-5.79518E-19-5.54793E-19
 -1      2254 9.47196E-05-2.74259E-05-2.88528E-05-4.51496E-07-5.98010E-19-8.43414E-19
 -1      2255 9.38694E-05-2.78808E-05-2.82681E-05 6.84247E-07-4.51869E-19-6.15564E-19
 -1      2256 9.38741E-05-2.79867E-05-2.82352E-05 8.48674E-07-2.29825E-19-7.41807E-19
 -1      2257 9.45177E-05-2.78534E-05-2.85807E-05 4.17812E-07-6.18083E-19-8.78594E-19
 -1      2258 9.38427E-05-2.80579E-05-2.81869E-05 9.87043E-07-4.34794E-19-8.55497E-19
 -1      2259 9.39094E-05-2.81406E-05-2.81848E-05 1.05060E-06-5.13159E-19-1.03241E-18
 -1      2260 9.44244E-05-2.81203E-05-2.84236E-05 8.90183E-07-4.80773E-19-1.09929E-18
 -1      2261 9.39156E-05-2.81891E-05-2.81656E-05 1.09823E-06-4.40808E-19-1.08445E-18
 -1      2262 9.40151E-05-2.82544E-05-2.81816E-05 1.10161E-06-5.64750E-19-1.05773E-18
 -1      2263 9.44151E-05-2.82943E-05-2.83427E-05 1.10732E-06-5.60436E-19-1.18397E-18
 -1      2264 9.40450E-05-2.82878E-05-2.81811E-05 1.09507E-06-6.89734E-19-9.72220E-19
 -1      2265 9.41583E-05-2.83390E-05-2.82070E-05 1.06512E-06-6.61603E-19-8.72350E-19
 -1      2266 9.44618E-05-2.84086E-05-2.83119E-05 1.16597E-06-6.19256E-19-1.12153E-18
 -1      2267 9.42018E-05-2.83613E-05-2.82181E-05 1.02960E-06-5.79057E-19-8.48248E-19
 -1      2268 9.43175E-05-2.84008E-05-2.82488E-05 9.84531E-07-6.94595E-19-8.41753E-19
 -1      2269 9.45417E-05-2.84819E-05-2.83135E-05 1.13271E-06-7.14638E-19-9.43046E-19
 -1      2270 9.43678E-05-2.84148E-05-2.82671E-05 9.37592E-07-6.78028E-19-7.61102E-19
 -1      2271 9.44801E-05-2.84445E-05-2.82998E-05 8.90051E-07-3.37903E-19-6.75819E-19
 -1      2272 9.46392E-05-2.85255E-05-2.83358E-05 1.05379E-06-6.22476E-19-8.13148E-19
 -1      2273 9.45334E-05-2.84519E-05-2.83224E-05 8.44193E-07-4.36756E-19-9.08463E-19
 -1      2274 9.46404E-05-2.84736E-05-2.83558E-05 8.03229E-07-2.80680E-19-9.18142E-19
 -1      2275 9.47445E-05-2.85470E-05-2.83712E-05 9.61813E-07-5.66488E-19-7.13572E-19
 -1      2276 9.46952E-05-2.84759E-05-2.83816E-05 7.67631E-07-6.94127E-20-1.08002E-18
 -1      2277 9.47980E-05-2.84913E-05-2.84155E-05 7.40053E-07-1.96647E-19-9.10457E-19
 -1      2278 9.48527E-05-2.85515E-05-2.84154E-05 8.80338E-07-3.13854E-19-1.01815E-18
 -1      2279 9.48545E-05-2.84895E-05-2.84439E-05 7.21857E-07-6.61391E-19-6.08794E-19
 -1      2280 9.49565E-05-2.85003E-05-2.84790E-05 7.13214E-07-8.19454E-19-6.94065E-19
 -1      2281 9.49629E-05-2.85426E-05-2.84665E-05 8.27086E-07-3.97602E-19-7.42403E-19
 -1      2282 9.50163E-05-2.84952E-05-2.85106E-05 7.18479E-07-6.06266E-19-6.39617E-19
 -1      2283 9.51226E-05-2.85029E-05-2.85484E-05 7.33787E-07-2.95296E-19-4.20660E-19
 -1      2284 9.50771E-05-2.85228E-05-2.85241E-05 8.16357E-07-5.92453E-19-1.48834E-19
 -1      2285 9.51882E-05-2.84951E-05-2.85841E-05 7.68195E-07-4.91533E-19-5.83473E-19
 -1      2286 9.53057E-05-2.85016E-05-2.86265E-05 8.12468E-07-3.73212E-19-6.06930E-19
 -1      2287 9.51996E-05-2.84937E-05-2.85893E-05 8.60789E-07-5.73316E-19-4.13354E-19
 -1      2288 9.53807E-05-2.84916E-05-2.86678E-05 8.81826E-07-2.26707E-19-8.46489E-19
 -1      2289 9.55177E-05-2.84989E-05-2.87174E-05 9.60435E-07-2.07697E-20-1.19115E-18
 -1      2290 9.53367E-05-2.84564E-05-2.86644E-05 9.72642E-07-4.74826E-19-8.58978E-19
 -1      2291 9.56063E-05-2.84873E-05-2.87662E-05 1.07098E-06-3.02381E-19-1.47324E-18
 -1      2292 9.57726E-05-2.84976E-05-2.88258E-05 1.18984E-06-5.15170E-19-1.81673E-18
 -1      2293 9.54961E-05-2.84118E-05-2.87522E-05 1.16465E-06-4.08195E-19-1.30169E-18
 -1      2294 9.58798E-05-2.84851E-05-2.88841E-05 1.34834E-06-5.96729E-19-2.04701E-18
 -1      2295 9.60867E-05-2.85013E-05-2.89572E-05 1.51381E-06-6.85965E-19-2.01629E-18
 -1      2296 9.56873E-05-2.83611E-05-2.88564E-05 1.45045E-06-8.05900E-19-1.44050E-18
 -1      2297 9.62182E-05-2.84894E-05-2.90272E-05 1.72735E-06-4.91601E-19-2.26939E-18
 -1      2298 9.64784E-05-2.85154E-05-2.91172E-05 1.94591E-06-2.94013E-19-2.45198E-18
 -1      2299 9.59208E-05-2.83062E-05-2.89804E-05 1.84439E-06-7.35163E-19-1.44203E-18
 -1      2300 9.66404E-05-2.85062E-05-2.92009E-05 2.22129E-06-6.69880E-20-2.04878E-18
 -1      2301 9.69681E-05-2.85476E-05-2.93113E-05 2.49850E-06-1.69639E-19-1.71724E-18
 -1      2302 9.62088E-05-2.82512E-05-2.91279E-05 2.36076E-06-4.57844E-22-1.42523E-18
 -1      2303 9.71680E-05-2.85455E-05-2.94101E-05 2.84099E-06-1.47885E-19-1.75820E-18
 -1      2304 9.75783E-05-2.86103E-05-2.95441E-05 3.17978E-06 1.64506E-19-1.47855E-18
 -1      2305 9.65653E-05-2.82038E-05-2.93013E-05 3.01178E-06-3.29311E-20-1.08446E-18
 -1      2306 9.78253E-05-2.86232E-05-2.96584E-05 3.59091E-06 3.14660E-19-1.33914E-18
 -1      2307 9.83341E-05-2.87236E-05-2.98180E-05 3.98831E-06 8.83686E-19-1.30467E-18
 -1      2308 9.70071E-05-2.81788E-05-2.95018E-05 3.80415E-06 2.30475E-19-9.20162E-19
 -1      2309 9.86410E-05-2.87658E-05-2.99466E-05 4.46219E-06 7.02066E-19-1.71866E-18
 -1      2310 9.92645E-05-2.89211E-05-3.01316E-05 4.90415E-06 3.97049E-19-1.71754E-18
 -1      2311 9.75568E-05-2.82036E-05-2.97272E-05 4.73304E-06 6.38277E-19-1.43962E-18
 -1      2312 9.96514E-05-2.90178E-05-3.02707E-05 5.42150E-06 3.86995E-19-1.66206E-18
 -1      2313 1.00406E-04-2.92575E-05-3.04778E-05 5.87471E-06 6.01693E-19-1.65628E-18
 -1      2314 9.82477E-05-2.83266E-05-2.99715E-05 5.77272E-06 2.54579E-19-1.53001E-18
 -1      2315 1.00906E-04-2.94508E-05-3.06208E-05 6.39391E-06 7.22492E-19-2.01947E-18
 -1      2316 1.01806E-04-2.98193E-05-3.08416E-05 6.79422E-06 6.07523E-19-1.86147E-18
 -1      2317 9.91334E-05-2.86299E-05-3.02230E-05 6.86208E-06 4.75354E-19-1.99678E-18
 -1      2318 1.02477E-04-3.01756E-05-3.09790E-05 7.23813E-06 5.90901E-19-1.86892E-18
 -1      2319 1.03535E-04-3.07335E-05-3.11999E-05 7.47626E-06 1.98469E-19-1.78534E-18
 -1      2320 1.00303E-04-2.92444E-05-3.04649E-05 7.88370E-06 6.56327E-19-2.19073E-18
 -1      2321 1.04464E-04-3.13458E-05-3.13219E-05 7.71484E-06-1.07300E-19-1.01349E-18
 -1      2322 1.05686E-04-3.21625E-05-3.15245E-05 7.62376E-06-6.98223E-20-5.93275E-19
 -1      2323 1.01901E-04-3.03612E-05-3.06784E-05 8.63512E-06 5.80057E-19-1.38449E-18
 -1      2324 1.06995E-04-3.31355E-05-3.16278E-05 7.45460E-06-3.00592E-19-5.84352E-19
 -1      2325 1.08353E-04-3.42523E-05-3.17952E-05 6.81112E-06-4.16656E-19-8.64346E-20
 -1      2326 1.04137E-04-3.22172E-05-3.08531E-05 8.79343E-06-6.06112E-20 4.33251E-19
 -1      2327 1.10162E-04-3.56428E-05-3.18969E-05 5.94802E-06-4.00068E-19 2.16472E-19
 -1      2328 1.11551E-04-3.69784E-05-3.20259E-05 4.51533E-06-6.29716E-20 9.00621E-19
 -1      2329 1.07259E-04-3.50091E-05-3.10101E-05 7.88155E-06-2.51857E-19 1.13473E-18
 -1      2330 1.13850E-04-3.86462E-05-3.21833E-05 2.63771E-06-3.43849E-19 6.42197E-19
 -1      2331 1.15002E-04-3.98410E-05-3.23027E-05 3.02269E-07-6.54849E-19 1.12597E-18
 -1      2332 1.11401E-04-3.86386E-05-3.12404E-05 5.27805E-06-4.81694E-19 2.20394E-18
 -1      2333 1.17436E-04-4.12367E-05-3.26285E-05-2.74757E-06-8.56866E-19 8.73020E-19
 -1      2334 1.17863E-04-4.15113E-05-3.28080E-05-5.71504E-06-7.11183E-19 7.30870E-19
 -1      2335 1.16230E-04-4.22729E-05-3.17449E-05 4.30105E-07-9.67487E-19 4.72488E-19
 -1      2336 1.19517E-04-4.15582E-05-3.34464E-05-9.46458E-06-4.75040E-19 1.33198E-18
 -1      2337 1.18666E-04-3.99218E-05-3.37764E-05-1.20718E-05 4.32667E-19 1.12658E-18
 -1      2338 1.20491E-04-4.39250E-05-3.28291E-05-6.56619E-06-5.77128E-19 2.05015E-18
 -1      2339 1.18330E-04-3.75068E-05-3.47966E-05-1.47759E-05 1.66224E-19 7.74445E-19
 -1      2340 1.16190E-04-3.37881E-05-3.52786E-05-1.52835E-05 1.67540E-19 4.03349E-19
 -1      2341 1.21908E-04-4.07307E-05-3.47701E-05-1.36863E-05-2.53594E-19 1.72374E-18
 -1      2342 1.13873E-04-2.94885E-05-3.64099E-05-1.43525E-05 2.72162E-19-1.63748E-19
 -1      2343 1.11616E-04-2.56107E-05-3.68373E-05-1.14584E-05-4.27487E-20-3.11864E-19
 -1      2344 1.19061E-04-3.20124E-05-3.73504E-05-1.63172E-05 1.79465E-19 4.08918E-19
 -1      2345 1.09630E-04-2.25850E-05-3.74855E-05-6.14640E-06-4.49430E-19-8.68688E-19
 -1      2346 1.09042E-04-2.16869E-05-3.75480E-05-8.84547E-07-2.34575E-19-9.36368E-19
 -1      2347 1.14383E-04-2.25046E-05-3.95508E-05-1.00749E-05-4.84503E-19-6.72981E-19
 -1      2348 1.09761E-04-2.29373E-05-3.72382E-05 5.42691E-06 3.19887E-19-1.52418E-18
 -1      2349 1.11241E-04-2.57606E-05-3.68622E-05 9.69677E-06 2.72612E-19-2.04499E-18
 -1      2350 1.13079E-04-2.03979E-05-3.99756E-05 2.60769E-06-3.80847E-19-1.25356E-18
 -1      2351 1.13636E-04-2.99821E-05-3.58019E-05 1.26612E-05 7.59550E-19-2.81968E-18
 -1      2352 1.15792E-04-3.40738E-05-3.52310E-05 1.35778E-05 4.26938E-19-2.01857E-18
 -1      2353 1.16560E-04-2.74578E-05-3.83094E-05 1.25081E-05 3.26055E-19-1.87820E-18
 -1      2354 1.17017E-04-3.75533E-05-3.40542E-05 1.21434E-05 5.67472E-19-1.43959E-18
 -1      2355 1.18216E-04-4.01359E-05-3.35684E-05 1.01693E-05 7.01575E-19-8.66121E-19
 -1      2356 1.20512E-04-3.73926E-05-3.56255E-05 1.34648E-05 6.16177E-19-2.20847E-18
 -1      2357 1.17231E-04-4.10863E-05-3.26963E-05 6.52408E-06 1.70843E-19 5.96877E-20
 -1      2358 1.17009E-04-4.14795E-05-3.23755E-05 3.44980E-06 7.15081E-20-1.04258E-20
 -1      2359 1.20712E-04-4.31355E-05-3.32289E-05 7.56580E-06 9.18759E-19-3.71662E-19
 -1      2360 1.14667E-04-4.04905E-05-3.18755E-05-1.02342E-07 2.88521E-19-3.50208E-20
 -1      2361 1.13455E-04-3.94911E-05-3.16616E-05-2.88099E-06 7.29755E-19 1.98998E-19
 -1      2362 1.17148E-04-4.32579E-05-3.16825E-05-5.02796E-08 5.03396E-19 1.56404E-18
 -1      2363 1.10882E-04-3.77684E-05-3.14079E-05-5.34853E-06 9.86429E-19-1.18608E-19
 -1      2364 1.09235E-04-3.62913E-05-3.12195E-05-7.23781E-06 1.44883E-18-5.75739E-19
 -1      2365 1.12051E-04-4.00771E-05-3.08891E-05-6.09772E-06 6.38810E-19 2.67763E-19
 -1      2366 1.07028E-04-3.46174E-05-3.10813E-05-8.53060E-06 1.55478E-18-5.97555E-20
 -1      2367 1.05320E-04-3.31875E-05-3.08781E-05-9.47071E-06 5.48264E-19 9.37444E-19
 -1      2368 1.07184E-04-3.60522E-05-3.05292E-05-9.73263E-06 1.68559E-18-6.83231E-19
 -1      2369 1.03602E-04-3.18345E-05-3.07826E-05-9.82429E-06 1.85691E-19 1.59967E-18
 -1      2370 1.02005E-04-3.06145E-05-3.05668E-05-9.96535E-06 1.36049E-19 1.79303E-18
 -1      2371 1.03232E-04-3.24682E-05-3.03597E-05-1.12386E-05 7.55795E-19-1.24647E-18
 -1      2372 1.00676E-04-2.95504E-05-3.04899E-05-9.62010E-06-2.00575E-19 1.93416E-18
 -1      2373 9.92772E-05-2.85517E-05-3.02875E-05-9.11051E-06-4.81924E-20 1.56112E-18
 -1      2374 1.00184E-04-2.96087E-05-3.02662E-05-1.11306E-05 1.78389E-19-4.24261E-21
 -1      2375 5.22454E-05-3.49635E-05-7.22372E-06 3.97632E-05 8.63974E-19-2.01636E-18
 -1      2376 3.90199E-05-2.98950E-05-3.66860E-06 3.24792E-05 2.28233E-18-2.09641E-18
 -1      2377 3.99322E-05-2.40551E-05-6.23847E-06 2.74551E-05 7.00390E-19-9.36183E-19
 -1      2378 9.33243E-05-2.76870E-05-2.81230E-05-4.00972E-07 7.84766E-19-5.08513E-20
 -1      2379 9.34037E-05-2.75825E-05-2.81846E-05-1.15481E-07 9.09907E-19 3.67865E-19
 -1      2380 9.32715E-05-2.78504E-05-2.80328E-05-8.08004E-07 6.28938E-19-4.48011E-19
 -1      2381 9.32275E-05-2.77600E-05-2.80445E-05-6.68423E-07 6.27022E-19-2.67273E-19
 -1      2382 9.39997E-05-2.78048E-05-2.83805E-05-4.33533E-07 9.33231E-19-2.56599E-19
 -1      2383 9.33644E-05-2.79848E-05-2.80167E-05-9.85942E-07 8.22601E-19-4.47964E-19
 -1      2384 9.32523E-05-2.79048E-05-2.79996E-05-9.33989E-07 6.81966E-19-5.31283E-19
 -1      2385 9.39122E-05-2.80129E-05-2.82507E-05-8.82618E-07 7.09652E-19-5.30929E-19
 -1      2386 9.35396E-05-2.80983E-05-2.80442E-05-1.02522E-06 4.19004E-19-2.47445E-19
 -1      2387 9.33949E-05-2.80283E-05-2.80117E-05-1.02507E-06 6.42650E-19-2.44630E-19
 -1      2388 9.39411E-05-2.81604E-05-2.81972E-05-1.08262E-06 5.04550E-19-3.97920E-19
 -1      2389 9.37536E-05-2.81937E-05-2.80957E-05-9.84780E-07-1.38012E-19-2.19749E-19
 -1      2390 9.35987E-05-2.81337E-05-2.80561E-05-1.01324E-06 2.93518E-19-1.13374E-19
 -1      2391 9.40412E-05-2.82688E-05-2.81916E-05-1.13041E-06 2.90120E-19-1.48844E-19
 -1      2392 9.39796E-05-2.82726E-05-2.81591E-05-9.04184E-07-1.27386E-19-5.77355E-19
 -1      2393 9.38271E-05-2.82224E-05-2.81173E-05-9.45707E-07-2.83597E-19-5.59644E-19
 -1      2394 9.41795E-05-2.83491E-05-2.82151E-05-1.09061E-06 5.94515E-20-5.19517E-19
 -1      2395 9.42022E-05-2.83366E-05-2.82272E-05-8.10575E-07 3.36805E-19-6.91527E-19
 -1      2396 9.40586E-05-2.82954E-05-2.81859E-05-8.54472E-07 1.34529E-19-6.15454E-19
 -1      2397 9.43345E-05-2.84077E-05-2.82556E-05-1.00725E-06 1.56260E-19-1.11417E-18
 -1      2398 9.44150E-05-2.83880E-05-2.82963E-05-7.23014E-07 6.49266E-19-3.83913E-19
 -1      2399 9.42820E-05-2.83545E-05-2.82565E-05-7.61722E-07 4.99468E-19-3.83877E-19
 -1      2400 9.44934E-05-2.84489E-05-2.83055E-05-9.10889E-07 3.28754E-19-8.14808E-19
 -1      2401 9.46180E-05-2.84291E-05-2.83655E-05-6.55372E-07 6.09087E-19 8.11334E-20
 -1      2402 9.44939E-05-2.84017E-05-2.83270E-05-6.83294E-07 8.59758E-19-8.00579E-20
 -1      2403 9.46506E-05-2.84762E-05-2.83610E-05-8.23260E-07 5.50561E-19-3.45510E-19
 -1      2404 9.48159E-05-2.84626E-05-2.84354E-05-6.18350E-07 3.76811E-19-1.45731E-19
 -1      2405 9.46965E-05-2.84395E-05-2.83974E-05-6.31043E-07 6.35554E-19-2.30588E-20
 -1      2406 9.48052E-05-2.84927E-05-2.84201E-05-7.60387E-07 5.41830E-19-2.76694E-19
 -1      2407 9.50173E-05-2.84918E-05-2.85086E-05-6.20911E-07-1.29416E-21-1.08691E-19
 -1      2408 9.48965E-05-2.84710E-05-2.84692E-05-6.14510E-07 6.70891E-20-1.96348E-20
 -1      2409 9.49604E-05-2.85010E-05-2.84833E-05-7.34818E-07 3.23625E-19-1.23399E-19
 -1      2410 9.52339E-05-2.85203E-05-2.85884E-05-6.71274E-07 5.32582E-19-1.49736E-19
 -1      2411 9.51038E-05-2.84993E-05-2.85455E-05-6.42101E-07 2.19019E-19 2.13859E-20
 -1      2412 9.51227E-05-2.85036E-05-2.85520E-05-7.57197E-07 2.41805E-19-3.75312E-19
 -1      2413 9.54803E-05-2.85521E-05-2.86793E-05-7.77497E-07 4.41285E-19-2.54321E-20
 -1      2414 9.53313E-05-2.85282E-05-2.86302E-05-7.21855E-07 8.26251E-19 3.77127E-19
 -1      2415 9.53008E-05-2.85034E-05-2.86289E-05-8.37314E-07 4.54100E-19 2.33965E-19
 -1      2416 9.57733E-05-2.85922E-05-2.87865E-05-9.47626E-07-3.05916E-19-1.89992E-19
 -1      2417 9.55947E-05-2.85621E-05-2.87280E-05-8.61794E-07-6.47021E-21-5.58822E-20
 -1      2418 9.55060E-05-2.85033E-05-2.87174E-05-9.84677E-07 6.80347E-20 8.18362E-19
 -1      2419 9.61325E-05-2.86469E-05-2.89156E-05-1.18932E-06-4.39683E-19 1.97867E-19
 -1      2420 9.59120E-05-2.86066E-05-2.88444E-05-1.06981E-06-5.30800E-19-8.00359E-20
 -1      2421 9.57515E-05-2.85075E-05-2.88214E-05-1.20854E-06-4.75456E-19 4.46288E-19
 -1      2422 9.65792E-05-2.87239E-05-2.90726E-05-1.50879E-06-1.38864E-19 1.55955E-19
 -1      2423 9.63035E-05-2.86685E-05-2.89851E-05-1.35295E-06-2.07018E-20 1.52858E-19
 -1      2424 9.60527E-05-2.85216E-05-2.89450E-05-1.51731E-06-1.31587E-19 2.92702E-19
 -1      2425 9.71362E-05-2.88336E-05-2.92630E-05-1.90868E-06 8.68054E-19-1.02908E-18
 -1      2426 9.67915E-05-2.87569E-05-2.91559E-05-1.71587E-06 2.29033E-19-6.30671E-19
 -1      2427 9.64267E-05-2.85534E-05-2.90923E-05-1.91704E-06 4.81265E-19-7.34901E-19
 -1      2428 9.78268E-05-2.89896E-05-2.94913E-05-2.38472E-06 6.48921E-19-5.32532E-19
 -1      2429 9.73996E-05-2.88836E-05-2.93617E-05-2.15810E-06 1.05124E-18-6.00363E-19
 -1      2430 9.68929E-05-2.86147E-05-2.92665E-05-2.40885E-06 7.01126E-19-1.07255E-18
 -1      2431 9.86732E-05-2.92099E-05-2.97594E-05-2.92031E-06-8.48139E-19-5.75287E-19
 -1      2432 9.81522E-05-2.90649E-05-2.96060E-05-2.66976E-06 2.71398E-19-2.21043E-19
 -1      2433 9.74727E-05-2.87232E-05-2.94692E-05-2.98464E-06 1.74043E-19 1.35688E-19
 -1      2434 9.96942E-05-2.95190E-05-3.00657E-05-3.47882E-06-1.31046E-18-1.11078E-18
 -1      2435 9.90722E-05-2.93226E-05-2.98895E-05-3.22502E-06-1.41157E-18-1.00122E-18
 -1      2436 9.81899E-05-2.89046E-05-2.96995E-05-3.62076E-06-6.56100E-19-4.87856E-20
 -1      2437 1.00902E-04-2.99486E-05-3.04024E-05-3.99325E-06-3.20996E-19-1.59543E-18
 -1      2438 1.00180E-04-2.96860E-05-3.02079E-05-3.77302E-06-9.95617E-19-1.47554E-18
 -1      2439 9.90713E-05-2.91967E-05-2.99529E-05-4.26907E-06-5.82787E-19-1.53388E-18
 -1      2440 1.02295E-04-3.05368E-05-3.07541E-05-4.35395E-06 7.83522E-20-4.18069E-19
 -1      2441 1.01488E-04-3.01926E-05-3.05509E-05-4.22617E-06-1.44470E-19-1.68624E-18
 -1      2442 1.00147E-04-2.96511E-05-3.02201E-05-4.84526E-06-4.06819E-19-1.62640E-18
 -1      2443 1.03856E-04-3.13224E-05-3.10964E-05-4.39788E-06-1.66008E-19-8.73404E-19
 -1      2444 1.02998E-04-3.08854E-05-3.09002E-05-4.44767E-06 2.36678E-19-4.89406E-19
 -1      2445 1.01451E-04-3.03337E-05-3.04874E-05-5.21555E-06 1.16787E-19-1.71344E-18
 -1      2446 1.05528E-04-3.23264E-05-3.13970E-05-3.90767E-06 3.57857E-19-5.64520E-19
 -1      2447 1.04684E-04-3.18012E-05-3.12295E-05-4.24343E-06-3.91076E-19-1.98203E-19
 -1      2448 1.03011E-04-3.13136E-05-3.07377E-05-5.18564E-06-2.61854E-19-1.68161E-18
 -1      2449 1.07199E-04-3.35113E-05-3.16217E-05-2.63732E-06 5.42371E-19 8.50836E-19
 -1      2450 1.06476E-04-3.29413E-05-3.15080E-05-3.37095E-06 8.17531E-19 4.59266E-19
 -1      2451 1.04838E-04-3.26320E-05-3.09561E-05-4.50163E-06-7.86144E-20-8.04938E-19
 -1      2452 1.08658E-04-3.47124E-05-3.17467E-05-3.90944E-07 2.62322E-19 1.20992E-18
 -1      2453 1.08213E-04-3.42137E-05-3.17082E-05-1.58808E-06 9.33933E-19 1.43902E-18
 -1      2454 1.06873E-04-3.42342E-05-3.11393E-05-2.88290E-06 3.32275E-19 6.72780E-19
 -1      2455 1.09562E-04-3.55549E-05-3.17759E-05 2.81782E-06 5.02231E-20 3.75202E-19
 -1      2456 1.09593E-04-3.53477E-05-3.18199E-05 1.22649E-06-2.73234E-19 7.67663E-19
 -1      2457 1.08915E-04-3.58609E-05-3.13089E-05-1.18656E-07 1.94738E-19 1.29442E-18
 -1      2458 1.09443E-04-3.54457E-05-3.17513E-05 6.51467E-06-1.13389E-18 8.90811E-19
 -1      2459 1.10137E-04-3.58236E-05-3.18634E-05 4.84426E-06-5.02747E-19 7.30238E-19
 -1      2460 1.10513E-04-3.69230E-05-3.15214E-05 3.72601E-06-4.17152E-19 9.02621E-19
 -1      2461 1.07928E-04-3.38388E-05-3.17434E-05 9.57738E-06-1.12084E-18 1.99672E-18
 -1      2462 1.09315E-04-3.49934E-05-3.18839E-05 8.42320E-06-1.43432E-18 9.56833E-19
 -1      2463 1.10993E-04-3.65992E-05-3.18473E-05 7.97419E-06-1.26235E-18 1.89013E-18
 -1      2464 1.05051E-04-3.06782E-05-3.18195E-05 1.04116E-05 4.96289E-19 2.89449E-18
 -1      2465 1.06872E-04-3.24630E-05-3.19433E-05 1.05030E-05-3.40417E-19 2.37001E-18
 -1      2466 1.09744E-04-3.41508E-05-3.23472E-05 1.12051E-05-1.06257E-18 2.06699E-18
 -1      2467 1.01818E-04-2.71114E-05-3.19440E-05 7.75917E-06-3.54947E-19 3.49159E-18
 -1      2468 1.03428E-04-2.87977E-05-3.20309E-05 9.45468E-06 4.86776E-19 3.46320E-18
 -1      2469 1.06851E-04-2.99167E-05-3.29570E-05 1.13949E-05-4.76439E-20 2.47466E-18
 -1      2470 9.99171E-05-2.51291E-05-3.20179E-05 2.01262E-06-1.29363E-18 3.50848E-18
 -1      2471 1.00567E-04-2.57496E-05-3.20710E-05 4.83363E-06-5.16995E-19 3.59898E-18
 -1      2472 1.03700E-04-2.57110E-05-3.34586E-05 7.34970E-06-3.61180E-19 3.69136E-18
 -1      2473 1.00513E-04-2.60380E-05-3.19458E-05-4.31331E-06-6.93687E-19 3.23431E-18
 -1      2474 9.99504E-05-2.52465E-05-3.19705E-05-1.62485E-06-1.44254E-18 3.96414E-18
 -1      2475 1.02391E-04-2.41524E-05-3.35973E-05 2.47884E-07-6.78890E-19 3.29642E-18
 -1      2476 1.03128E-04-2.92099E-05-3.17380E-05-8.33041E-06-4.70755E-19 2.93258E-18
 -1      2477 1.01732E-04-2.75252E-05-3.17304E-05-6.93076E-06 7.93233E-20 3.41270E-18
 -1      2478 1.03767E-04-2.62390E-05-3.32624E-05-6.53965E-06-2.86066E-19 2.70832E-18
 -1      2479 1.06042E-04-3.26810E-05-3.14921E-05-8.69805E-06-1.24470E-18 2.13007E-18
 -1      2480 1.04543E-04-3.10441E-05-3.14514E-05-8.90371E-06-1.42328E-18 1.84318E-18
 -1      2481 1.06644E-04-3.05404E-05-3.25926E-05-9.80150E-06-2.43891E-19 1.83395E-18
 -1      2482 1.07738E-04-3.48157E-05-3.12818E-05-6.10980E-06-5.02638E-19 3.00357E-18
 -1      2483 1.06756E-04-3.38826E-05-3.12349E-05-7.44429E-06-5.73953E-19 2.45927E-18
 -1      2484 1.08990E-04-3.45294E-05-3.18618E-05-8.85951E-06-1.15120E-18 8.72285E-19
 -1      2485 1.07762E-04-3.52213E-05-3.10980E-05-2.26433E-06 7.52688E-19 2.98740E-18
 -1      2486 1.07518E-04-3.50788E-05-3.10894E-05-3.99284E-06 4.32807E-19 3.23921E-18
 -1      2487 1.09557E-04-3.65210E-05-3.12670E-05-5.15171E-06-1.54895E-19 1.93107E-18
 -1      2488 1.06455E-04-3.43628E-05-3.08925E-05 1.37915E-06 9.29976E-19 3.82964E-18
 -1      2489 1.06867E-04-3.47765E-05-3.09538E-05-1.69936E-07 9.92312E-19 3.90817E-18
 -1      2490 1.08410E-04-3.64090E-05-3.08474E-05-7.06969E-07 3.92469E-19 2.13771E-18
 -1      2491 1.04386E-04-3.28842E-05-3.06322E-05 4.02990E-06 1.77592E-18 5.06769E-18
 -1      2492 1.05246E-04-3.35756E-05-3.07673E-05 2.95530E-06 1.09593E-18 5.21462E-18
 -1      2493 1.06227E-04-3.49539E-05-3.05518E-05 3.07625E-06 2.70735E-19 4.17557E-18
 -1      2494 1.02034E-04-3.12468E-05-3.03211E-05 5.44374E-06 2.79196E-18 4.49942E-18
 -1      2495 1.03124E-04-3.20211E-05-3.05085E-05 4.92867E-06 2.61363E-18 5.64325E-18
 -1      2496 1.03670E-04-3.29590E-05-3.03173E-05 5.58137E-06 1.98393E-18 6.33424E-18
 -1      2497 9.97096E-05-2.96774E-05-2.99928E-05 5.66761E-06 1.84597E-18 4.83920E-18
 -1      2498 1.00849E-04-3.04354E-05-3.01975E-05 5.68759E-06 2.51883E-18 5.01930E-18
 -1      2499 1.01146E-04-3.09250E-05-3.01079E-05 6.70647E-06 3.03282E-18 6.96121E-18
 -1      2500 9.75909E-05-2.82780E-05-2.96851E-05 4.84156E-06 1.48232E-18 5.27933E-18
 -1      2501 9.86447E-05-2.89507E-05-2.98763E-05 5.33148E-06 1.15812E-18 4.83675E-18
 -1      2502 9.88358E-05-2.90417E-05-2.99199E-05 6.57827E-06 1.67495E-18 5.35963E-18
 -1      2503 9.66780E-05-2.76814E-05-2.95644E-05 3.98490E-06 2.21118E-18 5.14711E-18
 -1      2504 9.20278E-05-2.04185E-05-3.07206E-05 8.47295E-06 6.63033E-19-2.39385E-18
 -1      2505 9.29465E-05-2.16697E-05-3.05290E-05 8.72561E-06 9.88999E-19-3.55702E-18
 -1      2506 9.01910E-05-1.81066E-05-3.09385E-05 7.04046E-06 2.13069E-20-6.26204E-19
 -1      2507 9.10857E-05-1.92257E-05-3.07842E-05 7.88311E-06 2.73444E-19-3.62490E-19
 -1      2508 9.15816E-05-2.10774E-05-3.02152E-05 9.33568E-06 4.26851E-19-1.82720E-18
 -1      2509 9.52261E-05-2.48513E-05-3.01587E-05 7.81957E-06 3.79240E-19 9.79453E-19
 -1      2510 9.58757E-05-2.59187E-05-2.99644E-05 7.19420E-06 5.24903E-19 2.46940E-18
 -1      2511 9.37813E-05-2.27660E-05-3.04477E-05 8.64388E-06-1.71422E-19-1.79249E-18
 -1      2512 9.45705E-05-2.39495E-05-3.02469E-05 8.39444E-06-5.14228E-19 1.09784E-18
 -1      2513 9.55392E-05-2.54868E-05-3.00281E-05 9.11529E-06 4.21146E-19 1.43609E-19
 -1      2514 9.37520E-05-2.34430E-05-3.01358E-05 9.83095E-06 9.17004E-20-1.66858E-18
 -1      2515 8.86650E-05-1.62726E-05-3.10744E-05 4.34590E-06-1.88166E-18-9.71070E-19
 -1      2516 8.93366E-05-1.70551E-05-3.09780E-05 5.73430E-06-1.08815E-18-1.32449E-18
 -1      2517 8.94111E-05-1.87571E-05-3.02628E-05 7.35317E-06-6.05326E-19-2.51468E-18
 -1      2518 8.78777E-05-1.53656E-05-3.11171E-05 7.36176E-07-1.99880E-18-2.10164E-18
 -1      2519 8.81373E-05-1.56364E-05-3.10906E-05 2.46406E-06-2.51149E-18-1.00434E-18
 -1      2520 8.77397E-05-1.70054E-05-3.02800E-05 3.95942E-06-1.54965E-18-1.25375E-18
 -1      2521 8.80875E-05-1.56515E-05-3.10673E-05-3.12799E-06-7.65366E-19-4.43488E-19
 -1      2522 8.78499E-05-1.53367E-05-3.11136E-05-1.38303E-06-1.70018E-18-7.63868E-19
 -1      2523 8.70649E-05-1.63137E-05-3.02802E-05-3.25335E-07-1.20613E-18-9.96385E-19
 -1      2524 8.92339E-05-1.70558E-05-3.09364E-05-6.43402E-06 2.06793E-18 1.17403E-18
 -1      2525 8.85662E-05-1.62317E-05-3.10469E-05-5.02644E-06 5.14141E-19 7.57949E-19
 -1      2526 8.76157E-05-1.68904E-05-3.02741E-05-4.62738E-06 6.78670E-19 8.47947E-19
 -1      2527 9.10579E-05-1.93036E-05-3.07382E-05-8.68501E-06 1.34993E-18-8.31341E-19
 -1      2528 9.01007E-05-1.81028E-05-3.09007E-05-7.81083E-06 1.70280E-18-1.67770E-18
 -1      2529 8.92338E-05-1.85760E-05-3.02623E-05-8.11911E-06 2.12480E-18 2.40883E-19
 -1      2530 9.31388E-05-2.19177E-05-3.05012E-05-9.52357E-06 1.80686E-18 3.20174E-18
 -1      2531 9.20873E-05-2.05512E-05-3.06905E-05-9.30771E-06 1.31424E-18 2.26898E-18
 -1      2532 9.15202E-05-2.09526E-05-3.02431E-05-1.02213E-05 1.48599E-18 8.39629E-19
 -1      2533 9.51564E-05-2.44877E-05-3.02586E-05-8.97296E-06-2.84836E-19-1.85915E-18
 -1      2534 9.41498E-05-2.31303E-05-3.04488E-05-9.39365E-06 1.05008E-18 3.90396E-19
 -1      2535 9.39666E-05-2.34842E-05-3.02072E-05-1.07080E-05 1.54611E-18 7.53703E-19
 -1      2536 9.62142E-05-2.60217E-05-3.00792E-05-6.74911E-06-8.84165E-19 8.75571E-19
 -1      2537 2.07654E-05-1.99651E-05-8.56023E-08-8.29160E-06-5.83923E-20-1.28114E-18
 -1      2538 2.69889E-05-2.45067E-05-9.10497E-07-2.28565E-05-5.58406E-19-4.65868E-21
 -1      2539 9.36092E-05-2.74683E-05-2.83346E-05 3.79073E-07 8.77321E-19 4.10439E-19
 -1      2540 9.38930E-05-2.73328E-05-2.84820E-05 9.12426E-07 1.05108E-18 6.13344E-19
 -1      2541 9.42570E-05-2.74865E-05-2.86296E-05 4.13758E-07 1.08078E-18 2.50288E-20
 -1      2542 9.57770E-05-5.35372E-05-1.80926E-05 4.32646E-05-1.29893E-18 1.68599E-18
 -1      2543 7.58263E-05-4.69943E-05-1.21365E-05 4.37220E-05-4.47022E-19 1.09013E-18
 -1      2544 9.50655E-05-2.00224E-05-3.22104E-05-1.17556E-05-1.59830E-18-9.52184E-19
 -1      2545 9.54740E-05-2.33648E-05-3.09255E-05-7.97041E-06-1.47069E-18-8.49625E-19
 -1      2546 9.50661E-05-2.25737E-05-3.10489E-05-7.65082E-06-1.33133E-18-1.15261E-18
 -1      2547 9.32086E-05-1.76187E-05-3.24143E-05-1.14173E-05-1.57722E-18-1.30803E-18
 -1      2548 1.18070E-04-5.93722E-05-2.51196E-05-3.21326E-05 4.81432E-18 1.34954E-18
 -1      2549 1.32901E-04-5.94927E-05-3.17580E-05-2.51935E-05 3.63504E-18 6.74874E-19
 -1      2550 1.30736E-04-5.69677E-05-3.16463E-05-2.00842E-05-3.78730E-19 1.18458E-18
 -1      2551 1.41837E-04-5.28538E-05-3.83693E-05-1.34689E-05-4.04035E-19 4.05729E-19
 -1      2552 8.78513E-05-1.08042E-05-3.30559E-05-1.51984E-06 2.58481E-19-2.23056E-18
 -1      2553 8.79561E-05-1.09261E-05-3.30471E-05-2.63943E-06 2.22691E-20-2.24740E-18
 -1      2554 8.93551E-05-1.30983E-05-3.26835E-05-2.93268E-06-8.17602E-20-2.08897E-18
 -1      2555 8.91080E-05-1.27647E-05-3.27219E-05-9.42193E-07 2.70694E-19-2.10739E-18
 -1      2556 1.48815E-04-2.65693E-05-5.26462E-05 5.67737E-06 1.24239E-18 1.06578E-18
 -1      2557 1.46606E-04-1.89348E-05-5.53617E-05 6.84493E-06 1.12211E-18 1.34276E-18
 -1      2558 1.44474E-04-1.37112E-05-5.65523E-05-3.52066E-06 3.54335E-18-1.31227E-18
 -1      2559 1.45393E-04-1.87476E-05-5.46086E-05-5.91680E-06 3.66024E-18-2.51908E-18
 -1      2560 2.42587E-05-2.19288E-05-6.56751E-07-1.86923E-05-8.01505E-19-1.37558E-18
 -1      2561 3.67791E-05-2.45065E-05-4.93065E-06-2.97234E-05-6.53062E-19-3.18061E-18
 -1      2562 1.44401E-04-1.14783E-05-5.73572E-05 3.96196E-06 1.60343E-18 5.94617E-19
 -1      2563 1.44100E-04-1.03108E-05-5.78143E-05 4.17509E-07 2.73126E-18 1.93229E-20
 -1      2564 1.45171E-04-4.52618E-05-4.31328E-05-4.45507E-06 6.56980E-20 2.43734E-19
 -1      2565 1.50023E-04-3.71811E-05-4.87655E-05 8.82813E-07 4.31457E-19 3.76506E-19
 -1      2566 1.42054E-04-5.07616E-05-3.90461E-05-1.10986E-06-2.23617E-19 6.09864E-20
 -1      2567 1.02123E-04-5.49764E-05-1.99942E-05-3.71571E-05-2.14829E-18 1.09955E-19
 -1      2568 1.17100E-04-5.79488E-05-2.55982E-05-3.29503E-05-9.63076E-19 9.84993E-19
 -1      2569 5.88313E-05-3.62499E-05-9.25273E-06-3.97102E-05-1.46897E-18-2.08116E-18
 -1      2570 8.05544E-05-4.67550E-05-1.44173E-05-4.33008E-05-1.63096E-18-7.93458E-19
 -1      2571 9.44443E-05-5.10116E-05-1.83377E-05-3.83820E-05-2.02271E-18 1.22185E-19
 -1      2572 1.93850E-05-1.86715E-05 7.59220E-08 7.80320E-06-1.07965E-18 3.87518E-19
 -1      2573 1.87057E-05-1.88550E-05 2.90570E-07-6.92055E-06-1.18331E-18 2.26581E-19
 -1      2574 2.80898E-05-1.58978E-05-4.64210E-06-1.04703E-05-7.78053E-19-6.72968E-19
 -1      2575 3.62804E-05-2.64304E-05-3.98536E-06 3.08213E-05-1.64748E-19 1.15493E-18
 -1      2576 2.52210E-05-2.21720E-05-1.04822E-06 1.87024E-05-1.04016E-18 8.21198E-19
 -1      2577 3.03348E-05-1.72689E-05-5.02126E-06 1.36866E-05-1.01718E-18 9.03996E-19
 -1      2578 7.48894E-05-4.58253E-05-1.24747E-05 4.26607E-05-1.24302E-19-2.69780E-19
 -1      2579 5.51141E-05-3.73378E-05-7.35938E-06 3.82250E-05 3.61048E-19 1.63054E-19
 -1      2580 1.13185E-04-5.74456E-05-2.39907E-05 3.43524E-05-6.20028E-19 1.38500E-18
 -1      2581 9.51453E-05-5.37209E-05-1.76765E-05 3.80794E-05-3.64648E-19-3.19755E-20
 -1      2582 1.37651E-04-5.70052E-05-3.49912E-05 1.82601E-05 4.23516E-20-8.47033E-21
 -1      2583 1.25608E-04-5.88819E-05-2.86801E-05 2.53338E-05-1.37516E-18 1.44334E-18
 -1      2584 1.22568E-04-6.06754E-05-2.62565E-05 2.62663E-05-1.16266E-18 1.46590E-18
 -1      2585 1.51705E-04-4.17722E-05-4.75079E-05-1.85814E-06 9.85099E-19 5.06737E-19
 -1      2586 1.46100E-04-4.96595E-05-4.13882E-05 3.38991E-06 5.89376E-19 8.54233E-19
 -1      2587 1.54066E-04-2.29060E-05-5.65960E-05-6.02960E-06 2.34840E-19 1.88888E-18
 -1      2588 1.52082E-04-2.96666E-05-5.27121E-05-5.46776E-06 9.29619E-19 1.61910E-18
 -1      2589 1.46157E-04-1.18140E-05-5.81798E-05-3.20909E-06-1.40099E-18 2.67226E-18
 -1      2590 1.50913E-04-1.63502E-05-5.78299E-05-5.90867E-06-1.27055E-20 2.29747E-18
 -1      2591 1.45899E-04-1.82014E-05-5.51980E-05 6.15436E-06-2.89982E-18 9.92934E-19
 -1      2592 1.46139E-04-1.31133E-05-5.74651E-05 2.36852E-06-2.33146E-18 2.05797E-18
 -1      2593 1.47962E-04-3.84133E-05-4.72050E-05 4.90212E-06-2.74650E-19-1.73938E-18
 -1      2594 1.48241E-04-2.92251E-05-5.16219E-05 6.98872E-06-1.79867E-18-2.49239E-19
 -1      2595 1.42098E-04-5.56267E-05-3.71239E-05-1.27745E-05 1.77475E-18-1.03042E-18
 -1      2596 1.48147E-04-4.96644E-05-4.27788E-05-4.74934E-06 4.06867E-19-2.58091E-18
 -1      2597 8.35655E-05-5.05016E-05-1.39552E-05-4.20651E-05 3.91626E-18 1.38561E-18
 -1      2598 1.00834E-04-5.54473E-05-1.96152E-05-4.13567E-05 4.36815E-18 4.74497E-19
 -1      2599 1.27348E-04-5.82828E-05-2.98198E-05 2.96368E-05-9.67947E-19-9.87005E-19
 -1      2600 1.12469E-04-5.76427E-05-2.34777E-05 3.53520E-05-1.21465E-18-2.95509E-19
 -1      2601 1.45441E-04-5.08426E-05-4.08481E-05 1.15757E-05-5.82176E-19-1.37050E-18
 -1      2602 1.37735E-04-5.56078E-05-3.52304E-05 1.75430E-05-9.35654E-19-1.12401E-18
 -1      2603 9.63260E-05-2.50931E-05-3.05543E-05 7.59971E-06 1.66836E-18 1.38897E-18
 -1      2604 9.74484E-05-2.37767E-05-3.15950E-05 1.06990E-05 1.70187E-18 1.67781E-18
 -1      2605 9.58835E-05-2.13016E-05-3.20195E-05 1.19014E-05 1.91595E-18 1.00932E-18
 -1      2606 9.58720E-05-2.41600E-05-3.07669E-05 7.69206E-06 1.72903E-18 5.14506E-19
 -1      2607 1.36619E-04-1.43336E-05-5.26577E-05 7.92346E-06 1.22862E-18 4.91067E-19
 -1      2608 9.08037E-05-1.50433E-05-3.24577E-05-6.81980E-06-7.89425E-19-2.05298E-18
 -1      2609 8.97018E-05-1.31891E-05-3.28440E-05-7.96299E-06-8.67857E-19-2.18894E-18
 -1      2610 9.03331E-05-1.39127E-05-3.28163E-05-9.17709E-06-1.17534E-18-1.98648E-18
 -1      2611 3.18699E-05-1.55592E-05-6.62824E-06 9.55082E-06 8.82344E-19 2.55846E-18
 -1      2612 2.55436E-05-1.75337E-05-2.87215E-06 1.13355E-06 4.09818E-19 1.59200E-18
 -1      2613 3.10398E-05-1.54348E-05-6.13916E-06-7.73659E-06-8.52168E-19 1.25594E-18
 -1      2614 8.38049E-05-4.62830E-05-1.58760E-05 4.12102E-05-1.33429E-18-7.03884E-19
 -1      2615 6.83302E-05-4.13985E-05-1.11975E-05 4.22631E-05 4.37704E-19-1.03507E-18
 -1      2616 6.17168E-05-3.41067E-05-1.13716E-05 3.88953E-05 1.30994E-18-2.68393E-18
 -1      2617 9.42408E-05-1.90806E-05-3.22567E-05 1.16107E-05 1.91579E-18 1.49303E-19
 -1      2618 1.41572E-04-2.44262E-05-5.04292E-05-7.35235E-06 2.22685E-18-3.98857E-18
 -1      2619 1.14830E-04-5.96870E-05-2.33391E-05-3.34811E-05 4.32876E-18 1.38320E-18
 -1      2620 1.45349E-04-4.68676E-05-4.24462E-05 1.03897E-07-5.83659E-19-3.85675E-18
 -1      2621 3.83654E-05-2.13811E-05-6.73996E-06-2.48814E-05 2.75709E-19-1.33217E-18
 -1      2622 3.83975E-05-2.75044E-05-4.27291E-06-2.96619E-05 1.11406E-18 1.28389E-18
 -1      2623 5.07554E-05-3.06407E-05-8.55436E-06-3.59272E-05 2.09482E-18 1.05201E-18
 -1      2624 9.47118E-05-2.06027E-05-3.17167E-05 9.67809E-06 1.80855E-18-8.36511E-20
 -1      2625 9.68234E-05-2.74675E-05-2.97211E-05 5.32350E-06 1.65066E-18 5.90903E-18
 -1      2626 9.20537E-05-1.62360E-05-3.25329E-05-1.04031E-05-1.42235E-18-1.62485E-18
 -1      2627 9.65383E-05-2.68544E-05-2.98590E-05 6.09391E-06 1.15425E-18 5.32452E-18
 -1      2628 9.75119E-05-2.72628E-05-3.00769E-05-7.64237E-06-1.27021E-18 7.14563E-19
 -1      2629 9.60985E-05-2.56027E-05-3.02180E-05-8.57936E-06-5.70470E-19-1.78562E-18
 -1      2630 9.63582E-05-2.59168E-05-3.01927E-05-1.00244E-05-7.74146E-19-1.31341E-18
 -1      2631 9.85850E-05-2.79809E-05-3.02521E-05-8.54353E-06-7.78992E-19 1.69158E-18
 -1      2632 1.34410E-04-5.96482E-05-3.19121E-05 1.91817E-05-1.75177E-18-2.11578E-18
 -1      2633 7.67858E-05-4.58835E-05-1.28850E-05-4.28089E-05 3.90525E-18 2.40303E-18
 -1      2634 9.47237E-05-2.69371E-05-2.90640E-05 1.89379E-06 1.31943E-18 2.60396E-21
 -1      2635 1.09400E-04-5.80159E-05-2.18357E-05 3.68882E-05-2.02907E-18-1.15353E-18
 -1      2636 1.38153E-04-5.98746E-05-3.34469E-05-1.43843E-05 2.92438E-18 2.98156E-19
 -1      2637 1.27825E-04-5.95055E-05-2.91667E-05-2.13319E-05-6.29134E-19 1.06366E-18
 -1      2638 1.44422E-04-4.52570E-05-4.26564E-05 4.86276E-06 8.51374E-19-1.22904E-18
 -1      2639 1.39149E-04-2.37018E-05-4.98201E-05 1.05405E-05-1.00839E-18-7.43907E-19
 -1      2640 1.36870E-04-1.16739E-05-5.39482E-05-4.13032E-08-1.40502E-18 2.15968E-18
 -1      2641 1.42216E-04-1.80019E-05-5.32637E-05-9.98459E-06-3.18908E-19 2.01700E-18
 -1      2642 1.41872E-04-5.55181E-05-3.68857E-05 5.37210E-06-4.52845E-19 5.25796E-19
 -1      2643 5.04837E-05-2.91379E-05-8.57819E-06-3.56456E-05-8.98808E-19-2.66434E-18
 -1      2644 6.43555E-05-3.36420E-05-1.28692E-05-3.65468E-05-9.80123E-19-1.04185E-18
 -1      2645 4.40382E-05-2.19008E-05-8.92754E-06-2.81658E-05-2.88997E-19-2.87441E-18
 -1      2646 1.34060E-04-1.04993E-05-5.32592E-05-3.01471E-06 2.31176E-18-8.24163E-19
 -1      2647 9.70700E-05-2.73307E-05-2.98936E-05 7.37009E-06 1.22711E-18 3.80854E-18
 -1      2648 1.42517E-04-3.29308E-05-4.70483E-05 9.20309E-06 1.04736E-18 4.20340E-19
 -1      2649 5.32505E-05-3.11740E-05-8.93186E-06 3.42195E-05-2.85662E-19 6.62803E-19
 -1      2650 9.19323E-05-5.10016E-05-1.71506E-05 3.83946E-05-1.08420E-19-4.37678E-19
 -1      2651 1.46043E-04-3.63082E-05-4.71466E-05-1.05813E-05 1.49925E-19 1.46876E-18
 -1      2652 9.81627E-05-2.76885E-05-3.02156E-05-1.00934E-05-5.68287E-19-7.48651E-19
 -1      2653 9.05698E-05-1.51807E-05-3.23320E-05 3.19941E-06 9.10757E-19-1.86846E-18
 -1      2654 9.03805E-05-1.49094E-05-3.23649E-05 2.26446E-06 7.39344E-19-1.95166E-18
 -1      2655 9.02468E-05-1.47069E-05-3.23941E-05 1.42431E-06 6.08654E-19-2.14595E-18
 -1      2656 9.01819E-05-1.46145E-05-3.24052E-05 4.66076E-07 4.72927E-19-2.08652E-18
 -1      2657 9.14333E-05-1.66025E-05-3.20575E-05 1.64392E-06 6.50615E-19-1.94289E-18
 -1      2658 9.21459E-05-1.75555E-05-3.20052E-05 6.48186E-06 1.52364E-18-1.36656E-18
 -1      2659 9.16228E-05-1.67615E-05-3.21058E-05 5.64202E-06 1.45026E-18-1.44187E-18
 -1      2660 9.35613E-05-1.97777E-05-3.16639E-05 7.60511E-06 1.71827E-18-8.89823E-19
 -1      2661 9.27733E-05-1.85243E-05-3.18381E-05 7.02725E-06 1.61902E-18-1.10633E-18
 -1      2662 9.34388E-05-1.98708E-05-3.15067E-05 5.74303E-06 1.48910E-18-1.06488E-18
 -1      2663 9.68587E-05-2.65859E-05-3.01007E-05-1.07072E-05-3.44599E-19-2.29065E-18
 -1      2664 9.56994E-05-2.55228E-05-3.00763E-05-1.12463E-05 3.09526E-19-1.30322E-18
 -1      2665 9.75976E-05-2.73646E-05-3.00961E-05-1.13346E-05-6.59370E-19-2.29392E-18
 -1      2666 9.52125E-05-2.54089E-05-2.99282E-05 3.98773E-06 1.48708E-18-2.34856E-19
 -1      2667 9.55500E-05-2.45592E-05-3.03922E-05 5.61981E-06 1.52011E-18-1.34490E-19
 -1      2668 9.47031E-05-2.19072E-05-3.12050E-05 7.85075E-06 1.70735E-18-2.32577E-19
 -1      2669 9.53971E-05-2.59334E-05-2.97308E-05-2.70391E-06-7.81803E-19-1.06443E-18
 -1      2670 9.51952E-05-2.64960E-05-2.94541E-05-1.72317E-06-6.79701E-19-1.10439E-18
 -1      2671 9.52129E-05-2.70073E-05-2.92076E-05-9.91088E-07-6.32877E-19-9.40266E-19
 -1      2672 9.50797E-05-2.73614E-05-2.90277E-05-3.86789E-07-5.85132E-19-1.00465E-18
 -1      2673 9.54262E-05-2.63298E-05-2.96149E-05-1.63897E-06-7.43360E-19-1.05473E-18
 -1      2674 9.50457E-05-2.76664E-05-2.88607E-05 7.91977E-08-4.84118E-19-9.84252E-19
 -1      2675 9.49674E-05-2.78895E-05-2.87504E-05 4.30107E-07-4.98594E-19-8.55935E-19
 -1      2676 9.54164E-05-2.73282E-05-2.91880E-05-3.55006E-07-5.57619E-19-9.80643E-19
 -1      2677 9.49257E-05-2.80738E-05-2.86405E-05 7.00232E-07-5.33069E-19-8.45529E-19
 -1      2678 9.48974E-05-2.82193E-05-2.85773E-05 8.84318E-07-5.14895E-19-1.08719E-18
 -1      2679 9.53554E-05-2.79394E-05-2.88993E-05 4.37092E-07-5.87974E-19-9.47786E-19
 -1      2680 9.48628E-05-2.83295E-05-2.85081E-05 1.02009E-06-5.71928E-19-1.10564E-18
 -1      2681 9.48703E-05-2.84247E-05-2.84765E-05 1.09729E-06-5.57275E-19-1.08924E-18
 -1      2682 9.52919E-05-2.83172E-05-2.87089E-05 8.81203E-07-6.56538E-19-1.10179E-18
 -1      2683 9.48465E-05-2.84875E-05-2.84363E-05 1.14616E-06-5.20568E-19-9.31932E-19
 -1      2684 9.48767E-05-2.85483E-05-2.84256E-05 1.15799E-06-6.15056E-19-8.91338E-19
 -1      2685 9.52434E-05-2.85439E-05-2.85897E-05 1.09241E-06-4.09599E-19-9.98972E-19
 -1      2686 9.48628E-05-2.85797E-05-2.84057E-05 1.15437E-06-6.33424E-19-7.17623E-19
 -1      2687 9.49061E-05-2.86161E-05-2.84088E-05 1.12979E-06-6.16723E-19-6.92787E-19
 -1      2688 9.52129E-05-2.86706E-05-2.85212E-05 1.15542E-06-6.61105E-19-5.78238E-19
 -1      2689 9.48999E-05-2.86260E-05-2.84031E-05 1.09859E-06-7.05135E-19-7.88829E-19
 -1      2690 9.49497E-05-2.86444E-05-2.84150E-05 1.05798E-06-7.15679E-19-8.85137E-19
 -1      2691 9.51977E-05-2.87294E-05-2.84886E-05 1.13219E-06-6.57324E-19-3.00778E-19
 -1      2692 9.49492E-05-2.86392E-05-2.84193E-05 1.01719E-06-7.48704E-19-7.98082E-19
 -1      2693 9.50018E-05-2.86443E-05-2.84372E-05 9.75170E-07-5.60899E-19-1.03800E-18
 -1      2694 9.51942E-05-2.87406E-05-2.84817E-05 1.06772E-06-7.47260E-19-8.27904E-19
 -1      2695 9.50054E-05-2.86279E-05-2.84488E-05 9.37973E-07-3.88469E-19-9.06712E-19
 -1      2696 9.50594E-05-2.86226E-05-2.84709E-05 9.05299E-07-9.82132E-20-7.38699E-19
 -1      2697 9.51991E-05-2.87177E-05-2.84932E-05 9.94820E-07-4.65281E-19-8.18782E-19
 -1      2698 9.50661E-05-2.85975E-05-2.84881E-05 8.81668E-07 4.72516E-20-9.48745E-19
 -1      2699 9.51216E-05-2.85839E-05-2.85138E-05 8.66693E-07-2.16703E-19-6.89008E-19
 -1      2700 9.52100E-05-2.86689E-05-2.85186E-05 9.37871E-07-1.43278E-19-5.52531E-19
 -1      2701 9.51307E-05-2.85512E-05-2.85358E-05 8.64633E-07-5.01943E-19-3.96952E-19
 -1      2702 9.51894E-05-2.85306E-05-2.85653E-05 8.74353E-07-4.78771E-19-2.01166E-19
 -1      2703 9.52255E-05-2.85990E-05-2.85551E-05 9.15801E-07-4.06206E-20-6.40039E-19
 -1      2704 9.52004E-05-2.84906E-05-2.85919E-05 9.00838E-07-6.62259E-19-1.73967E-19
 -1      2705 9.52648E-05-2.84637E-05-2.86257E-05 9.41682E-07-6.49684E-19-3.92899E-19
 -1      2706 9.52448E-05-2.85099E-05-2.86014E-05 9.44302E-07-5.75199E-19-3.57493E-19
 -1      2707 9.52777E-05-2.84158E-05-2.86572E-05 1.00334E-06-6.90781E-19-5.54651E-19
 -1      2708 9.53513E-05-2.83832E-05-2.86966E-05 1.08171E-06-5.87942E-19-6.95335E-19
 -1      2709 9.52675E-05-2.84018E-05-2.86575E-05 1.03751E-06-6.75659E-19 3.17136E-20
 -1      2710 9.53659E-05-2.83265E-05-2.87335E-05 1.18527E-06-2.63198E-19-5.43393E-19
 -1      2711 9.54529E-05-2.82884E-05-2.87799E-05 1.30787E-06-3.61348E-19-8.28316E-19
 -1      2712 9.52933E-05-2.82733E-05-2.87237E-05 1.20917E-06-6.27180E-19-4.48257E-19
 -1      2713 9.54690E-05-2.82221E-05-2.88229E-05 1.46040E-06-4.34143E-19-6.76525E-19
 -1      2714 9.55743E-05-2.81791E-05-2.88777E-05 1.63430E-06-5.33375E-19-4.65672E-19
 -1      2715 9.53222E-05-2.81222E-05-2.88008E-05 1.47334E-06-3.28084E-19-4.23771E-19
 -1      2716 9.55918E-05-2.81022E-05-2.89273E-05 1.84322E-06-7.30936E-19-2.45381E-19
 -1      2717 9.57210E-05-2.80558E-05-2.89923E-05 2.07563E-06-5.99160E-19-4.13713E-19
 -1      2718 9.53541E-05-2.79466E-05-2.88897E-05 1.84458E-06-3.97242E-19-7.49088E-20
 -1      2719 9.57399E-05-2.79684E-05-2.90487E-05 2.34835E-06-2.41141E-19-8.00527E-19
 -1      2720 9.58993E-05-2.79216E-05-2.91250E-05 2.64593E-06-1.12048E-19-7.07753E-19
 -1      2721 9.53888E-05-2.77461E-05-2.89904E-05 2.33762E-06-7.08168E-19-7.96846E-22
 -1      2722 9.59202E-05-2.78260E-05-2.91876E-05 2.98917E-06-1.68713E-19-9.17378E-19
 -1      2723 9.61172E-05-2.77847E-05-2.92758E-05 3.35678E-06 2.53473E-20-9.19679E-19
 -1      2724 9.54272E-05-2.75237E-05-2.91020E-05 2.96631E-06-4.74814E-19-7.32475E-19
 -1      2725 9.61425E-05-2.76872E-05-2.93429E-05 3.77532E-06 2.69103E-19-7.45993E-19
 -1      2726 9.63867E-05-2.76626E-05-2.94425E-05 4.21380E-06 6.30997E-19-4.34439E-19
 -1      2727 9.54721E-05-2.72895E-05-2.92214E-05 3.74176E-06 2.11215E-19-6.10285E-19
 -1      2728 9.64229E-05-2.75770E-05-2.95106E-05 4.70860E-06 3.11993E-19-1.02502E-18
 -1      2729 9.67278E-05-2.75894E-05-2.96191E-05 5.21127E-06 8.38740E-21-1.40084E-18
 -1      2730 9.55324E-05-2.70667E-05-2.93425E-05 4.66939E-06 1.30886E-19-3.43824E-19
 -1      2731 9.67905E-05-2.75423E-05-2.96827E-05 5.77654E-06 3.36138E-19-1.30994E-18
 -1      2732 9.71775E-05-2.76269E-05-2.97951E-05 6.32391E-06 4.46971E-20-1.15726E-18
 -1      2733 9.56292E-05-2.69007E-05-2.94555E-05 5.74460E-06 1.59207E-19-7.36569E-19
 -1      2734 9.72996E-05-2.76656E-05-2.98463E-05 6.94277E-06 1.74713E-19-8.01585E-19
 -1      2735 9.78043E-05-2.78807E-05-2.99551E-05 7.49486E-06 6.52181E-19-1.01977E-18
 -1      2736 9.58089E-05-2.68737E-05-2.95455E-05 6.94667E-06 5.28837E-19 2.80503E-19
 -1      2737 9.80496E-05-2.80840E-05-2.99841E-05 8.13254E-06 8.81663E-19-1.19227E-18
 -1      2738 9.87315E-05-2.85198E-05-3.00796E-05 8.61817E-06 8.56979E-19-8.71130E-19
 -1      2739 9.61641E-05-2.71251E-05-2.95938E-05 8.22983E-06 7.16339E-19 7.83962E-19
 -1      2740 9.92138E-05-2.90090E-05-3.00780E-05 9.21055E-06 1.03230E-18-9.37432E-19
 -1      2741 1.00166E-04-2.97928E-05-3.01519E-05 9.51331E-06 9.38868E-19-3.25645E-19
 -1      2742 9.68655E-05-2.78754E-05-2.95812E-05 9.50870E-06 9.27888E-19 2.95672E-19
 -1      2743 1.01071E-04-3.07337E-05-3.01191E-05 9.94582E-06 2.97962E-19 1.33726E-19
 -1      2744 1.02422E-04-3.20147E-05-3.01726E-05 9.88740E-06-1.28223E-19 4.32016E-19
 -1      2745 9.82034E-05-2.94442E-05-2.94977E-05 1.06311E-05 7.15058E-19-9.15685E-20
 -1      2746 1.04015E-04-3.35900E-05-3.01314E-05 9.95743E-06 2.94001E-19 9.48040E-19
 -1      2747 1.05888E-04-3.54725E-05-3.01909E-05 9.28432E-06 4.37987E-19 2.29325E-18
 -1      2748 1.00622E-04-3.22291E-05-2.93656E-05 1.13241E-05 7.01358E-19 1.80081E-19
 -1      2749 1.08479E-04-3.77777E-05-3.02162E-05 8.62241E-06-8.77912E-19 1.71744E-18
 -1      2750 1.10861E-04-4.01169E-05-3.03586E-05 7.01728E-06-1.17231E-18 7.07365E-19
 -1      2751 1.04711E-04-3.65926E-05-2.92833E-05 1.10878E-05-5.26009E-19 1.01519E-18
 -1      2752 1.14558E-04-4.28569E-05-3.06191E-05 5.05970E-06-1.06876E-18 4.96298E-19
 -1      2753 1.17083E-04-4.49407E-05-3.09925E-05 2.29071E-06-9.59625E-19 2.26017E-19
 -1      2754 1.10976E-04-4.24057E-05-2.95104E-05 8.97934E-06-1.26179E-18 1.84475E-19
 -1      2755 1.21296E-04-4.69739E-05-3.17733E-05-1.42109E-06-5.68809E-19 1.40993E-18
 -1      2756 1.23000E-04-4.72278E-05-3.25713E-05-5.01496E-06-3.32915E-19 1.52822E-18
 -1      2757 1.18960E-04-4.80845E-05-3.05469E-05 3.75250E-06-3.24893E-19 1.01301E-18
 -1      2758 1.26303E-04-4.65349E-05-3.42198E-05-1.03831E-05-4.54185E-19 1.97676E-18
 -1      2759 1.25560E-04-4.27415E-05-3.56105E-05-1.34522E-05-2.71884E-19 1.34589E-18
 -1      2760 1.27213E-04-5.01435E-05-3.32112E-05-5.07317E-06-3.42995E-19 1.64505E-18
 -1      2761 1.25499E-04-3.73328E-05-3.81402E-05-1.67714E-05-9.15854E-20 1.63559E-18
 -1      2762 1.22708E-04-3.00985E-05-3.98144E-05-1.64646E-05-3.07791E-19 1.00694E-18
 -1      2763 1.30197E-04-4.25836E-05-3.77652E-05-1.42903E-05-5.03852E-19 1.78023E-18
 -1      2764 1.15562E-04-1.62754E-05-4.29367E-05-2.42147E-07-8.66832E-19-2.86588E-19
 -1      2765 1.16591E-04-1.84594E-05-4.24858E-05 6.16891E-06-7.39936E-19-7.26440E-19
 -1      2766 1.19264E-04-2.36868E-05-4.10981E-05 1.20247E-05 2.45640E-20-5.64534E-19
 -1      2767 1.22206E-04-3.08579E-05-3.95755E-05 1.46057E-05 2.45057E-19-7.34139E-19
 -1      2768 1.23900E-04-3.74629E-05-3.71104E-05 1.37569E-05 3.67242E-19-1.36968E-18
 -1      2769 1.25442E-04-4.30423E-05-3.55296E-05 1.17881E-05 6.72875E-19-5.81104E-19
 -1      2770 1.27755E-04-3.55551E-05-3.97599E-05 1.42769E-05 2.18958E-19-4.19864E-19
 -1      2771 1.23923E-04-4.58405E-05-3.35581E-05 7.11428E-06 9.27289E-19-7.83982E-19
 -1      2772 1.23005E-04-4.72639E-05-3.24612E-05 3.24208E-06 1.43613E-18-1.04837E-19
 -1      2773 1.28022E-04-4.72419E-05-3.47204E-05 7.63417E-06 7.73076E-19-3.80900E-19
 -1      2774 1.19216E-04-4.62311E-05-3.13620E-05-1.27013E-06 1.02374E-18-5.29695E-19
 -1      2775 1.16850E-04-4.47827E-05-3.07884E-05-4.65224E-06 6.32466E-19 1.25364E-19
 -1      2776 1.22393E-04-4.90697E-05-3.14925E-05-1.77690E-06 1.30668E-18-1.69410E-18
 -1      2777 1.12895E-04-4.22482E-05-3.03430E-05-7.54240E-06 7.33815E-19 4.98687E-19
 -1      2778 1.10271E-04-3.98265E-05-3.00991E-05-9.72615E-06 1.12793E-18 5.28072E-20
 -1      2779 1.14550E-04-4.49997E-05-2.99190E-05-8.82213E-06 7.39718E-19-9.65141E-19
 -1      2780 1.07192E-04-3.72806E-05-2.99998E-05-1.10613E-05 1.15137E-18-4.00991E-19
 -1      2781 1.04934E-04-3.49915E-05-2.99112E-05-1.21201E-05 1.10362E-18-1.17760E-19
 -1      2782 1.07541E-04-3.91207E-05-2.94196E-05-1.25519E-05 8.24326E-19-3.11195E-19
 -1      2783 1.02843E-04-3.29792E-05-2.99595E-05-1.24041E-05 1.12476E-18-1.34414E-18
 -1      2784 1.01106E-04-3.11682E-05-2.99311E-05-1.25956E-05 6.91040E-19-1.51561E-18
 -1      2785 1.02448E-04-3.39137E-05-2.94356E-05-1.37870E-05 5.24465E-19-1.26310E-18
 -1      2786 9.98352E-05-2.98536E-05-2.99985E-05-1.23834E-05 5.97262E-19-2.17024E-18
 -1      2787 9.85046E-05-2.84573E-05-2.99961E-05-1.19210E-05-7.27567E-19-2.09942E-18
 -1      2788 9.70014E-05-2.74272E-05-2.98361E-05-1.26385E-05-6.04235E-19-2.78018E-18
 -1      2789 9.91739E-05-3.01631E-05-2.96132E-05-1.35965E-05 4.06805E-19-2.41846E-18
 -1      2790 1.36179E-04-5.86009E-05-3.36437E-05 1.13504E-05-1.36092E-18-2.65958E-18
 -1      2791 1.28905E-04-6.08890E-05-2.89848E-05 2.13333E-05-1.39766E-18-1.76077E-18
 -1      2792 9.44690E-05-2.81248E-05-2.84330E-05-8.83186E-07 7.18260E-19-3.10444E-19
 -1      2793 9.44857E-05-2.79985E-05-2.84833E-05-7.06696E-07 8.30341E-19-1.76336E-19
 -1      2794 9.45460E-05-2.78482E-05-2.85856E-05-4.30290E-07 8.27929E-19-2.70544E-19
 -1      2795 9.46349E-05-2.76620E-05-2.86843E-05-8.63712E-08 1.01675E-18-1.52659E-19
 -1      2796 9.50042E-05-2.79086E-05-2.87636E-05-4.40935E-07 8.73502E-19-4.51701E-19
 -1      2797 9.45126E-05-2.84228E-05-2.83231E-05-1.14767E-06 9.83871E-20-1.40695E-19
 -1      2798 9.44543E-05-2.83610E-05-2.83226E-05-1.14010E-06 1.96572E-19-1.89520E-19
 -1      2799 9.45893E-05-2.84969E-05-2.83240E-05-1.11465E-06 3.37671E-19-4.35691E-19
 -1      2800 9.45170E-05-2.84546E-05-2.83114E-05-1.14245E-06 3.58310E-19-1.78855E-19
 -1      2801 9.48954E-05-2.85587E-05-2.84331E-05-1.17273E-06 3.60462E-19-2.47696E-19
 -1      2802 9.46817E-05-2.85397E-05-2.83452E-05-1.03750E-06 2.07200E-19-6.92975E-19
 -1      2803 9.46041E-05-2.85121E-05-2.83254E-05-1.08105E-06 1.54876E-19-6.65168E-19
 -1      2804 9.49202E-05-2.86234E-05-2.84151E-05-1.14418E-06 4.57532E-19-2.49639E-19
 -1      2805 9.47813E-05-2.85592E-05-2.83794E-05-9.47986E-07 2.33701E-19-4.34928E-19
 -1      2806 9.47031E-05-2.85431E-05-2.83553E-05-9.93439E-07 2.86063E-19-6.18945E-19
 -1      2807 9.49597E-05-2.86489E-05-2.84204E-05-1.07224E-06 1.90219E-19-2.31722E-19
 -1      2808 9.48839E-05-2.85611E-05-2.84223E-05-8.69060E-07 4.61220E-19-3.14754E-19
 -1      2809 9.48067E-05-2.85539E-05-2.83955E-05-9.06391E-07 3.44257E-19-3.34748E-19
 -1      2810 9.50080E-05-2.86462E-05-2.84418E-05-9.89788E-07 1.80898E-19-2.77143E-19
 -1      2811 9.49889E-05-2.85494E-05-2.84720E-05-8.17942E-07 3.53486E-19-3.73007E-19
 -1      2812 9.49121E-05-2.85490E-05-2.84430E-05-8.39548E-07 4.88643E-19-4.03069E-19
 -1      2813 9.50618E-05-2.86223E-05-2.84749E-05-9.20871E-07 4.63201E-19-6.48458E-20
 -1      2814 9.50984E-05-2.85269E-05-2.85281E-05-8.08305E-07 3.26611E-19-2.91953E-19
 -1      2815 9.50196E-05-2.85318E-05-2.84965E-05-8.08031E-07 3.20019E-19-3.08450E-19
 -1      2816 9.51200E-05-2.85818E-05-2.85171E-05-8.83768E-07 3.20789E-19-4.85734E-19
 -1      2817 9.52170E-05-2.84960E-05-2.85916E-05-8.51866E-07 3.01597E-19-5.67083E-19
 -1      2818 9.51325E-05-2.85046E-05-2.85565E-05-8.24309E-07 3.37484E-19 5.86148E-20
 -1      2819 9.51834E-05-2.85275E-05-2.85676E-05-8.93181E-07 1.76564E-19-2.38744E-19
 -1      2820 9.53508E-05-2.84585E-05-2.86643E-05-9.59425E-07 3.76543E-20 2.90024E-19
 -1      2821 9.52557E-05-2.84695E-05-2.86243E-05-8.99506E-07 1.94618E-19-2.92344E-19
 -1      2822 9.52542E-05-2.84610E-05-2.86266E-05-9.61829E-07 1.64603E-20-1.75536E-19
 -1      2823 9.55081E-05-2.84169E-05-2.87487E-05-1.14139E-06-4.07489E-20 6.66766E-19
 -1      2824 9.53962E-05-2.84284E-05-2.87022E-05-1.04419E-06 3.62573E-19 6.16319E-19
 -1      2825 9.53358E-05-2.83835E-05-2.86950E-05-1.10147E-06-1.25444E-19 2.16318E-19
 -1      2826 9.56985E-05-2.83744E-05-2.88476E-05-1.40773E-06-1.76936E-19 7.26435E-20
 -1      2827 9.55629E-05-2.83839E-05-2.87927E-05-1.26860E-06-1.37086E-19 5.12749E-19
 -1      2828 9.54332E-05-2.82965E-05-2.87743E-05-1.32333E-06 5.07178E-20 1.78981E-19
 -1      2829 9.59336E-05-2.83363E-05-2.89636E-05-1.76720E-06 2.15635E-19-6.37150E-19
 -1      2830 9.57662E-05-2.83402E-05-2.88985E-05-1.58229E-06-2.22491E-19-3.05763E-19
 -1      2831 9.55525E-05-2.82030E-05-2.88658E-05-1.63797E-06 7.29238E-20-2.07439E-19
 -1      2832 9.62271E-05-2.83113E-05-2.90991E-05-2.22572E-06 6.64596E-19-7.92346E-19
 -1      2833 9.60187E-05-2.83041E-05-2.90222E-05-1.99296E-06 6.65272E-19-2.16235E-19
 -1      2834 9.57020E-05-2.81086E-05-2.89706E-05-2.05435E-06 3.23399E-19-3.79236E-19
 -1      2835 9.65954E-05-2.83136E-05-2.92551E-05-2.78350E-06 4.55956E-19-5.17324E-19
 -1      2836 9.63360E-05-2.82869E-05-2.91655E-05-2.50427E-06 8.11252E-19-5.02359E-19
 -1      2837 9.58928E-05-2.80239E-05-2.90890E-05-2.57803E-06 5.04299E-19 4.28695E-20
 -1      2838 9.70590E-05-2.83660E-05-2.94309E-05-3.43064E-06 1.85267E-19-9.83254E-21
 -1      2839 9.67373E-05-2.83070E-05-2.93286E-05-3.11236E-06 1.82221E-19-4.75740E-19
 -1      2840 9.61405E-05-2.79673E-05-2.92199E-05-3.20816E-06 3.10786E-19-6.18818E-19
 -1      2841 9.76443E-05-2.85035E-05-2.96231E-05-4.14066E-06-2.35507E-19-1.16284E-18
 -1      2842 9.72476E-05-2.83933E-05-2.95096E-05-3.80041E-06-3.95545E-20-3.11321E-19
 -1      2843 9.64681E-05-2.79697E-05-2.93600E-05-3.93291E-06 1.05138E-19-1.07936E-18
 -1      2844 9.83874E-05-2.87791E-05-2.98248E-05-4.86154E-06-3.15600E-19-1.76538E-18
 -1      2845 9.79010E-05-2.85903E-05-2.97037E-05-4.53107E-06-2.25791E-19-1.36739E-18
 -1      2846 9.69104E-05-2.80798E-05-2.95036E-05-4.72297E-06 5.90501E-20-1.29550E-18
 -1      2847 9.93375E-05-2.92674E-05-3.00258E-05-5.50423E-06-2.95783E-19-9.50985E-19
 -1      2848 9.87446E-05-2.89629E-05-2.99029E-05-5.23603E-06-3.57439E-19-1.33374E-18
 -1      2849 9.75209E-05-2.83708E-05-2.96425E-05-5.52265E-06-2.83410E-19-1.05441E-18
 -1      2850 1.00561E-04-3.00651E-05-3.02138E-05-5.92915E-06 4.42250E-19-1.12260E-18
 -1      2851 9.98437E-05-2.95999E-05-3.00965E-05-5.80274E-06 3.65271E-19-6.92230E-19
 -1      2852 9.83798E-05-2.89464E-05-2.97674E-05-6.23792E-06-1.46785E-19-6.82656E-19
 -1      2853 1.02138E-04-3.12782E-05-3.03784E-05-5.93384E-06-4.49055E-19-7.30387E-19
 -1      2854 1.01282E-04-3.06088E-05-3.02739E-05-6.05954E-06-3.14598E-19-7.88371E-19
 -1      2855 9.96009E-05-2.99391E-05-2.98707E-05-6.72132E-06-4.00078E-19-1.09312E-19
 -1      2856 1.04139E-04-3.29797E-05-3.05195E-05-5.24929E-06-5.92789E-19 1.91038E-19
 -1      2857 1.03152E-04-3.20909E-05-3.04310E-05-5.76353E-06-4.71546E-19-6.80409E-19
 -1      2858 1.01330E-04-3.14895E-05-2.99547E-05-6.75467E-06-4.18122E-19 3.35485E-19
 -1      2859 1.06570E-04-3.51159E-05-3.06609E-05-3.56426E-06 1.09024E-19 1.00256E-18
 -1      2860 1.05507E-04-3.40739E-05-3.05809E-05-4.60446E-06-2.45619E-19 1.09869E-19
 -1      2861 1.03710E-04-3.36835E-05-3.00429E-05-6.03591E-06-5.97885E-19 2.29340E-19
 -1      2862 1.09246E-04-3.73501E-05-3.08664E-05-6.15934E-07 4.55360E-19 1.08644E-18
 -1      2863 1.08269E-04-3.63832E-05-3.07692E-05-2.25618E-06 5.03042E-19 1.40990E-18
 -1      2864 1.06794E-04-3.64158E-05-3.01979E-05-4.19281E-06 2.18772E-19 1.21833E-18
 -1      2865 1.11659E-04-3.88722E-05-3.12517E-05 3.60422E-06-1.16845E-18 1.44671E-18
 -1      2866 1.11066E-04-3.84503E-05-3.10906E-05 1.48295E-06-1.19949E-19 9.56863E-19
 -1      2867 1.10373E-04-3.91834E-05-3.05399E-05-8.78102E-07 1.53829E-19 1.12056E-18
 -1      2868 1.12850E-04-3.83570E-05-3.19401E-05 8.32662E-06-1.20142E-18 1.80302E-18
 -1      2869 1.12981E-04-3.90787E-05-3.16766E-05 6.30708E-06-1.05066E-18 1.76579E-18
 -1      2870 1.13630E-04-4.07752E-05-3.12584E-05 4.10729E-06-1.35881E-18 1.45077E-18
 -1      2871 1.11942E-04-3.48759E-05-3.29938E-05 1.20867E-05-6.11826E-19 1.35871E-18
 -1      2872 1.13102E-04-3.72224E-05-3.25916E-05 1.08861E-05-1.41779E-18 1.47705E-18
 -1      2873 1.15392E-04-3.94588E-05-3.25255E-05 9.81697E-06-1.06913E-18 1.49715E-18
 -1      2874 1.08769E-04-2.87220E-05-3.42415E-05 1.20466E-05-3.11132E-19 1.74351E-18
 -1      2875 1.10523E-04-3.19419E-05-3.38236E-05 1.28456E-05-2.63646E-19 1.31297E-18
 -1      2876 1.14258E-04-3.43198E-05-3.41764E-05 1.34977E-05-6.07495E-19 1.01981E-18
 -1      2877 1.05345E-04-2.30248E-05-3.52300E-05 6.92545E-06-2.22254E-19 1.52193E-18
 -1      2878 1.06728E-04-2.54714E-05-3.49566E-05 9.88888E-06-3.27282E-19 1.61600E-18
 -1      2879 1.10671E-04-2.67568E-05-3.59772E-05 1.22023E-05-3.38085E-19 2.52270E-19
 -1      2880 1.04461E-04-2.20397E-05-3.54116E-05-1.67995E-06-4.98876E-19 1.28623E-18
 -1      2881 1.04306E-04-2.18011E-05-3.54698E-05 2.04006E-06-6.00070E-20 2.02151E-18
 -1      2882 1.07153E-04-2.07046E-05-3.70558E-05 5.19564E-06-2.47532E-19-8.05343E-20
 -1      2883 1.06912E-04-2.64354E-05-3.46710E-05-8.73724E-06-8.33136E-20 1.32290E-18
 -1      2884 1.05561E-04-2.37656E-05-3.50392E-05-6.15891E-06-8.56986E-19 1.07247E-18
 -1      2885 1.07672E-04-2.16368E-05-3.68344E-05-4.44362E-06-7.44059E-19 7.56010E-20
 -1      2886 1.10533E-04-3.29601E-05-3.33643E-05-1.08664E-05-3.63980E-20 1.45596E-18
 -1      2887 1.08925E-04-2.97629E-05-3.38579E-05-1.04956E-05 6.97783E-19 2.29641E-18
 -1      2888 1.10917E-04-2.78346E-05-3.56346E-05-1.08609E-05-1.68454E-19 8.21973E-19
 -1      2889 1.12417E-04-3.77082E-05-3.20734E-05-8.06154E-06-6.84171E-19 5.73844E-19
 -1      2890 1.11573E-04-3.56873E-05-3.25062E-05-9.57542E-06-7.71998E-19 8.52203E-19
 -1      2891 1.14352E-04-3.57032E-05-3.36612E-05-1.07020E-05 1.72212E-19 2.02012E-18
 -1      2892 1.11707E-04-3.91016E-05-3.11160E-05-3.09397E-06 1.82776E-19 2.26554E-19
 -1      2893 1.11873E-04-3.86422E-05-3.14197E-05-5.36836E-06 2.17623E-20 2.19815E-19
 -1      2894 1.14805E-04-4.01947E-05-3.19499E-05-6.18611E-06-2.06837E-20-1.36275E-19
 -1      2895 1.09198E-04-3.79106E-05-3.05201E-05 1.76089E-06 2.27047E-19 2.15289E-19
 -1      2896 1.10099E-04-3.85705E-05-3.07122E-05-3.76218E-07 1.95590E-19-2.32531E-19
 -1      2897 1.12550E-04-4.07524E-05-3.07812E-05-5.02010E-07 4.04275E-19-1.79341E-18
 -1      2898 1.06008E-04-3.54757E-05-3.01879E-05 5.33536E-06-3.10941E-20 5.92358E-19
 -1      2899 1.07255E-04-3.66459E-05-3.03129E-05 3.78101E-06-2.99716E-19 3.01832E-19
 -1      2900 1.08897E-04-3.86626E-05-3.01332E-05 4.26249E-06 1.01364E-19-1.83560E-18
 -1      2901 1.02891E-04-3.27806E-05-3.00096E-05 7.35572E-06 1.69494E-18 2.06853E-18
 -1      2902 1.04202E-04-3.40485E-05-3.01029E-05 6.50340E-06 5.77546E-19 1.34039E-18
 -1      2903 1.05094E-04-3.55275E-05-2.98516E-05 7.35675E-06-7.95334E-20-2.76125E-18
 -1      2904 1.00181E-04-3.03126E-05-2.99116E-05 7.94011E-06 2.59898E-18 4.01994E-18
 -1      2905 1.01392E-04-3.14705E-05-2.99896E-05 7.75843E-06 3.03378E-18 4.21298E-18
 -1      2906 1.01769E-04-3.23443E-05-2.97830E-05 8.80982E-06 9.37233E-19-1.88396E-19
 -1      2907 9.80159E-05-2.83096E-05-2.98503E-05 7.63563E-06 8.97700E-19 4.28230E-18
 -1      2908 9.90952E-05-2.93344E-05-2.99099E-05 8.02949E-06 1.56784E-18 4.41677E-18
 -1      2909 9.91903E-05-2.96940E-05-2.98009E-05 9.16838E-06 1.65294E-18 2.50427E-18
 -1      2910 9.71694E-05-2.74324E-05-2.98952E-05 8.85414E-06 7.56355E-19 2.07027E-18
 -1      2911 9.28809E-05-1.80102E-05-3.20734E-05-8.84230E-06-1.31844E-18-1.54698E-18
 -1      2912 8.60867E-05-1.74180E-05-2.94750E-05 3.55003E-06-1.33360E-18-1.90028E-18
 -1      2913 8.68910E-05-1.80604E-05-2.94873E-05 5.61908E-06-5.26070E-19-1.46313E-18
 -1      2914 1.35989E-04-3.79267E-05-4.23836E-05 1.13372E-05 8.18763E-19 7.13625E-20
 -1      2915 1.32966E-04-2.82557E-05-4.56170E-05 1.34601E-05 1.21740E-18-7.44860E-19
 -1      2916 9.08875E-05-2.17052E-05-2.96941E-05 1.01249E-05-1.96352E-19-2.92077E-18
 -1      2917 9.22786E-05-2.29224E-05-2.96951E-05 1.07143E-05 5.10423E-19-3.24667E-18
 -1      2918 8.55430E-05-1.68931E-05-2.94433E-05-1.44407E-06 2.98864E-19 8.34372E-19
 -1      2919 8.55871E-05-1.69216E-05-2.94441E-05 8.93663E-07-4.65910E-19-9.15585E-19
 -1      2920 8.46308E-05-1.77098E-05-2.86353E-05 2.58091E-06-5.30005E-19-1.03621E-18
 -1      2921 8.81023E-05-1.92262E-05-2.95728E-05 7.64630E-06-9.17644E-19-1.75684E-18
 -1      2922 8.93908E-05-2.02903E-05-2.95845E-05 9.05136E-06-9.19742E-21-2.66846E-18
 -1      2923 8.98241E-05-2.20871E-05-2.90326E-05 1.06803E-05-4.71745E-19-2.83922E-18
 -1      2924 8.66445E-05-1.94300E-05-2.87829E-05 7.49904E-06-4.41456E-19-1.58862E-18
 -1      2925 8.66362E-05-1.78014E-05-2.94940E-05-6.18765E-06 1.46512E-18 8.85040E-19
 -1      2926 8.59127E-05-1.72208E-05-2.94814E-05-4.09495E-06 6.55955E-19 1.05077E-18
 -1      2927 8.44760E-05-1.75421E-05-2.86439E-05-3.01096E-06 9.29950E-19 5.86155E-19
 -1      2928 8.90970E-05-1.99169E-05-2.96196E-05-9.80458E-06 1.16140E-18-4.10766E-19
 -1      2929 8.77962E-05-1.88601E-05-2.95968E-05-8.32500E-06 1.27235E-18 9.59719E-19
 -1      2930 8.62629E-05-1.89688E-05-2.88189E-05-8.04605E-06 1.07012E-18 4.89224E-19
 -1      2931 9.21169E-05-2.25220E-05-2.97856E-05-1.15748E-05 1.86424E-18 1.21133E-18
 -1      2932 9.06598E-05-2.13094E-05-2.97635E-05-1.09841E-05 1.87780E-18-9.97084E-21
 -1      2933 8.94756E-05-2.15060E-05-2.91263E-05-1.14671E-05 9.11216E-19 4.40413E-20
 -1      2934 9.44016E-05-2.42969E-05-3.00505E-05-1.14569E-05 1.42459E-18-1.31800E-19
 -1      2935 9.47169E-05-2.74129E-05-2.88474E-05 3.97628E-07 1.05522E-18-2.74702E-19
 -1      2936 9.48982E-05-2.71202E-05-2.90200E-05 1.00211E-06 1.10168E-18-2.29761E-19
 -1      2937 9.51261E-05-2.73810E-05-2.90433E-05 3.84714E-07 1.00037E-18-4.25999E-19
 -1      2938 9.44516E-05-2.14285E-05-3.13375E-05-7.65920E-06-1.33302E-18-1.33448E-18
 -1      2939 9.50168E-05-2.31922E-05-3.07362E-05-5.99814E-06-1.08746E-18-1.20692E-18
 -1      2940 9.50539E-05-2.43969E-05-3.03001E-05-4.47752E-06-8.90010E-19-1.15366E-18
 -1      2941 9.30721E-05-1.90473E-05-3.17209E-05-7.06266E-06-1.03391E-18-1.54612E-18
 -1      2942 9.49724E-05-2.66886E-05-2.92701E-05 1.79075E-06 1.21914E-18-2.40035E-19
 -1      2943 9.52407E-05-2.61918E-05-2.95553E-05 2.79921E-06 1.30664E-18-2.38515E-19
 -1      2944 9.52686E-05-2.50216E-05-3.01029E-05 3.83145E-06 1.42974E-18-5.03039E-19
 -1      2945 9.52502E-05-2.65024E-05-2.94701E-05 1.74532E-06 1.24414E-18-4.87647E-19
 -1      2946 1.40795E-04-5.09334E-05-3.85359E-05 4.41546E-06 1.29173E-18-5.69100E-19
 -1      2947 1.38030E-04-4.09516E-05-4.22519E-05 1.08802E-05-1.37537E-19-6.14840E-19
 -1      2948 1.36649E-04-5.20367E-05-3.62246E-05 5.96235E-07-2.69198E-20 4.61633E-20
 -1      2949 1.38193E-04-4.60027E-05-4.01031E-05 6.62569E-06 1.00797E-19 1.48231E-19
 -1      2950 1.32043E-04-4.07114E-05-3.92930E-05 1.20533E-05-1.12973E-19-3.61207E-19
 -1      2951 3.80804E-05-1.67553E-05-8.68800E-06 1.90031E-05-1.16012E-18 1.20554E-18
 -1      2952 3.30302E-05-1.34962E-05-7.76946E-06 7.12422E-06-5.99355E-19 3.61895E-19
 -1      2953 9.44659E-05-2.83052E-05-2.83538E-05-1.09178E-06 3.33015E-19-2.51602E-19
 -1      2954 9.44352E-05-2.82170E-05-2.83729E-05-1.02053E-06 5.26723E-19-2.53929E-19
 -1      2955 9.49271E-05-2.82362E-05-2.85882E-05-8.98200E-07 6.26730E-19-4.04848E-19
 -1      2956 9.48940E-05-2.84384E-05-2.84855E-05-1.11213E-06 2.11671E-19-1.00304E-19
 -1      2957 1.17941E-04-5.97542E-05-2.50738E-05 3.11971E-05-1.86930E-18-2.91173E-18
 -1      2958 1.03628E-04-5.49320E-05-2.05669E-05 3.70532E-05-2.49981E-18-1.24220E-18
 -1      2959 9.11849E-05-1.60946E-05-3.22095E-05 4.92380E-06 1.36687E-18-1.51359E-18
 -1      2960 9.08436E-05-1.55963E-05-3.22705E-05 4.00058E-06 1.11459E-18-1.72772E-18
 -1      2961 9.18231E-05-1.72083E-05-3.19625E-05 3.20347E-06 9.82304E-19-1.64993E-18
 -1      2962 9.24882E-05-1.82668E-05-3.17895E-05 4.62297E-06 1.26840E-18-1.38579E-18
 -1      2963 1.21283E-04-5.85404E-05-2.65692E-05-2.27311E-05-9.14796E-19 1.53758E-18
 -1      2964 1.31902E-04-5.90379E-05-3.17606E-05-1.25377E-05-3.79788E-19 1.57342E-18
 -1      2965 9.08083E-05-1.55443E-05-3.22763E-05-3.93238E-06-3.09092E-19-1.99497E-18
 -1      2966 9.11413E-05-1.60386E-05-3.22167E-05-4.86278E-06-5.40153E-19-1.92488E-18
 -1      2967 1.08801E-04-5.65182E-05-2.17895E-05-3.42381E-05 4.03039E-18 2.15483E-18
 -1      2968 1.21989E-04-6.09687E-05-2.64796E-05-2.73558E-05 3.46680E-18 1.79245E-18
 -1      2969 1.25491E-04-9.46634E-06-5.03625E-05 3.91627E-07 1.62059E-18-1.51831E-19
 -1      2970 1.26324E-04-1.21478E-05-4.94458E-05-6.57162E-06 2.35390E-18-1.10273E-18
 -1      2971 6.63003E-05-3.55312E-05-1.30441E-05 3.75822E-05-2.39287E-19 1.86347E-20
 -1      2972 4.91659E-05-2.45835E-05-1.00061E-05 2.92189E-05-1.78645E-18 2.03606E-18
 -1      2973 3.08493E-05-1.29733E-05-7.05305E-06-3.48390E-06-5.64749E-20 2.68933E-19
 -1      2974 3.45925E-05-1.53855E-05-7.77789E-06-1.57233E-05-1.22899E-19-1.52254E-18
 -1      2975 8.81332E-05-4.54360E-05-1.79133E-05-3.67716E-05-8.81655E-19-1.17102E-19
 -1      2976 1.06611E-04-5.47596E-05-2.23622E-05-3.32172E-05-1.47521E-18 9.31974E-19
 -1      2977 4.97600E-05-2.43194E-05-1.03441E-05 3.07111E-05-4.55068E-19-2.16671E-18
 -1      2978 4.18689E-05-1.90052E-05-8.99598E-06 2.20164E-05-1.24953E-18 6.61533E-19
 -1      2979 1.29291E-04-1.77719E-05-4.82878E-05 1.20707E-05 1.48908E-18-6.69580E-19
 -1      2980 1.25868E-04-1.11469E-05-4.99251E-05 6.44479E-06 1.29533E-18-5.50757E-19
 -1      2981 1.02641E-04-5.39245E-05-2.10611E-05 3.42408E-05-1.70148E-19 9.00502E-19
 -1      2982 8.54664E-05-4.54479E-05-1.66448E-05 3.72456E-05 6.02982E-19-5.75665E-19
 -1      2983 1.36213E-04-3.09988E-05-4.57759E-05-1.48705E-05-3.01967E-19 2.04103E-18
 -1      2984 1.36803E-04-4.04255E-05-4.16097E-05-1.37827E-05-7.87529E-19 1.50200E-18
 -1      2985 1.28615E-04-6.14121E-05-2.91734E-05 1.86149E-05-1.13651E-18 6.34110E-19
 -1      2986 1.18192E-04-5.88281E-05-2.51588E-05 2.50158E-05-4.75927E-19 1.06861E-18
 -1      2987 1.40810E-04-5.11355E-05-3.90097E-05-6.00956E-06-3.21290E-19 1.28018E-18
 -1      2988 1.36441E-04-5.77261E-05-3.37090E-05 5.49024E-06-8.85546E-19 8.41527E-19
 -1      2989 1.32769E-04-5.77359E-05-3.20447E-05 5.62497E-06-6.67396E-19 1.05154E-18
 -1      2990 1.34651E-04-4.52013E-05-3.84912E-05-1.16676E-05-7.18813E-19 1.66071E-18
 -1      2991 1.26632E-04-1.35096E-05-4.91448E-05 5.99240E-06-1.19008E-18-9.37030E-20
 -1      2992 1.26809E-04-1.16951E-05-4.99430E-05-2.16546E-06-1.25975E-18 1.00737E-18
 -1      2993 1.32847E-04-2.99281E-05-4.44596E-05 1.44597E-05-1.90265E-19-1.97570E-19
 -1      2994 1.29437E-04-2.04960E-05-4.73745E-05 1.11063E-05-5.04726E-19 3.36960E-19
 -1      2995 1.40847E-04-4.03099E-05-4.36459E-05-6.74040E-06-1.43890E-19-5.59095E-18
 -1      2996 1.39348E-04-5.00112E-05-3.84915E-05-4.30942E-07-1.78983E-18-4.79929E-18
 -1      2997 1.32892E-04-6.11601E-05-3.05158E-05-1.61925E-05 2.91491E-18 5.60842E-19
 -1      2998 1.39007E-04-5.82527E-05-3.51371E-05-6.59461E-06 2.30585E-18-9.61382E-20
 -1      2999 6.85388E-05-3.90338E-05-1.19489E-05-4.00677E-05 4.50272E-18 1.91588E-18
 -1      3000 8.73648E-05-4.82888E-05-1.69559E-05-4.10281E-05 4.50611E-18 1.73536E-18
 -1      3001 1.29872E-04-1.99765E-05-4.79332E-05-1.06629E-05 1.27309E-18-3.00173E-18
 -1      3002 1.36774E-04-2.98956E-05-4.61318E-05-1.07400E-05 9.34066E-19-4.27995E-18
 -1      3003 1.33169E-04-3.55656E-05-4.20670E-05-1.13091E-05-6.53380E-19-5.07172E-18
 -1      3004 9.15825E-05-1.66957E-05-3.21158E-05-5.57730E-06-7.21094E-19-1.93515E-18
 -1      3005 9.20608E-05-1.74743E-05-3.20239E-05-6.47196E-06-9.69048E-19-1.83167E-18
 -1      3006 9.24384E-05-1.81977E-05-3.17980E-05-4.56144E-06-6.97841E-19-1.72928E-18
 -1      3007 4.25098E-05-1.67640E-05-1.04781E-05 1.41163E-05-1.58618E-18 6.17169E-19
 -1      3008 9.13014E-05-1.63999E-05-3.20885E-05 2.80684E-08 3.41390E-19-1.87268E-18
 -1      3009 9.01777E-05-1.46096E-05-3.24058E-05-3.84158E-07 3.44911E-19-1.92763E-18
 -1      3010 9.02338E-05-1.46893E-05-3.23958E-05-1.34286E-06 1.31280E-19-1.96439E-18
 -1      3011 1.37811E-04-5.47674E-05-3.56926E-05 2.68759E-06-1.16796E-18-4.70717E-18
 -1      3012 1.33122E-04-5.64939E-05-3.28814E-05 6.56684E-06-6.25200E-19-4.64418E-18
 -1      3013 1.34336E-04-4.86606E-05-3.71489E-05-4.99859E-06-9.30042E-19-6.01198E-18
 -1      3014 9.55012E-05-5.04584E-05-1.90618E-05 3.87858E-05-1.98015E-18-6.04411E-19
 -1      3015 8.62228E-05-4.34880E-05-1.79737E-05 3.78997E-05-7.41577E-19-2.60145E-18
 -1      3016 1.04748E-04-5.24778E-05-2.22163E-05 3.27893E-05-2.25613E-18-2.06311E-18
 -1      3017 1.36725E-04-5.40762E-05-3.55260E-05 8.87467E-07 1.69566E-18-9.66676E-20
 -1      3018 9.43527E-05-2.14249E-05-3.12590E-05 7.22500E-06 1.69892E-18-6.41002E-19
 -1      3019 3.82571E-05-1.45387E-05-9.85388E-06-7.31968E-06-5.89747E-20 4.30293E-19
 -1      3020 3.72881E-05-1.72942E-05-7.72239E-06-1.59327E-05 1.79306E-19-6.94567E-19
 -1      3021 4.49073E-05-2.02630E-05-1.03578E-05-2.31793E-05 1.46060E-18-2.43776E-18
 -1      3022 1.32135E-04-5.43920E-05-3.33416E-05-2.75687E-06-4.56643E-19 7.16802E-20
 -1      3023 9.50354E-05-2.40598E-05-3.04198E-05-4.15987E-06-8.71383E-19-1.38843E-18
 -1      3024 1.17097E-04-1.82747E-05-4.25681E-05-8.76409E-06-8.30728E-19 4.31060E-19
 -1      3025 1.20976E-04-1.56718E-05-4.54569E-05-5.44476E-06-1.13365E-18 1.08516E-18
 -1      3026 1.28173E-04-1.53872E-05-4.92262E-05-9.99112E-06-7.71435E-19 1.69917E-18
 -1      3027 1.19225E-04-2.35051E-05-4.15762E-05-1.38142E-05-5.70477E-19 6.65662E-19
 -1      3028 1.23648E-04-5.97880E-05-2.72395E-05 2.33215E-05-1.85860E-18-1.51767E-18
 -1      3029 1.32621E-04-2.12896E-05-4.82203E-05-1.36969E-05-2.55380E-19 1.36097E-18
 -1      3030 3.87540E-05-1.30361E-05-1.04349E-05 1.69455E-06-3.15109E-19-5.39242E-19
 -1      3031 9.64213E-05-2.67488E-05-2.98384E-05 9.66921E-06 1.16278E-18-2.93681E-19
 -1      3032 9.73349E-05-2.79297E-05-2.97473E-05 1.00720E-05-3.32823E-19 4.23242E-19
 -1      3033 9.55009E-05-2.58350E-05-2.98715E-05 1.03068E-05 5.25466E-20-4.54867E-19
 -1      3034 1.23518E-04-1.79852E-05-4.55524E-05-9.21614E-06 6.59203E-19-1.88698E-18
 -1      3035 1.25692E-04-2.42315E-05-4.37747E-05 1.39398E-05 1.01898E-18-1.38723E-18
 -1      3036 1.20025E-04-1.22238E-05-4.65200E-05 4.09281E-06 1.38035E-18 1.50613E-20
 -1      3037 6.42893E-05-3.33040E-05-1.26949E-05-3.63164E-05 3.70386E-18-6.01605E-19
 -1      3038 1.14895E-04-5.53708E-05-2.53254E-05-2.41826E-05-9.84358E-19 1.20655E-18
 -1      3039 9.53534E-05-2.60627E-05-2.96769E-05-1.27787E-05 7.64855E-20-9.54006E-19
 -1      3040 9.34636E-05-2.40395E-05-2.97794E-05-1.22736E-05 1.24378E-18 6.63944E-19
 -1      3041 9.27581E-05-2.44167E-05-2.93139E-05-1.31667E-05 6.61224E-19-2.08392E-20
 -1      3042 9.63019E-05-2.73371E-05-2.95382E-05-1.34126E-05-4.97356E-19-1.80402E-18
 -1      3043 9.91821E-05-5.08434E-05-2.03994E-05-3.52700E-05 3.80286E-18 2.36582E-18
 -1      3044 1.27145E-04-6.02085E-05-2.85471E-05-1.85521E-05 2.77202E-18 1.10585E-18
 -1      3045 1.22649E-04-2.03193E-05-4.41774E-05 9.58435E-06-3.61048E-19-2.37857E-19
 -1      3046 6.26578E-05-3.00842E-05-1.35145E-05 3.31642E-05-1.24408E-20-2.30202E-18
 -1      3047 1.26599E-04-2.73574E-05-4.27103E-05-1.62456E-05-4.88473E-19 1.54494E-18
 -1      3048 1.12701E-04-5.51809E-05-2.42051E-05 2.57589E-05-6.61744E-21 9.29698E-19
 -1      3049 7.89112E-05-3.93607E-05-1.65094E-05-3.71739E-05-5.94511E-19-7.80223E-19
 -1      3050 9.13300E-05-4.35973E-05-2.02328E-05-3.22271E-05 3.78147E-19-2.62263E-19
 -1      3051 6.92413E-05-3.19414E-05-1.56253E-05-3.34193E-05-2.99744E-19-7.28766E-19
 -1      3052 8.03470E-05-3.94945E-05-1.69996E-05 3.44004E-05-1.09161E-19-1.00162E-19
 -1      3053 4.32552E-05-1.82458E-05-1.00741E-05-2.18737E-05-4.22564E-19-2.39012E-18
 -1      3054 5.31301E-05-2.21311E-05-1.30836E-05-2.67800E-05-9.28586E-19-2.17899E-18
 -1      3055 4.47623E-05-1.55112E-05-1.20339E-05-1.60706E-05-2.21976E-19-1.68644E-18
 -1      3056 5.10015E-05-2.10177E-05-1.22761E-05 2.31687E-05-1.24244E-18 1.27235E-18
 -1      3057 9.34258E-05-2.39402E-05-2.98064E-05 1.08171E-05-1.88866E-20-2.92424E-18
 -1      3058 9.46143E-05-2.50555E-05-2.97886E-05 1.07004E-05-3.13666E-19-8.66913E-19
 -1      3059 9.54007E-05-2.64305E-05-2.95596E-05 1.13973E-05 9.33657E-20-1.29843E-18
 -1      3060 9.29657E-05-2.45830E-05-2.93153E-05 1.17780E-05 5.36786E-20-2.97206E-18
 -1      3061 9.03579E-05-1.48796E-05-3.23680E-05-2.18138E-06 1.99161E-20-1.89146E-18
 -1      3062 9.05412E-05-1.51439E-05-3.23358E-05-3.13348E-06-1.50322E-19-1.95781E-18
 -1      3063 9.17848E-05-1.71567E-05-3.19679E-05-3.15062E-06-2.14401E-19-1.83203E-18
 -1      3064 9.14190E-05-1.65832E-05-3.20597E-05-1.58679E-06 2.10224E-20-1.80876E-18
 -1      3065 9.46137E-05-2.24687E-05-3.09120E-05 5.70110E-06 1.58493E-18-7.45965E-19
 -1      3066 1.31414E-04-3.71190E-05-4.06781E-05 1.30465E-05-1.40078E-19-9.78694E-19
 -1      3067 9.42802E-05-2.18627E-05-3.10597E-05 4.97689E-06 1.40285E-18-8.99741E-19
 -1      3068 9.38152E-05-2.09112E-05-3.12459E-05 4.62750E-06 1.29324E-18-1.12980E-18
 -1      3069 1.27556E-04-5.50621E-05-3.08164E-05-6.01280E-06-9.01379E-19 4.08720E-19
 -1      3070 1.29696E-04-5.04402E-05-3.44748E-05 4.06822E-06-1.37040E-18-1.24937E-19
 -1      3071 9.56812E-05-2.68880E-05-2.94745E-05-7.60056E-07-6.36920E-19-8.82596E-19
 -1      3072 9.56582E-05-2.73248E-05-2.92933E-05-2.25396E-07-5.54917E-19-9.67994E-19
 -1      3073 9.57025E-05-2.77119E-05-2.91282E-05 1.52523E-07-6.98407E-19-9.10248E-19
 -1      3074 9.56671E-05-2.79964E-05-2.90063E-05 4.69561E-07-8.16309E-19-1.07079E-18
 -1      3075 9.59074E-05-2.73338E-05-2.93920E-05-1.70741E-07-6.50828E-19-9.05409E-19
 -1      3076 9.56594E-05-2.82323E-05-2.88894E-05 6.93448E-07-7.81694E-19-1.05649E-18
 -1      3077 9.56276E-05-2.84103E-05-2.88095E-05 8.64445E-07-6.27102E-19-1.17372E-18
 -1      3078 9.59448E-05-2.80501E-05-2.91015E-05 4.67416E-07-8.51038E-19-8.13924E-19
 -1      3079 9.55956E-05-2.85483E-05-2.87295E-05 9.77516E-07-3.07633E-19-1.25555E-18
 -1      3080 9.55732E-05-2.86545E-05-2.86800E-05 1.05204E-06-3.23300E-19-1.02546E-18
 -1      3081 9.59110E-05-2.84940E-05-2.88965E-05 8.31546E-07-5.03446E-19-1.11680E-18
 -1      3082 9.55311E-05-2.87265E-05-2.86276E-05 1.09212E-06-4.08829E-19-8.50824E-19
 -1      3083 9.55178E-05-2.87834E-05-2.86000E-05 1.10683E-06-6.26145E-19-6.88320E-19
 -1      3084 9.58422E-05-2.87500E-05-2.87568E-05 1.00599E-06-2.89293E-19-1.05651E-18
 -1      3085 9.54731E-05-2.88105E-05-2.85683E-05 1.10312E-06-8.47082E-19-4.67781E-19
 -1      3086 9.54670E-05-2.88329E-05-2.85563E-05 1.08491E-06-7.85790E-19-5.69328E-19
 -1      3087 9.57599E-05-2.88772E-05-2.86665E-05 1.05860E-06-4.54756E-19-7.47892E-19
 -1      3088 9.54233E-05-2.88291E-05-2.85400E-05 1.05932E-06-9.05538E-19-5.38953E-19
 -1      3089 9.54225E-05-2.88268E-05-2.85394E-05 1.02784E-06-6.96443E-19-6.34400E-19
 -1      3090 9.56748E-05-2.89150E-05-2.86134E-05 1.04156E-06-8.08238E-19-4.49882E-19
 -1      3091 9.53810E-05-2.88010E-05-2.85347E-05 9.96684E-07-4.08933E-19-5.10731E-19
 -1      3092 9.53841E-05-2.87805E-05-2.85424E-05 9.66420E-07-1.32746E-19-1.91574E-19
 -1      3093 9.55919E-05-2.88898E-05-2.85882E-05 9.94064E-07-4.79817E-19-6.46845E-21
 -1      3094 9.53447E-05-2.87383E-05-2.85466E-05 9.41957E-07-2.90794E-19-3.13164E-19
 -1      3095 9.53506E-05-2.87036E-05-2.85608E-05 9.23886E-07-2.30327E-19-2.79254E-19
 -1      3096 9.55126E-05-2.88187E-05-2.85844E-05 9.45498E-07-3.29027E-19 1.60136E-20
 -1      3097 9.53122E-05-2.86479E-05-2.85720E-05 9.15656E-07-1.10504E-19-4.77604E-19
 -1      3098 9.53205E-05-2.86010E-05-2.85915E-05 9.18539E-07 4.85503E-21-4.73816E-19
 -1      3099 9.54359E-05-2.87117E-05-2.85970E-05 9.18300E-07-3.04565E-19-5.45762E-19
 -1      3100 9.52813E-05-2.85327E-05-2.86085E-05 9.34411E-07-2.67198E-19-4.90048E-19
 -1      3101 9.52913E-05-2.84743E-05-2.86330E-05 9.65766E-07-5.83090E-19-3.83343E-19
 -1      3102 9.53590E-05-2.85738E-05-2.86229E-05 9.30341E-07-2.39597E-19-6.02285E-19
 -1      3103 9.52489E-05-2.83929E-05-2.86550E-05 1.01274E-06-8.15341E-19-1.22703E-19
 -1      3104 9.52606E-05-2.83228E-05-2.86844E-05 1.07955E-06-8.76839E-19-3.49846E-19
 -1      3105 9.52778E-05-2.84058E-05-2.86598E-05 9.96794E-07-6.03907E-19-7.14763E-19
 -1      3106 9.52117E-05-2.82265E-05-2.87109E-05 1.16434E-06-7.70250E-19-1.94955E-19
 -1      3107 9.52249E-05-2.81437E-05-2.87454E-05 1.27350E-06-6.95579E-19-1.76994E-19
 -1      3108 9.51868E-05-2.82059E-05-2.87061E-05 1.13151E-06-6.63903E-19-2.48480E-19
 -1      3109 9.51658E-05-2.80304E-05-2.87759E-05 1.40286E-06-4.80425E-19-2.06181E-20
 -1      3110 9.51803E-05-2.79338E-05-2.88157E-05 1.56142E-06-2.37671E-19-2.78668E-19
 -1      3111 9.50791E-05-2.79702E-05-2.87606E-05 1.34791E-06-5.59057E-19 9.63109E-20
 -1      3112 9.51064E-05-2.78009E-05-2.88495E-05 1.74232E-06-2.17773E-19 1.76949E-21
 -1      3113 9.51222E-05-2.76897E-05-2.88948E-05 1.95742E-06-5.33182E-19 1.29892E-19
 -1      3114 9.49467E-05-2.76939E-05-2.88218E-05 1.65949E-06-2.84088E-19-5.54300E-21
 -1      3115 9.50285E-05-2.75355E-05-2.89308E-05 2.19693E-06-9.17208E-19 3.79590E-19
 -1      3116 9.50454E-05-2.74100E-05-2.89810E-05 2.47550E-06-7.85269E-19 1.98872E-19
 -1      3117 9.47803E-05-2.73728E-05-2.88875E-05 2.07985E-06-6.53389E-19-4.39537E-20
 -1      3118 9.49268E-05-2.72344E-05-2.90173E-05 2.78058E-06-6.60072E-19 2.69080E-19
 -1      3119 9.49453E-05-2.70978E-05-2.90712E-05 3.12862E-06-2.09796E-19-8.24576E-20
 -1      3120 9.45696E-05-2.70051E-05-2.89540E-05 2.62235E-06-6.36587E-19 1.84141E-19
 -1      3121 9.47974E-05-2.69041E-05-2.91045E-05 3.50562E-06 6.33613E-20 1.36824E-19
 -1      3122 9.48201E-05-2.67645E-05-2.91596E-05 3.92713E-06 2.36937E-19 2.81027E-19
 -1      3123 9.43053E-05-2.65950E-05-2.90156E-05 3.29947E-06-3.79614E-21 6.03625E-19
 -1      3124 9.46410E-05-2.65627E-05-2.91848E-05 4.38135E-06 4.92530E-20 3.67126E-19
 -1      3125 9.46747E-05-2.64368E-05-2.92368E-05 4.87677E-06-2.18424E-19 2.15229E-19
 -1      3126 9.39807E-05-2.61567E-05-2.90634E-05 4.12204E-06 3.11954E-19 7.04835E-19
 -1      3127 9.44691E-05-2.62480E-05-2.92468E-05 5.41200E-06 2.38472E-19 6.51623E-19
 -1      3128 9.45297E-05-2.61671E-05-2.92891E-05 5.97613E-06 5.89777E-19 9.57707E-19
 -1      3129 9.35979E-05-2.57234E-05-2.90843E-05 5.09876E-06 2.33527E-19 7.47370E-19
 -1      3130 9.43153E-05-2.60313E-05-2.92740E-05 6.59455E-06 6.14202E-19 1.13863E-18
 -1      3131 9.44364E-05-2.60498E-05-2.92974E-05 7.21381E-06 7.50765E-19 1.45099E-18
 -1      3132 9.31770E-05-2.53583E-05-2.90602E-05 6.23659E-06 7.45051E-19 1.57119E-18
 -1      3133 9.42551E-05-2.60359E-05-2.92450E-05 7.91607E-06 7.04202E-19 1.32858E-18
 -1      3134 9.45016E-05-2.62438E-05-2.92390E-05 8.56476E-06 9.09386E-19 1.70052E-18
 -1      3135 9.27731E-05-2.51735E-05-2.89679E-05 7.54258E-06 8.02651E-19 1.53400E-18
 -1      3136 9.44386E-05-2.64635E-05-2.91363E-05 9.34919E-06 7.23712E-19 1.77786E-18
 -1      3137 9.49265E-05-2.70002E-05-2.90917E-05 9.98270E-06 9.15226E-19 1.26331E-18
 -1      3138 9.25051E-05-2.53545E-05-2.87804E-05 9.02676E-06 9.64122E-19 1.73025E-18
 -1      3139 9.51383E-05-2.76237E-05-2.89295E-05 1.08392E-05 6.86244E-19 9.78416E-19
 -1      3140 9.60579E-05-2.86879E-05-2.88456E-05 1.13797E-05 2.89449E-19 1.10023E-18
 -1      3141 9.26008E-05-2.61932E-05-2.84731E-05 1.07016E-05 5.96171E-19 1.69035E-18
 -1      3142 9.68126E-05-2.99513E-05-2.86291E-05 1.22634E-05 4.48593E-19 1.20157E-18
 -1      3143 9.84411E-05-3.17865E-05-2.85293E-05 1.25670E-05 7.87107E-19 1.57598E-18
 -1      3144 9.34656E-05-2.81231E-05-2.80376E-05 1.25621E-05 2.33066E-19 1.70065E-18
 -1      3145 1.00147E-04-3.39564E-05-2.83012E-05 1.33358E-05-5.47693E-19 9.54277E-19
 -1      3146 1.02840E-04-3.67845E-05-2.82629E-05 1.31292E-05-1.90757E-18 2.92933E-19
 -1      3147 9.57566E-05-3.17084E-05-2.75153E-05 1.44963E-05-2.21620E-19 1.57159E-18
 -1      3148 1.06082E-04-4.00790E-05-2.81552E-05 1.33964E-05-1.47680E-18 7.04468E-19
 -1      3149 1.10033E-04-4.37424E-05-2.83664E-05 1.21739E-05-4.34171E-19 1.24348E-18
 -1      3150 1.00374E-04-3.75438E-05-2.70632E-05 1.61034E-05-1.08815E-18 1.11769E-18
 -1      3151 1.15483E-04-4.78970E-05-2.87244E-05 1.07489E-05 7.22559E-20 1.37451E-18
 -1      3152 1.20392E-04-5.11111E-05-2.96004E-05 7.47615E-06 2.23048E-19 1.68397E-18
 -1      3153 1.09127E-04-4.62456E-05-2.72064E-05 1.62608E-05-1.64000E-19 1.80730E-18
 -1      3154 1.34212E-04-5.15998E-05-3.55576E-05-7.71570E-06-7.56506E-19 2.55751E-18
 -1      3155 1.26475E-04-5.88199E-05-2.91793E-05 1.66161E-05-1.21406E-18-1.93906E-18
 -1      3156 1.17862E-04-5.71159E-05-2.58817E-05 2.47150E-05-2.04018E-18-1.14165E-18
 -1      3157 9.10385E-05-4.40621E-05-1.94015E-05-3.52026E-05 3.04508E-18 2.97634E-18
 -1      3158 1.06951E-04-5.27636E-05-2.35427E-05-3.03955E-05 2.64708E-18 3.80379E-18
 -1      3159 1.25053E-04-5.28235E-05-3.09748E-05-5.10676E-06 2.02851E-19-1.88379E-19
 -1      3160 1.20981E-04-5.11408E-05-2.97457E-05-9.09669E-06 3.90704E-19-1.12219E-18
 -1      3161 1.15047E-04-4.74100E-05-2.89946E-05-1.21277E-05 1.50595E-18-1.32962E-18
 -1      3162 1.10925E-04-4.38695E-05-2.85845E-05-1.42608E-05 1.16692E-18-1.32723E-19
 -1      3163 1.16013E-04-5.07705E-05-2.81954E-05-1.58349E-05 1.20185E-18-1.50600E-19
 -1      3164 1.06866E-04-4.02152E-05-2.85424E-05-1.49021E-05 7.14611E-19 2.76861E-19
 -1      3165 1.03691E-04-3.69638E-05-2.85068E-05-1.57027E-05 1.05309E-18 3.41962E-19
 -1      3166 1.05793E-04-4.19939E-05-2.75186E-05-1.81114E-05 1.24436E-18 1.02948E-18
 -1      3167 1.01310E-04-3.41966E-05-2.87354E-05-1.53479E-05 4.20860E-19 1.06650E-19
 -1      3168 9.92003E-05-3.17480E-05-2.88559E-05-1.53097E-05-3.22122E-19-5.11538E-19
 -1      3169 9.96277E-05-3.49240E-05-2.78451E-05-1.76427E-05 7.11116E-19 2.44272E-18
 -1      3170 1.19114E-04-5.51943E-05-2.77046E-05 1.65297E-05 4.21293E-19 6.80525E-19
 -1      3171 1.08036E-04-5.03369E-05-2.43587E-05 2.37658E-05 3.89979E-19 1.19901E-18
 -1      3172 9.52300E-05-2.87403E-05-2.84943E-05-1.11547E-06 2.41400E-19-1.00303E-19
 -1      3173 9.52152E-05-2.87119E-05-2.85000E-05-1.13700E-06 3.75707E-19-1.89217E-19
 -1      3174 9.52467E-05-2.86829E-05-2.85266E-05-1.14114E-06 4.31131E-19-2.91918E-19
 -1      3175 9.52418E-05-2.86247E-05-2.85470E-05-1.12811E-06 2.56928E-19-2.36465E-19
 -1      3176 9.55289E-05-2.87893E-05-2.86054E-05-1.11207E-06 3.43772E-19-2.53618E-19
 -1      3177 9.52244E-05-2.87246E-05-2.84981E-05-9.79137E-07 1.33807E-19-2.37539E-19
 -1      3178 9.51997E-05-2.87333E-05-2.84862E-05-1.01512E-06 2.44804E-19-2.74660E-19
 -1      3179 9.52314E-05-2.86736E-05-2.85226E-05-9.23705E-07 5.04020E-19-3.29442E-19
 -1      3180 9.52040E-05-2.86945E-05-2.85052E-05-9.48753E-07 3.57811E-19-3.74197E-19
 -1      3181 9.53829E-05-2.87788E-05-2.85459E-05-9.75697E-07 3.61712E-19-7.41355E-19
 -1      3182 9.52432E-05-2.86021E-05-2.85580E-05-9.02789E-07 2.81633E-19-3.10894E-19
 -1      3183 9.52133E-05-2.86327E-05-2.85361E-05-9.08442E-07 4.98378E-19-1.79642E-19
 -1      3184 9.53454E-05-2.86994E-05-2.85635E-05-9.34938E-07 3.23738E-19-5.64816E-19
 -1      3185 9.52595E-05-2.85126E-05-2.86030E-05-9.31225E-07 1.57266E-19-2.68385E-19
 -1      3186 9.52265E-05-2.85516E-05-2.85768E-05-9.10459E-07 2.72112E-19-3.45201E-19
 -1      3187 9.53109E-05-2.85950E-05-2.85933E-05-9.31537E-07 2.79709E-19-3.67666E-19
 -1      3188 9.52807E-05-2.84065E-05-2.86571E-05-1.02201E-06-3.47848E-19-5.28453E-20
 -1      3189 9.52431E-05-2.84531E-05-2.86264E-05-9.68569E-07-2.26582E-19-3.34794E-19
 -1      3190 9.52777E-05-2.84679E-05-2.86333E-05-9.80540E-07-6.98646E-21 5.31715E-20
 -1      3191 9.53076E-05-2.82842E-05-2.87206E-05-1.18722E-06-2.51576E-19 6.84538E-21
 -1      3192 9.52635E-05-2.83376E-05-2.86850E-05-1.09525E-06-1.76292E-19 3.03304E-20
 -1      3193 9.52436E-05-2.83188E-05-2.86825E-05-1.09527E-06-3.79592E-19-1.27860E-19
 -1      3194 9.53421E-05-2.81465E-05-2.87937E-05-1.43841E-06-1.68028E-19-5.87627E-20
 -1      3195 9.52888E-05-2.82058E-05-2.87526E-05-1.30236E-06-1.88329E-19 1.27504E-19
 -1      3196 9.52069E-05-2.81475E-05-2.87401E-05-1.28820E-06-3.55751E-19-1.86091E-19
 -1      3197 9.53873E-05-2.79961E-05-2.88769E-05-1.78636E-06-1.01627E-19 1.80991E-19
 -1      3198 9.53212E-05-2.80590E-05-2.88298E-05-1.60122E-06 3.16548E-20 3.34669E-19
 -1      3199 9.51663E-05-2.79544E-05-2.88054E-05-1.57121E-06-2.25065E-19-4.12830E-21
 -1      3200 9.54481E-05-2.78389E-05-2.89696E-05-2.24017E-06 1.56485E-19 5.66794E-19
 -1      3201 9.53646E-05-2.79013E-05-2.89164E-05-2.00212E-06-5.62609E-20 3.30342E-19
 -1      3202 9.51218E-05-2.77423E-05-2.88771E-05-1.95544E-06 3.79717E-20 5.15577E-19
 -1      3203 9.55333E-05-2.76875E-05-2.90703E-05-2.80549E-06 3.08353E-19 5.05126E-19
 -1      3204 9.54259E-05-2.77416E-05-2.90115E-05-2.51303E-06 4.15710E-19 6.12861E-19
 -1      3205 9.50761E-05-2.75187E-05-2.89533E-05-2.45036E-06 3.35148E-19 1.14126E-18
 -1      3206 9.56576E-05-2.75641E-05-2.91758E-05-3.48176E-06 4.37455E-19 4.60083E-19
 -1      3207 9.55170E-05-2.75970E-05-2.91126E-05-3.13742E-06 3.55425E-19 5.46575E-19
 -1      3208 9.50364E-05-2.72993E-05-2.90304E-05-3.06224E-06 3.07962E-19 1.79016E-18
 -1      3209 9.58462E-05-2.75068E-05-2.92807E-05-4.25811E-06 1.09674E-19-1.76148E-19
 -1      3210 9.56579E-05-2.74970E-05-2.92156E-05-3.87099E-06 4.09550E-19 3.70125E-19
 -1      3211 9.50184E-05-2.71129E-05-2.91030E-05-3.79178E-06 6.34844E-19 1.87131E-18
 -1      3212 9.61408E-05-2.75758E-05-2.93771E-05-5.10770E-06 8.34751E-20-3.53117E-19
 -1      3213 9.58830E-05-2.74905E-05-2.93139E-05-4.69692E-06 1.47736E-19-5.69938E-19
 -1      3214 9.50521E-05-2.70076E-05-2.91635E-05-4.63079E-06 3.41453E-19 7.74892E-19
 -1      3215 9.66097E-05-2.78625E-05-2.94553E-05-5.98000E-06-3.53791E-19-4.44535E-19
 -1      3216 9.62487E-05-2.76530E-05-2.93988E-05-5.57929E-06-6.51301E-21-5.33141E-19
 -1      3217 9.51902E-05-2.70602E-05-2.92022E-05-5.55759E-06 5.35896E-20 4.16933E-19
 -1      3218 9.73595E-05-2.84961E-05-2.95058E-05-6.79002E-06-5.17834E-19-1.87660E-19
 -1      3219 9.68454E-05-2.80957E-05-2.94606E-05-6.45369E-06-6.84150E-19-5.20935E-19
 -1      3220 9.55213E-05-2.73851E-05-2.92087E-05-6.53038E-06-4.70761E-19 4.01836E-19
 -1      3221 9.85460E-05-2.96442E-05-2.95243E-05-7.40293E-06-5.36882E-19-7.58392E-20
 -1      3222 9.78105E-05-2.89701E-05-2.94922E-05-7.21346E-06-2.13200E-19-4.83520E-19
 -1      3223 9.61862E-05-2.81438E-05-2.91753E-05-7.47640E-06-3.32360E-19 2.32765E-19
 -1      3224 1.00375E-04-3.14907E-05-2.95214E-05-7.61210E-06-5.71811E-19-5.22919E-19
 -1      3225 9.93376E-05-3.04608E-05-2.94965E-05-7.68860E-06-6.43554E-19 4.70697E-21
 -1      3226 9.73941E-05-2.95437E-05-2.91040E-05-8.27259E-06-5.26162E-19-5.20760E-19
 -1      3227 1.03066E-04-3.41643E-05-2.95385E-05-7.11054E-06-7.13858E-19 4.80204E-19
 -1      3228 1.01664E-04-3.27434E-05-2.94993E-05-7.61500E-06-7.22050E-19 2.30061E-19
 -1      3229 9.94280E-05-3.18109E-05-2.90199E-05-8.71047E-06-1.12307E-18 4.46438E-19
 -1      3230 1.06745E-04-3.75750E-05-2.96703E-05-5.47480E-06 1.76130E-19 4.61942E-19
 -1      3231 1.05005E-04-3.58725E-05-2.95694E-05-6.59913E-06-3.78392E-19 3.47650E-19
 -1      3232 1.02609E-04-3.50982E-05-2.89927E-05-8.43853E-06-5.57698E-19 1.93865E-19
 -1      3233 1.11261E-04-4.11109E-05-3.00939E-05-2.19222E-06-1.58081E-19 3.72270E-19
 -1      3234 1.09358E-04-3.95387E-05-2.98458E-05-4.11668E-06 7.95570E-19 6.03706E-19
 -1      3235 1.07161E-04-3.92677E-05-2.91685E-05-6.89294E-06 3.45174E-20 2.79488E-20
 -1      3236 1.16117E-04-4.34964E-05-3.10665E-05 3.00522E-06-1.52352E-18 4.76886E-19
 -1      3237 1.14274E-04-4.28377E-05-3.05599E-05 1.52691E-07-1.19299E-18 6.52404E-19
 -1      3238 1.12641E-04-4.33594E-05-2.98025E-05-3.33303E-06-4.15041E-19-5.18146E-21
 -1      3239 1.21023E-04-4.41133E-05-3.29865E-05 7.63332E-06-1.42937E-18 6.27871E-19
 -1      3240 1.20228E-04-4.58749E-05-3.19628E-05 4.67980E-06-1.51567E-18 5.31593E-19
 -1      3241 1.12538E-04-2.40500E-05-3.80073E-05 1.18262E-05-3.57130E-19 4.17865E-19
 -1      3242 1.14825E-04-2.88568E-05-3.71717E-05 1.42003E-05-1.99582E-20 7.18095E-19
 -1      3243 1.11971E-04-1.60889E-05-4.13808E-05 5.11156E-06 7.44171E-19 5.98647E-20
 -1      3244 1.13703E-04-1.92164E-05-4.08288E-05 1.00405E-05 2.80606E-19 2.55433E-20
 -1      3245 1.12571E-04-1.76957E-05-4.10788E-05-6.42221E-06-6.94832E-19-1.29149E-18
 -1      3246 1.11493E-04-1.53406E-05-4.16114E-05-1.95965E-06 2.06517E-19-9.44309E-19
 -1      3247 1.18822E-04-4.03217E-05-3.37124E-05-9.50534E-06 8.60089E-19-5.98746E-19
 -1      3248 1.17638E-04-3.63203E-05-3.48478E-05-1.10456E-05 6.54029E-19-4.49349E-20
 -1      3249 1.17463E-04-4.38460E-05-3.15183E-05-3.00052E-06-5.30110E-19-8.65479E-19
 -1      3250 1.17901E-04-4.26403E-05-3.23152E-05-5.74525E-06 5.25227E-20-6.34963E-19
 -1      3251 1.21678E-04-4.41985E-05-3.33257E-05-6.49214E-06-2.00528E-19-1.48224E-18
 -1      3252 1.13228E-04-4.25809E-05-3.02083E-05 3.23308E-06 6.18078E-19-9.58577E-19
 -1      3253 1.14847E-04-4.34534E-05-3.06700E-05 6.36314E-07 5.04688E-19-6.66390E-19
 -1      3254 1.18002E-04-4.61431E-05-3.08849E-05 1.09025E-06 5.95934E-20 2.33331E-20
 -1      3255 1.08260E-04-3.89984E-05-2.96103E-05 7.46112E-06 1.05465E-19-1.14101E-18
 -1      3256 1.10248E-04-4.07745E-05-2.98207E-05 5.63851E-06 5.96695E-19-1.05722E-18
 -1      3257 1.12175E-04-4.32613E-05-2.96111E-05 6.85750E-06 3.70165E-19-6.37343E-19
 -1      3258 1.03836E-04-3.49649E-05-2.94581E-05 9.65636E-06-4.70955E-19-1.57188E-18
 -1      3259 1.05689E-04-3.68758E-05-2.95152E-05 8.68606E-06-3.52989E-19-1.51909E-18
 -1      3260 1.06560E-04-3.87044E-05-2.91541E-05 1.01495E-05 5.42217E-22-2.52280E-19
 -1      3261 1.00422E-04-3.13776E-05-2.95470E-05 1.02391E-05 6.36708E-19 1.89625E-19
 -1      3262 1.01922E-04-3.30610E-05-2.95201E-05 1.00026E-05-3.96099E-19-1.48912E-18
 -1      3263 1.02094E-04-3.41506E-05-2.91705E-05 1.13845E-05-8.46075E-19-2.34655E-20
 -1      3264 9.82348E-05-2.90245E-05-2.96365E-05 1.02943E-05-7.22627E-19 9.13819E-19
 -1      3265 9.93257E-05-3.02658E-05-2.96038E-05 1.03082E-05 3.44743E-19 4.30014E-19
 -1      3266 9.91677E-05-3.08001E-05-2.93303E-05 1.15405E-05-6.81989E-19-1.26594E-18
 -1      3267 9.72051E-05-2.83138E-05-2.95356E-05 1.11878E-05-7.39458E-19-1.43851E-18
 -1      3268 9.00105E-05-2.30724E-05-2.86336E-05-1.32376E-05-1.06444E-19-2.07463E-19
 -1      3269 8.78342E-05-2.16402E-05-2.84270E-05-1.20008E-05 4.11072E-19-1.70345E-19
 -1      3270 8.22627E-05-1.76615E-05-2.77182E-05 1.62907E-06 4.74962E-19-1.12555E-18
 -1      3271 8.29866E-05-1.81751E-05-2.77655E-05 4.49524E-06 1.77786E-20-1.54225E-18
 -1      3272 1.08086E-04-5.08583E-05-2.43215E-05-2.47052E-05-2.45957E-19 1.10374E-18
 -1      3273 1.19597E-04-5.57392E-05-2.77515E-05-1.68596E-05-5.04435E-19 1.84252E-18
 -1      3274 9.54121E-05-2.73472E-05-2.91778E-05 2.83172E-07 9.69854E-19-4.25044E-19
 -1      3275 9.54764E-05-2.69412E-05-2.93562E-05 8.44283E-07 1.14702E-18-4.11254E-19
 -1      3276 9.37032E-05-2.04247E-05-3.13843E-05-5.70409E-06-9.83336E-19-1.55480E-18
 -1      3277 9.47831E-05-2.29561E-05-3.07967E-05-4.22256E-06-8.12867E-19-1.44028E-18
 -1      3278 9.52057E-05-2.46430E-05-3.02457E-05-2.56592E-06-6.89972E-19-1.42572E-18
 -1      3279 9.40237E-05-2.13856E-05-3.11205E-05-3.94219E-06-7.52135E-19-1.53352E-18
 -1      3280 1.29380E-04-4.33791E-05-3.67660E-05 1.14349E-05-6.27069E-19 6.46445E-19
 -1      3281 1.26360E-04-3.73223E-05-3.86325E-05 1.37725E-05-3.91806E-19 9.24484E-19
 -1      3282 8.57117E-05-2.00141E-05-2.81176E-05-1.01001E-05 6.75321E-19 4.64935E-19
 -1      3283 8.39841E-05-1.89016E-05-2.79585E-05-7.89854E-06 1.14814E-18 1.38778E-19
 -1      3284 8.60145E-05-2.15469E-05-2.75932E-05-1.20953E-05-6.27144E-20-2.81910E-19
 -1      3285 9.04429E-05-4.32516E-05-2.04137E-05 3.17865E-05-9.84676E-20 2.16629E-19
 -1      3286 7.43593E-05-3.27716E-05-1.73583E-05 3.07489E-05-1.36333E-18 8.23951E-19
 -1      3287 9.52234E-05-2.87497E-05-2.84871E-05-1.05091E-06 1.59585E-19-1.13915E-19
 -1      3288 9.52025E-05-2.87427E-05-2.84825E-05-1.08695E-06 2.13084E-19 1.33489E-19
 -1      3289 9.54739E-05-2.88364E-05-2.85610E-05-1.09138E-06 1.55729E-19-1.85650E-22
 -1      3290 9.54254E-05-2.88277E-05-2.85435E-05-1.03561E-06 2.02978E-19-3.45657E-20
 -1      3291 8.27005E-05-1.78427E-05-2.77798E-05-4.65203E-06 8.50409E-19 7.29024E-19
 -1      3292 8.21993E-05-1.75793E-05-2.77248E-05-1.85882E-06 4.64201E-19 7.25642E-19
 -1      3293 8.05344E-05-1.77941E-05-2.68239E-05-3.33573E-08 4.57004E-19-1.42341E-19
 -1      3294 8.15609E-05-1.86078E-05-2.70031E-05-6.91696E-06 1.45696E-19 6.72943E-19
 -1      3295 9.53714E-05-2.79547E-05-2.88968E-05-4.66248E-07 7.64259E-19-4.39136E-19
 -1      3296 9.54260E-05-2.76982E-05-2.90131E-05-1.34502E-07 8.32877E-19-3.92329E-19
 -1      3297 9.56941E-05-2.73344E-05-2.93022E-05 2.32839E-07 9.58666E-19-5.27895E-19
 -1      3298 5.07694E-05-1.70574E-05-1.41926E-05 1.55279E-05-2.65383E-18-5.08537E-19
 -1      3299 4.39669E-05-1.35988E-05-1.21780E-05 4.23750E-06-1.52623E-18 6.36969E-19
 -1      3300 6.14628E-05-2.49439E-05-1.54614E-05 2.75785E-05-1.38019E-18 9.14690E-19
 -1      3301 5.14475E-05-1.73942E-05-1.42201E-05 1.77879E-05-4.64995E-19 8.30198E-19
 -1      3302 7.31743E-05-2.87788E-05-1.87035E-05 2.59848E-05-9.64188E-19 1.07150E-18
 -1      3303 9.52106E-05-2.42786E-05-3.04016E-05 4.28123E-06 1.42532E-18-6.44867E-19
 -1      3304 9.46405E-05-2.27313E-05-3.08059E-05 4.78459E-06 1.42660E-18-7.51366E-19
 -1      3305 9.49328E-05-2.35966E-05-3.05675E-05 3.69035E-06 1.21706E-18-7.53675E-19
 -1      3306 9.52407E-05-2.52043E-05-3.00286E-05 3.01108E-06 1.28543E-18-6.07446E-19
 -1      3307 5.89548E-05-2.66505E-05-1.29777E-05-3.11518E-05 1.95908E-18-2.44327E-18
 -1      3308 7.22661E-05-3.52441E-05-1.60008E-05-3.58272E-05 3.43800E-18-2.04558E-19
 -1      3309 9.55369E-05-2.56098E-05-2.99690E-05-2.03706E-06-4.78969E-19-1.26805E-18
 -1      3310 9.55803E-05-2.62753E-05-2.97121E-05-1.22829E-06-4.55700E-19-1.10014E-18
 -1      3311 9.57699E-05-2.62264E-05-2.98013E-05-1.07758E-06-3.58726E-19-8.60750E-19
 -1      3312 9.53498E-05-2.45824E-05-3.03169E-05-2.13698E-06-3.85266E-19-1.33597E-18
 -1      3313 1.16525E-04-2.38097E-05-3.99850E-05-1.15803E-05-5.80959E-19-1.93502E-18
 -1      3314 9.23855E-05-1.83486E-05-3.17453E-05 1.81451E-06 7.34268E-19-1.74268E-18
 -1      3315 9.22665E-05-1.81467E-05-3.17774E-05 1.05959E-06 5.29262E-19-1.92196E-18
 -1      3316 4.39019E-05-1.29561E-05-1.29744E-05 5.73182E-06-5.85558E-19-7.14261E-19
 -1      3317 4.23989E-05-1.25385E-05-1.23788E-05-4.69722E-06 6.20452E-20-1.63689E-18
 -1      3318 7.29431E-05-3.44692E-05-1.61163E-05 3.58233E-05 3.42995E-19-3.36600E-18
 -1      3319 6.12353E-05-2.51995E-05-1.52087E-05 2.82200E-05-5.92447E-19-2.31494E-18
 -1      3320 8.38650E-05-3.87082E-05-1.90244E-05 3.34376E-05-2.07629E-19-2.85927E-18
 -1      3321 1.20932E-04-5.65954E-05-2.71009E-05-2.00133E-05 2.49216E-18 1.99309E-18
 -1      3322 1.27979E-04-5.77569E-05-3.03785E-05-1.17921E-05 1.24154E-18-5.25918E-19
 -1      3323 1.26193E-04-3.18431E-05-4.09019E-05-1.31652E-05-1.30072E-19-2.74031E-18
 -1      3324 1.31445E-04-4.06338E-05-3.90435E-05-1.09353E-05-7.03355E-19-4.57689E-18
 -1      3325 9.22066E-05-1.80467E-05-3.17958E-05 4.08883E-07 3.45786E-19-1.86565E-18
 -1      3326 9.22035E-05-1.80422E-05-3.17963E-05-3.60429E-07 1.97948E-19-1.73707E-18
 -1      3327 9.31605E-05-1.96304E-05-3.14953E-05 6.29443E-07 3.68378E-19-1.72128E-18
 -1      3328 1.30068E-04-4.47748E-05-3.66196E-05-7.80054E-06-3.54219E-19-3.46304E-18
 -1      3329 5.45754E-05-2.20609E-05-1.36355E-05-2.45259E-05 1.48686E-18-2.56069E-18
 -1      3330 1.26415E-04-4.63383E-05-3.42597E-05 7.77822E-06-1.37462E-18 7.51795E-19
 -1      3331 1.11605E-04-5.43861E-05-2.44633E-05 2.83769E-05-1.78258E-18-1.24808E-18
 -1      3332 1.03464E-04-4.90915E-05-2.31184E-05 2.99942E-05-9.09131E-19-1.11398E-18
 -1      3333 1.15824E-04-5.38069E-05-2.64779E-05 2.14378E-05-7.41657E-19-1.25233E-19
 -1      3334 4.67035E-05-1.46135E-05-1.34572E-05-3.13524E-06-4.61951E-19-1.56108E-18
 -1      3335 5.14667E-05-1.52622E-05-1.50913E-05 1.23194E-05-4.19268E-19 4.85720E-19
 -1      3336 5.32765E-05-1.41510E-05-1.65531E-05 6.46752E-06-2.20745E-19 2.52733E-19
 -1      3337 5.98415E-05-1.83576E-05-1.77371E-05 1.68562E-05-7.72653E-19-3.63695E-20
 -1      3338 1.22022E-04-5.28875E-05-2.94017E-05-8.56630E-06-1.26166E-18 6.49727E-19
 -1      3339 1.25291E-04-5.49769E-05-3.00471E-05 7.34815E-06-3.27947E-19 1.78184E-18
 -1      3340 8.43188E-05-3.82601E-05-1.93257E-05-3.24091E-05 1.80524E-18 2.40875E-18
 -1      3341 1.29909E-04-5.51123E-05-3.20438E-05 2.66964E-06-5.90243E-19 1.20226E-18
 -1      3342 1.29791E-04-5.70848E-05-3.10534E-05 9.13354E-06-4.70533E-19-4.60905E-18
 -1      3343 1.24650E-04-5.56339E-05-2.95468E-05 1.20262E-05-5.42511E-19-4.12238E-18
 -1      3344 1.29412E-04-5.35518E-05-3.28757E-05 1.66424E-06-5.75479E-19-5.35403E-18
 -1      3345 1.12274E-04-5.16936E-05-2.58375E-05-2.28149E-05 1.55753E-18 3.05578E-18
 -1      3346 1.01744E-04-4.47151E-05-2.41863E-05 2.31725E-05-3.98370E-20 8.18221E-19
 -1      3347 9.62205E-05-3.01351E-05-2.84045E-05-1.62570E-05-7.40704E-19 7.52619E-19
 -1      3348 9.79596E-05-3.00339E-05-2.90929E-05-1.47258E-05-3.39478E-19-5.89527E-19
 -1      3349 9.66401E-05-2.84128E-05-2.92197E-05-1.43533E-05-5.58568E-19-1.72672E-18
 -1      3350 1.32955E-04-5.60596E-05-3.28740E-05-2.65605E-06 2.09747E-18-3.83124E-19
 -1      3351 1.32699E-04-5.01820E-05-3.56933E-05 5.82406E-06 1.62170E-18-7.47560E-19
 -1      3352 9.55889E-05-2.86624E-05-2.86863E-05-1.05587E-06 2.71915E-19-2.30668E-19
 -1      3353 9.52759E-05-2.85569E-05-2.85941E-05-1.08459E-06 5.02934E-20-2.57721E-19
 -1      3354 9.52861E-05-2.84561E-05-2.86359E-05-1.00911E-06 1.51328E-19-2.26479E-19
 -1      3355 1.17992E-04-3.45828E-05-3.58183E-05 1.37413E-05-4.35904E-19 7.37660E-19
 -1      3356 1.19552E-04-3.92354E-05-3.47140E-05 1.26909E-05-9.27597E-19 6.21941E-19
 -1      3357 1.18995E-04-2.08169E-05-4.24834E-05 1.31923E-05 5.82229E-19-3.32407E-19
 -1      3358 1.13782E-04-2.76008E-05-3.68989E-05-1.10473E-05-1.08199E-18-1.68999E-18
 -1      3359 1.22251E-04-2.91903E-05-4.02134E-05-1.29089E-05 3.12343E-20-3.17664E-18
 -1      3360 1.20722E-04-3.67219E-05-3.60251E-05-1.15861E-05-3.45312E-19-2.46217E-18
 -1      3361 1.15908E-04-3.25552E-05-3.59137E-05-1.23060E-05-1.99714E-20-4.00448E-19
 -1      3362 9.28821E-05-2.54547E-05-2.89351E-05-1.40509E-05-2.69477E-19 8.95671E-19
 -1      3363 9.18510E-05-2.57916E-05-2.82850E-05-1.49462E-05-7.71168E-19-2.38465E-19
 -1      3364 9.53498E-05-2.81677E-05-2.87835E-05-7.09751E-07 7.40982E-19-3.92047E-19
 -1      3365 9.56947E-05-2.80058E-05-2.90144E-05-4.68488E-07 6.68316E-19-5.52900E-19
 -1      3366 9.53190E-05-2.83306E-05-2.87110E-05-8.86473E-07 4.85416E-19-4.06085E-19
 -1      3367 8.22863E-05-1.92111E-05-2.69945E-05 6.85914E-06-5.34583E-19-2.82869E-19
 -1      3368 8.44661E-05-1.94618E-05-2.79249E-05 7.51169E-06-6.77305E-19-4.78798E-19
 -1      3369 8.62225E-05-2.06397E-05-2.80602E-05 9.64026E-06-1.37246E-18-9.52416E-19
 -1      3370 8.84523E-05-2.24937E-05-2.83291E-05 1.13823E-05-1.05240E-18-2.62055E-18
 -1      3371 9.05383E-05-2.39211E-05-2.85055E-05 1.24149E-05-6.89260E-19-2.64035E-18
 -1      3372 8.65924E-05-2.24656E-05-2.74863E-05 1.17567E-05-1.13498E-18-1.93896E-18
 -1      3373 9.25442E-05-1.86178E-05-3.16931E-05-2.38013E-06-1.41439E-19-1.69772E-18
 -1      3374 9.27745E-05-1.90370E-05-3.16248E-05-3.09511E-06-3.49841E-19-1.67215E-18
 -1      3375 9.13003E-05-2.57826E-05-2.81064E-05 1.37371E-05-5.10122E-20-4.07375E-18
 -1      3376 9.24269E-05-2.53340E-05-2.87876E-05 1.27717E-05 8.03085E-20-2.96399E-18
 -1      3377 9.40131E-05-2.64020E-05-2.89515E-05 1.27986E-05 2.65771E-19-2.42852E-18
 -1      3378 1.21558E-04-3.31591E-05-3.79276E-05 1.45591E-05-3.74150E-19 1.16941E-18
 -1      3379 1.23330E-04-2.93615E-05-4.04275E-05 1.54303E-05-2.25840E-19 2.07152E-19
 -1      3380 1.01226E-04-4.73193E-05-2.29905E-05-2.81211E-05 8.19769E-20 1.03068E-18
 -1      3381 1.08135E-04-4.81931E-05-2.54201E-05-2.06781E-05-2.43429E-19 1.25018E-18
 -1      3382 9.22689E-05-4.14532E-05-2.16507E-05-2.86422E-05 7.32895E-19 3.28596E-19
 -1      3383 1.32756E-04-4.51375E-05-3.76920E-05 1.13557E-05 1.13823E-18-1.31057E-18
 -1      3384 4.68186E-05-1.38991E-05-1.36514E-05-1.03821E-05-6.74609E-19-1.73642E-18
 -1      3385 5.29531E-05-1.65375E-05-1.54766E-05-1.63837E-05-7.24028E-19-1.53609E-18
 -1      3386 5.09650E-05-1.36921E-05-1.57763E-05-6.27509E-06-8.30966E-19-1.44546E-18
 -1      3387 9.34382E-05-2.02160E-05-3.14056E-05 4.25145E-06 1.19961E-18-1.26607E-18
 -1      3388 9.30819E-05-1.95564E-05-3.15197E-05 3.65834E-06 1.03229E-18-1.33084E-18
 -1      3389 9.43441E-05-2.19857E-05-3.09901E-05 3.63301E-06 1.14745E-18-1.07002E-18
 -1      3390 9.53824E-05-2.65018E-05-2.95303E-05 1.37646E-06 1.15008E-18-4.96602E-19
 -1      3391 9.54230E-05-2.58816E-05-2.97900E-05 2.24301E-06 1.16521E-18-5.56051E-19
 -1      3392 9.53429E-05-2.51642E-05-3.00712E-05 2.62181E-06 1.11801E-18-6.36616E-19
 -1      3393 9.55892E-05-2.64081E-05-2.96544E-05 1.24715E-06 1.09329E-18-4.39230E-19
 -1      3394 9.27960E-05-1.90582E-05-3.16211E-05 3.13023E-06 1.03159E-18-1.43761E-18
 -1      3395 9.25594E-05-1.86438E-05-3.16889E-05 2.42735E-06 8.54580E-19-1.60232E-18
 -1      3396 9.33730E-05-2.00193E-05-3.14186E-05 1.80679E-06 6.90611E-19-1.56755E-18
 -1      3397 9.37808E-05-2.07993E-05-3.12571E-05 2.85157E-06 9.34963E-19-1.36883E-18
 -1      3398 5.79358E-05-2.00014E-05-1.56925E-05 2.09131E-05-1.66392E-18-8.87902E-19
 -1      3399 5.63669E-05-1.67415E-05-1.69597E-05 1.24143E-05-2.11016E-18 7.69847E-19
 -1      3400 6.64178E-05-2.41864E-05-1.78473E-05 2.38684E-05-1.55804E-18-8.28239E-19
 -1      3401 6.51262E-05-2.73068E-05-1.56849E-05-2.99106E-05-6.32892E-19-1.17896E-18
 -1      3402 7.67978E-05-3.27599E-05-1.88158E-05-2.99343E-05-5.81541E-20-1.25064E-18
 -1      3403 6.24027E-05-2.33200E-05-1.64337E-05-2.51024E-05-7.99281E-19-1.82499E-18
 -1      3404 1.29966E-04-4.84599E-05-3.51004E-05 6.98965E-06 1.33317E-18-7.69079E-19
 -1      3405 9.32469E-05-1.98859E-05-3.14448E-05-3.30760E-06-5.16220E-19-1.43188E-18
 -1      3406 9.35917E-05-2.05412E-05-3.13310E-05-3.87701E-06-7.33199E-19-1.48257E-18
 -1      3407 9.46991E-05-2.28190E-05-3.07967E-05-2.67645E-06-5.93632E-19-1.34920E-18
 -1      3408 9.39432E-05-2.11432E-05-3.11852E-05-2.51373E-06-4.36730E-19-1.38088E-18
 -1      3409 9.61766E-05-2.78250E-05-2.92864E-05 2.40052E-07-7.58901E-19-7.47696E-19
 -1      3410 9.61726E-05-2.81404E-05-2.91612E-05 4.95011E-07-7.65047E-19-7.51956E-19
 -1      3411 9.61811E-05-2.83994E-05-2.90437E-05 6.59302E-07-7.51969E-19-7.98248E-19
 -1      3412 9.61511E-05-2.85926E-05-2.89558E-05 7.98440E-07-4.88727E-19-8.98417E-19
 -1      3413 9.63735E-05-2.82093E-05-2.92148E-05 4.74721E-07-6.26913E-19-5.80213E-19
 -1      3414 9.61164E-05-2.87405E-05-2.88715E-05 8.79407E-07-3.49403E-19-1.01762E-18
 -1      3415 9.60756E-05-2.88481E-05-2.88124E-05 9.40716E-07-2.08325E-19-1.05491E-18
 -1      3416 9.63493E-05-2.86703E-05-2.90074E-05 7.39037E-07-5.77309E-19-7.51993E-19
 -1      3417 9.60174E-05-2.89187E-05-2.87542E-05 9.67055E-07-1.71264E-19-1.24082E-18
 -1      3418 9.59733E-05-2.89663E-05-2.87168E-05 9.80214E-07-3.55439E-19-8.70573E-19
 -1      3419 9.62589E-05-2.89244E-05-2.88598E-05 8.63318E-07-2.65231E-19-1.16423E-18
 -1      3420 9.59036E-05-2.89830E-05-2.86790E-05 9.74737E-07-5.20398E-19-6.93524E-19
 -1      3421 9.58599E-05-2.89884E-05-2.86580E-05 9.62380E-07-5.72438E-19-4.37843E-19
 -1      3422 9.61335E-05-2.90330E-05-2.87595E-05 8.98636E-07-2.47049E-19-1.18015E-18
 -1      3423 9.57853E-05-2.89673E-05-2.86360E-05 9.42627E-07-5.12662E-19-2.46666E-19
 -1      3424 9.57436E-05-2.89422E-05-2.86275E-05 9.21761E-07-3.80705E-19 3.92127E-20
 -1      3425 9.59915E-05-2.90386E-05-2.86959E-05 8.85374E-07-3.83171E-19-9.01757E-19
 -1      3426 9.56672E-05-2.88935E-05-2.86177E-05 9.01063E-07-5.15058E-19-2.61575E-21
 -1      3427 9.56273E-05-2.88455E-05-2.86189E-05 8.84555E-07-4.05329E-19-2.63033E-19
 -1      3428 9.58426E-05-2.89704E-05-2.86610E-05 8.54538E-07-5.09658E-19-3.65892E-19
 -1      3429 9.55494E-05-2.87753E-05-2.86185E-05 8.73156E-07-4.17996E-19-4.83760E-19
 -1      3430 9.55105E-05-2.87086E-05-2.86272E-05 8.71007E-07-2.49038E-19-4.77722E-19
 -1      3431 9.56902E-05-2.88467E-05-2.86483E-05 8.29883E-07-4.93815E-19-2.46082E-19
 -1      3432 9.54294E-05-2.86198E-05-2.86343E-05 8.77066E-07-1.45525E-19-2.89074E-19
 -1      3433 9.53895E-05-2.85361E-05-2.86491E-05 8.97448E-07-2.05682E-19-2.24430E-19
 -1      3434 9.55330E-05-2.86776E-05-2.86530E-05 8.29940E-07-1.03042E-19-1.93973E-19
 -1      3435 9.53019E-05-2.84290E-05-2.86620E-05 9.27859E-07-4.17285E-19-1.77569E-19
 -1      3436 9.52586E-05-2.83282E-05-2.86820E-05 9.77910E-07-5.77704E-19-1.40746E-20
 -1      3437 9.53661E-05-2.84672E-05-2.86711E-05 8.69799E-07-2.87925E-19 1.34527E-20
 -1      3438 9.51597E-05-2.82012E-05-2.86993E-05 1.03890E-06-4.41517E-19 5.07005E-21
 -1      3439 9.51098E-05-2.80818E-05-2.87236E-05 1.12527E-06-4.03369E-19 3.41435E-19
 -1      3440 9.51814E-05-2.82148E-05-2.86995E-05 9.62494E-07-2.01134E-19 5.01097E-19
 -1      3441 9.49935E-05-2.79323E-05-2.87441E-05 1.22280E-06-6.33297E-19 1.54570E-19
 -1      3442 9.49331E-05-2.77920E-05-2.87719E-05 1.35197E-06-5.73523E-19-4.89342E-20
 -1      3443 9.49683E-05-2.79164E-05-2.87354E-05 1.11996E-06-5.12371E-19 6.12010E-19
 -1      3444 9.47920E-05-2.76165E-05-2.87940E-05 1.49199E-06-2.74010E-19 3.72208E-19
 -1      3445 9.47167E-05-2.74530E-05-2.88242E-05 1.67040E-06-3.68514E-21 3.91201E-19
 -1      3446 9.47134E-05-2.75658E-05-2.87757E-05 1.35366E-06-3.89368E-19 5.79882E-19
 -1      3447 9.45424E-05-2.72480E-05-2.88459E-05 1.85890E-06-5.83277E-19 4.99440E-19
 -1      3448 9.44471E-05-2.70595E-05-2.88771E-05 2.09285E-06-7.04781E-19 4.40502E-19
 -1      3449 9.44012E-05-2.71563E-05-2.88164E-05 1.67482E-06-2.57405E-19 9.81080E-19
 -1      3450 9.42300E-05-2.68228E-05-2.88955E-05 2.33581E-06-4.39217E-19 4.51074E-19
 -1      3451 9.41094E-05-2.66095E-05-2.89250E-05 2.63123E-06-3.20170E-19 6.44827E-19
 -1      3452 9.40137E-05-2.66824E-05-2.88523E-05 2.09448E-06-3.26217E-19 1.09263E-18
 -1      3453 9.38397E-05-2.63415E-05-2.89359E-05 2.93463E-06-1.54975E-19 8.55840E-19
 -1      3454 9.36895E-05-2.61074E-05-2.89599E-05 3.29671E-06 1.49311E-19 9.99980E-19
 -1      3455 9.35319E-05-2.61422E-05-2.88759E-05 2.62338E-06-9.88517E-20 8.38559E-19
 -1      3456 9.33578E-05-2.58130E-05-2.89574E-05 3.66669E-06 4.12041E-19 9.76648E-19
 -1      3457 9.31761E-05-2.55689E-05-2.89702E-05 4.09964E-06 3.18240E-19 1.05840E-18
 -1      3458 9.29365E-05-2.55413E-05-2.88766E-05 3.27221E-06 2.63633E-19 1.80556E-18
 -1      3459 9.27754E-05-2.52615E-05-2.89459E-05 4.54332E-06 8.89100E-20 7.05968E-19
 -1      3460 9.25666E-05-2.50292E-05-2.89395E-05 5.05056E-06 4.30838E-19 1.06031E-18
 -1      3461 9.22107E-05-2.48979E-05-2.88395E-05 4.05278E-06 6.10692E-20 1.75282E-18
 -1      3462 9.20959E-05-2.47354E-05-2.88820E-05 5.57806E-06 4.55390E-19 1.34498E-18
 -1      3463 9.18773E-05-2.45551E-05-2.88455E-05 6.16327E-06 6.26846E-19 1.34575E-18
 -1      3464 9.13455E-05-2.42509E-05-2.87441E-05 4.98124E-06 5.52539E-19 1.61170E-18
 -1      3465 9.13471E-05-2.43221E-05-2.87402E-05 6.79180E-06 6.95985E-19 1.01592E-18
 -1      3466 9.11601E-05-2.42619E-05-2.86601E-05 7.46117E-06 9.05739E-19 1.53006E-18
 -1      3467 9.03476E-05-2.36709E-05-2.85636E-05 6.08520E-06 5.09737E-19 1.49792E-18
 -1      3468 9.06031E-05-2.41684E-05-2.84889E-05 8.22192E-06 1.03340E-18 1.71812E-18
 -1      3469 9.05318E-05-2.43392E-05-2.83506E-05 8.98742E-06 1.15132E-18 1.86684E-18
 -1      3470 8.92549E-05-2.32777E-05-2.82637E-05 7.41652E-06 9.78575E-19 5.52900E-19
 -1      3471 9.00205E-05-2.45104E-05-2.80932E-05 9.93482E-06 4.18908E-19 1.84481E-18
 -1      3472 9.02211E-05-2.50854E-05-2.78850E-05 1.08150E-05-1.93586E-20 1.44301E-18
 -1      3473 8.81619E-05-2.32648E-05-2.78035E-05 9.07145E-06 6.11868E-19 8.83978E-19
 -1      3474 8.99011E-05-2.57136E-05-2.75225E-05 1.20342E-05 8.52640E-20 1.50956E-18
 -1      3475 9.06457E-05-2.69498E-05-2.72453E-05 1.30394E-05 2.76836E-19 1.14556E-18
 -1      3476 8.72658E-05-2.39379E-05-2.71393E-05 1.12148E-05 1.76796E-19 8.61091E-19
 -1      3477 9.08123E-05-2.83453E-05-2.67704E-05 1.46381E-05-1.05675E-19 7.75276E-19
 -1      3478 9.25135E-05-3.05732E-05-2.64611E-05 1.56893E-05-9.72558E-19 6.43391E-19
 -1      3479 8.69541E-05-2.57726E-05-2.62346E-05 1.41067E-05-3.66674E-19 8.51373E-19
 -1      3480 9.37293E-05-3.31408E-05-2.59109E-05 1.76887E-05-1.02294E-18 1.11992E-18
 -1      3481 9.73013E-05-3.68560E-05-2.57653E-05 1.83884E-05-5.43724E-19 1.39138E-18
 -1      3482 8.80862E-05-2.95193E-05-2.50921E-05 1.80117E-05-8.13648E-19 9.58775E-19
 -1      3483 9.62282E-05-3.95305E-05-2.40913E-05 2.27297E-05-8.42043E-19 9.15815E-19
 -1      3484 9.31650E-05-2.89612E-05-2.74364E-05-1.71644E-05-9.04615E-19 1.20199E-18
 -1      3485 9.19110E-05-2.70529E-05-2.77579E-05-1.62395E-05-1.03753E-18 7.94599E-19
 -1      3486 8.82976E-05-2.46686E-05-2.73576E-05-1.54735E-05-1.41351E-18-4.37202E-19
 -1      3487 1.28302E-04-5.13685E-05-3.30066E-05 2.38383E-06 1.31191E-18-4.30902E-19
 -1      3488 1.03601E-04-4.21504E-05-2.61910E-05-2.11634E-05 1.32527E-18 2.09042E-18
 -1      3489 9.92448E-05-3.76975E-05-2.62431E-05-2.11097E-05 1.51641E-18 2.59454E-18
 -1      3490 9.66376E-05-3.43429E-05-2.65911E-05-1.95735E-05 5.13037E-19 2.44225E-18
 -1      3491 9.43032E-05-3.12959E-05-2.69371E-05-1.87229E-05 1.01611E-20 1.68459E-18
 -1      3492 8.89753E-05-2.81424E-05-2.61963E-05-1.87947E-05-1.30410E-18 9.21009E-19
 -1      3493 9.22944E-05-3.37263E-05-2.51316E-05-2.26097E-05 6.93416E-19 2.51269E-18
 -1      3494 7.66227E-05-3.08232E-05-1.90633E-05-2.99168E-05 1.40978E-19-3.70842E-19
 -1      3495 9.05801E-05-3.93873E-05-2.19843E-05-2.94526E-05 3.69320E-19 4.71930E-18
 -1      3496 9.54488E-05-2.87134E-05-2.85987E-05-9.02388E-07 1.78590E-19-5.46240E-19
 -1      3497 9.54675E-05-2.87648E-05-2.85879E-05-9.11702E-07 2.40884E-19-6.84955E-19
 -1      3498 9.55282E-05-2.88217E-05-2.85865E-05-9.28782E-07 4.64413E-19-6.43403E-19
 -1      3499 9.55491E-05-2.88570E-05-2.85827E-05-9.51602E-07 3.97009E-19-4.69574E-19
 -1      3500 9.56196E-05-2.88396E-05-2.86212E-05-8.88961E-07 4.38876E-19-3.22729E-19
 -1      3501 9.52883E-05-2.84103E-05-2.86593E-05-9.81002E-07-3.10162E-19-5.57731E-20
 -1      3502 9.53056E-05-2.84885E-05-2.86379E-05-9.39580E-07 1.04019E-19-3.47366E-19
 -1      3503 9.51998E-05-2.82176E-05-2.87037E-05-1.11333E-06-3.75622E-19 2.01990E-19
 -1      3504 9.52180E-05-2.83086E-05-2.86780E-05-1.03657E-06-3.03129E-19-9.52095E-20
 -1      3505 9.52406E-05-2.83196E-05-2.86805E-05-9.88941E-07-1.82167E-19-3.29738E-19
 -1      3506 9.51002E-05-2.79964E-05-2.87554E-05-1.32422E-06-2.44268E-19-5.84671E-19
 -1      3507 9.51202E-05-2.81003E-05-2.87259E-05-1.20606E-06-3.33795E-19-4.40710E-19
 -1      3508 9.50917E-05-2.80788E-05-2.87194E-05-1.13847E-06-6.60227E-20-4.75327E-19
 -1      3509 9.49853E-05-2.77468E-05-2.88128E-05-1.62548E-06-3.73098E-19-3.25377E-19
 -1      3510 9.50076E-05-2.78629E-05-2.87800E-05-1.46018E-06-2.91374E-19-5.90847E-19
 -1      3511 9.49204E-05-2.78029E-05-2.87638E-05-1.36696E-06-2.96774E-19-1.03494E-18
 -1      3512 9.48523E-05-2.74714E-05-2.88733E-05-2.02827E-06-4.05434E-20 4.69977E-19
 -1      3513 9.48763E-05-2.75974E-05-2.88382E-05-1.81068E-06-1.09357E-19 2.73554E-19
 -1      3514 9.47198E-05-2.74916E-05-2.88108E-05-1.68636E-06-4.45226E-19-2.64722E-19
 -1      3515 9.47011E-05-2.71787E-05-2.89334E-05-2.54246E-06-2.88252E-20 1.03015E-18
 -1      3516 9.47247E-05-2.73088E-05-2.88976E-05-2.26852E-06 6.48502E-20 6.90919E-19
 -1      3517 9.44843E-05-2.71483E-05-2.88565E-05-2.10833E-06-2.66724E-19-5.48225E-19
 -1      3518 9.45374E-05-2.68865E-05-2.89878E-05-3.17538E-06 3.19524E-19 1.43584E-18
 -1      3519 9.45551E-05-2.70099E-05-2.89537E-05-2.84300E-06 3.40981E-19 1.51318E-18
 -1      3520 9.42116E-05-2.67833E-05-2.88957E-05-2.64385E-06 4.33344E-20 7.27412E-19
 -1      3521 9.43769E-05-2.66279E-05-2.90290E-05-3.93019E-06 8.81723E-19 1.08518E-18
 -1      3522 9.43777E-05-2.67252E-05-2.90001E-05-3.54046E-06 5.16926E-19 1.49411E-18
 -1      3523 9.39063E-05-2.64185E-05-2.89210E-05-3.30269E-06 6.37857E-19 6.73106E-19
 -1      3524 9.42521E-05-2.64580E-05-2.90473E-05-4.80373E-06 3.05620E-19 6.74953E-19
 -1      3525 9.42159E-05-2.64980E-05-2.90282E-05-4.36247E-06 7.66560E-19 8.30130E-19
 -1      3526 9.35844E-05-2.60930E-05-2.89227E-05-4.09273E-06 7.05010E-19 5.95891E-19
 -1      3527 9.42232E-05-2.64639E-05-2.90308E-05-5.78368E-06-1.97629E-19 5.83330E-19
 -1      3528 9.41150E-05-2.63982E-05-2.90270E-05-5.30359E-06 2.28621E-20 6.77517E-19
 -1      3529 9.32817E-05-2.58718E-05-2.88889E-05-5.01943E-06 2.71953E-19 7.63990E-19
 -1      3530 9.43928E-05-2.67759E-05-2.89674E-05-6.84428E-06-8.70750E-19 5.63396E-19
 -1      3531 9.41552E-05-2.65333E-05-2.89843E-05-6.34812E-06-4.93300E-19 5.82592E-19
 -1      3532 9.30655E-05-2.58561E-05-2.88056E-05-6.08524E-06-3.21405E-19 3.18740E-19
 -1      3533 9.49262E-05-2.75783E-05-2.88490E-05-7.93791E-06-1.88349E-19 5.72065E-19
 -1      3534 9.44701E-05-2.70601E-05-2.88892E-05-7.46410E-06-7.37389E-19 7.04105E-19
 -1      3535 9.30525E-05-2.61963E-05-2.86595E-05-7.28774E-06-9.07951E-19 3.93652E-19
 -1      3536 9.60734E-05-2.91132E-05-2.86794E-05-8.97601E-06-1.25156E-18 7.03659E-19
 -1      3537 9.52708E-05-2.81942E-05-2.87380E-05-8.58984E-06-4.08750E-19 7.71303E-19
 -1      3538 9.34334E-05-2.71059E-05-2.84426E-05-8.61224E-06-7.73329E-19 1.16319E-18
 -1      3539 9.81826E-05-3.16590E-05-2.84908E-05-9.78788E-06-6.00111E-19 5.00384E-19
 -1      3540 9.68698E-05-3.02056E-05-2.85468E-05-9.60259E-06-1.18691E-18 3.67191E-19
 -1      3541 9.45057E-05-2.88694E-05-2.81628E-05-1.00083E-05-1.12741E-18 8.21567E-19
 -1      3542 1.01674E-04-3.54404E-05-2.83697E-05-1.00369E-05 8.59135E-20 4.97768E-20
 -1      3543 9.96894E-05-3.33751E-05-2.83726E-05-1.02516E-05-2.75112E-19 6.32370E-19
 -1      3544 9.67051E-05-3.18258E-05-2.78642E-05-1.13300E-05-3.62374E-19 2.81746E-20
 -1      3545 1.06917E-04-4.04076E-05-2.84987E-05-9.09214E-06-1.23045E-19 4.84950E-19
 -1      3546 1.04206E-04-3.78570E-05-2.83475E-05-1.00487E-05-3.91344E-19-2.56871E-19
 -1      3547 1.00608E-04-3.62737E-05-2.76622E-05-1.22163E-05-1.30178E-19-1.99787E-19
 -1      3548 1.14229E-04-4.54973E-05-2.93209E-05-5.63563E-06-6.51507E-19 9.75471E-19
 -1      3549 1.10794E-04-4.33716E-05-2.87527E-05-8.08469E-06-7.35231E-20 1.25461E-18
 -1      3550 1.06805E-04-4.21516E-05-2.78034E-05-1.19293E-05-2.89871E-19 1.16288E-19
 -1      3551 1.20484E-04-4.85015E-05-3.10625E-05 8.30749E-09-1.36109E-18-2.63308E-19
 -1      3552 8.74790E-05-3.44101E-05-2.26940E-05 2.42555E-05-9.20765E-19 7.78370E-19
 -1      3553 1.15908E-04-4.86893E-05-2.87714E-05-8.43712E-06-5.73455E-19 4.27249E-19
 -1      3554 9.47230E-05-2.69602E-05-2.90230E-05-1.45149E-05-3.75590E-19-6.06521E-19
 -1      3555 1.24163E-04-5.01034E-05-3.16035E-05 7.89288E-07-6.10095E-19-2.45346E-18
 -1      3556 1.25571E-04-4.80369E-05-3.32596E-05-3.32098E-06-1.03274E-18-3.23805E-18
 -1      3557 1.04071E-04-3.72727E-05-2.85611E-05 1.30122E-05-4.85366E-19 7.17350E-19
 -1      3558 1.06787E-04-4.00033E-05-2.86106E-05 1.21803E-05-5.08182E-19 4.94967E-19
 -1      3559 9.98489E-05-3.24871E-05-2.88317E-05 1.29408E-05-8.74851E-19 7.50515E-19
 -1      3560 1.01831E-04-3.47607E-05-2.87192E-05 1.28365E-05-2.35207E-19 1.65212E-18
 -1      3561 1.01185E-04-3.56457E-05-2.81301E-05 1.49446E-05-8.47538E-19 9.38397E-19
 -1      3562 9.22579E-05-1.81346E-05-3.17790E-05-1.01066E-06 1.14060E-19-1.72698E-18
 -1      3563 9.23690E-05-1.83259E-05-3.17482E-05-1.76575E-06 4.60967E-21-1.74265E-18
 -1      3564 9.33551E-05-1.99967E-05-3.14222E-05-1.76347E-06-1.22688E-19-1.62428E-18
 -1      3565 5.50915E-05-1.51508E-05-1.69467E-05-3.30217E-06-1.21134E-18-2.13018E-18
 -1      3566 5.26695E-05-1.58884E-05-1.50104E-05-1.33756E-05-2.91340E-19-3.48893E-18
 -1      3567 1.10250E-04-4.29822E-05-2.87171E-05 1.13246E-05-2.08583E-19-5.69755E-19
 -1      3568 1.13458E-04-4.55561E-05-2.91064E-05 9.32595E-06 8.80120E-21-6.65490E-19
 -1      3569 1.06891E-04-4.18924E-05-2.79872E-05 1.48784E-05-7.18107E-19-1.15423E-18
 -1      3570 1.17185E-04-4.78342E-05-2.95573E-05 7.47107E-06 2.43323E-20-1.39482E-18
 -1      3571 1.20161E-04-4.90703E-05-3.04735E-05 4.16810E-06-8.10472E-20-1.22728E-18
 -1      3572 1.21782E-04-5.23918E-05-2.99849E-05 8.28109E-06-6.49830E-19-4.45844E-18
 -1      3573 1.14241E-04-4.82601E-05-2.84792E-05 1.30116E-05-8.28100E-19-3.73966E-18
 -1      3574 8.47078E-05-2.21058E-05-2.68045E-05-1.35351E-05-1.71936E-18-7.14562E-19
 -1      3575 8.20151E-05-2.03345E-05-2.64070E-05-1.14312E-05-1.44705E-18-3.19662E-19
 -1      3576 8.46345E-05-2.33909E-05-2.61687E-05-1.50718E-05-2.48788E-18-3.93264E-19
 -1      3577 1.21614E-04-3.41710E-05-3.75506E-05-1.25524E-05-4.41542E-19-3.11013E-18
 -1      3578 9.59087E-05-2.73780E-05-2.93779E-05 1.04351E-07 7.88121E-19-8.35072E-19
 -1      3579 9.58919E-05-2.69101E-05-2.95523E-05 5.63369E-07 9.41023E-19-8.53713E-19
 -1      3580 9.53699E-05-2.85756E-05-2.86237E-05-9.15003E-07 1.14839E-19-4.92845E-19
 -1      3581 9.53874E-05-2.86408E-05-2.86072E-05-9.02498E-07 1.18506E-19-3.69465E-19
 -1      3582 9.54988E-05-2.87003E-05-2.86287E-05-8.77531E-07 1.28365E-19-5.38832E-19
 -1      3583 9.53742E-05-2.85265E-05-2.86495E-05-9.06204E-07 3.49646E-20-5.22022E-19
 -1      3584 7.84045E-05-2.97841E-05-2.07868E-05 2.43514E-05-9.82108E-19 1.87295E-18
 -1      3585 6.84438E-05-2.26627E-05-1.92176E-05 2.10694E-05-6.94461E-19 8.64397E-19
 -1      3586 6.63546E-05-2.01986E-05-1.97361E-05 1.65643E-05-8.52922E-19 7.54653E-20
 -1      3587 8.14035E-05-2.82332E-05-2.28637E-05 2.06444E-05-1.02308E-18 1.42418E-18
 -1      3588 1.06106E-04-4.64847E-05-2.52884E-05-2.38917E-05 8.88217E-19 2.54605E-18
 -1      3589 9.57815E-05-2.88888E-05-2.86678E-05-1.04636E-06 3.19898E-19-1.71919E-19
 -1      3590 9.58123E-05-2.88371E-05-2.87010E-05-1.03307E-06 4.70466E-19-3.19854E-19
 -1      3591 9.52134E-05-2.70914E-05-2.92093E-05 1.23659E-05 2.43006E-19-1.18225E-18
 -1      3592 9.64287E-05-2.79351E-05-2.93381E-05 1.19360E-05 4.79892E-19-5.29285E-19
 -1      3593 9.73046E-05-2.91344E-05-2.91975E-05 1.22669E-05 4.01728E-19 2.53332E-19
 -1      3594 9.48840E-05-2.79529E-05-2.86942E-05 1.34885E-05 6.89542E-19-1.55640E-18
 -1      3595 9.25289E-05-4.26975E-05-2.12579E-05 3.23790E-05 3.39898E-19-2.25303E-18
 -1      3596 8.03590E-05-3.40719E-05-1.97152E-05 3.04525E-05 4.31087E-19-2.22727E-18
 -1      3597 9.99222E-05-4.48759E-05-2.33975E-05 2.79240E-05 6.10870E-19-9.23531E-19
 -1      3598 1.23589E-04-3.93345E-05-3.64751E-05-1.11449E-05-8.44015E-19-2.51373E-18
 -1      3599 9.60421E-05-2.69171E-05-2.96207E-05-4.59216E-07-3.95569E-19-1.09742E-18
 -1      3600 9.60930E-05-2.74027E-05-2.94456E-05-3.93914E-08-6.11319E-19-1.01752E-18
 -1      3601 9.62844E-05-2.74591E-05-2.94973E-05 9.95639E-09-5.84079E-19-1.01366E-18
 -1      3602 6.14027E-05-2.17489E-05-1.70632E-05-2.18512E-05 2.95694E-19-3.80037E-18
 -1      3603 1.28119E-04-4.62663E-05-3.49938E-05-6.79954E-06-6.29584E-19-3.01650E-18
 -1      3604 8.24045E-05-3.20541E-05-2.13756E-05 2.64504E-05 1.75574E-19-4.96044E-19
 -1      3605 7.39224E-05-2.79571E-05-1.94028E-05 2.69268E-05-7.98686E-19-6.62433E-19
 -1      3606 6.90226E-05-2.30707E-05-1.96815E-05 2.08769E-05-1.42500E-18-1.14694E-19
 -1      3607 7.10065E-05-2.43207E-05-1.97890E-05-2.13866E-05-9.26389E-19-1.71807E-18
 -1      3608 8.74614E-05-3.73822E-05-2.11621E-05-2.82583E-05 8.68804E-19 4.34528E-19
 -1      3609 9.62080E-05-4.08237E-05-2.36209E-05-2.39349E-05-3.08174E-20 2.10562E-18
 -1      3610 8.21494E-05-3.28480E-05-2.10216E-05-2.61666E-05 1.96512E-19-6.03895E-19
 -1      3611 9.58633E-05-2.87660E-05-2.87566E-05-1.00140E-06 3.13627E-19-4.50773E-19
 -1      3612 9.58961E-05-2.86592E-05-2.88114E-05-9.34916E-07 1.52474E-19-4.30722E-19
 -1      3613 9.60835E-05-2.88509E-05-2.88165E-05-9.37421E-07 2.42936E-19-7.40502E-19
 -1      3614 1.26927E-04-5.43373E-05-3.11184E-05-5.42776E-06 6.26540E-19-5.12428E-19
 -1      3615 9.48844E-05-2.31989E-05-3.07129E-05-2.13419E-06-4.12275E-19-1.14492E-18
 -1      3616 9.52098E-05-2.40486E-05-3.05099E-05-2.11777E-06-4.00133E-19-1.33108E-18
 -1      3617 7.74828E-05-1.73048E-05-2.57374E-05-1.77626E-06 3.19848E-19 4.48537E-19
 -1      3618 7.75666E-05-1.75950E-05-2.57475E-05 2.00235E-06 5.03224E-19-6.52943E-19
 -1      3619 9.56488E-05-2.84197E-05-2.88167E-05-8.66337E-07 2.74774E-19-2.61239E-19
 -1      3620 9.57398E-05-2.89389E-05-2.86304E-05-9.24234E-07 4.74119E-19-4.61063E-19
 -1      3621 9.56102E-05-2.88951E-05-2.85905E-05-9.77082E-07 3.53905E-19-4.89140E-19
 -1      3622 9.56341E-05-2.89099E-05-2.85958E-05-1.00298E-06 2.97588E-19-2.18985E-19
 -1      3623 9.39608E-05-2.12083E-05-3.11849E-05-1.22010E-06-7.64315E-20-1.33409E-18
 -1      3624 9.40940E-05-2.15014E-05-3.11252E-05-1.73256E-06-3.48466E-19-1.32193E-18
 -1      3625 9.70641E-05-4.19346E-05-2.36447E-05-2.76276E-05 1.07868E-18 4.77949E-18
 -1      3626 9.43198E-05-2.19377E-05-3.10156E-05-1.90729E-06-3.66109E-19-1.42224E-18
 -1      3627 9.46947E-05-2.27611E-05-3.08424E-05-2.05765E-06-4.78569E-19-1.13407E-18
 -1      3628 9.52424E-05-2.39344E-05-3.05556E-05-1.52984E-06-3.55833E-19-1.24993E-18
 -1      3629 9.48957E-05-2.30251E-05-3.07895E-05-1.34743E-06-3.62108E-19-1.24594E-18
 -1      3630 9.49281E-05-2.35056E-05-3.06224E-05 3.05424E-06 1.10045E-18-1.01479E-18
 -1      3631 9.46748E-05-2.28262E-05-3.07912E-05 2.82161E-06 9.82287E-19-1.10199E-18
 -1      3632 9.05677E-05-2.67033E-05-2.74187E-05 1.49912E-05-1.08082E-18-5.06664E-18
 -1      3633 9.31127E-05-2.82545E-05-2.77640E-05 1.53093E-05 1.74439E-19-4.99132E-18
 -1      3634 9.31552E-05-1.96226E-05-3.14964E-05-5.88060E-07 1.03887E-19-1.65334E-18
 -1      3635 9.83871E-05-3.04441E-05-2.91050E-05 1.23419E-05 9.58851E-20 6.49170E-19
 -1      3636 9.59573E-05-2.80811E-05-2.90943E-05-4.99321E-07 5.93385E-19-6.73810E-19
 -1      3637 9.59747E-05-2.77798E-05-2.92173E-05-2.18789E-07 7.29405E-19-8.11317E-19
 -1      3638 9.61205E-05-2.74077E-05-2.94497E-05 5.05187E-08 7.59244E-19-8.45862E-19
 -1      3639 7.89992E-05-1.86813E-05-2.59001E-05 6.49510E-06 3.41523E-19-1.20029E-18
 -1      3640 8.11236E-05-2.00591E-05-2.61134E-05 9.62073E-06 3.32462E-19-1.68859E-19
 -1      3641 7.61776E-05-1.81874E-05-2.48060E-05 5.02844E-06 1.00920E-18-6.49889E-19
 -1      3642 8.41951E-05-2.24358E-05-2.65448E-05 1.24500E-05-1.39355E-19 3.81332E-20
 -1      3643 8.72683E-05-2.42999E-05-2.68914E-05 1.40886E-05-7.50269E-19-2.61437E-18
 -1      3644 8.83407E-05-2.67524E-05-2.64647E-05 1.61192E-05-5.73175E-19-3.26082E-18
 -1      3645 8.12622E-05-2.19260E-05-2.54332E-05 1.25636E-05 3.67995E-19-8.09926E-20
 -1      3646 1.20728E-04-5.41123E-05-2.84495E-05 1.45909E-05-8.21794E-19-3.09092E-18
 -1      3647 8.92900E-05-3.49124E-05-2.32325E-05-2.58446E-05 4.23083E-19 4.27251E-18
 -1      3648 9.41062E-05-2.15217E-05-3.11225E-05 1.76938E-06 6.45918E-19-1.43162E-18
 -1      3649 9.39689E-05-2.12284E-05-3.11818E-05 1.25140E-06 4.85498E-19-1.53061E-18
 -1      3650 1.06613E-04-4.53664E-05-2.62610E-05-1.71958E-05-2.33516E-19 1.72133E-19
 -1      3651 1.12551E-04-4.87844E-05-2.74733E-05-1.40479E-05-2.50722E-19 3.11450E-19
 -1      3652 9.38832E-05-2.10573E-05-3.12229E-05 8.09511E-07 4.13999E-19-1.62034E-18
 -1      3653 9.38346E-05-2.09577E-05-3.12424E-05 2.47344E-07 2.48394E-19-1.57215E-18
 -1      3654 9.46296E-05-2.23945E-05-3.09400E-05 8.31828E-07 4.67931E-19-1.37057E-18
 -1      3655 7.98000E-05-1.90225E-05-2.61153E-05-8.19721E-06-1.02615E-18 3.03658E-19
 -1      3656 5.84650E-05-1.49371E-05-1.85894E-05 6.65772E-06-5.57443E-19 1.21232E-19
 -1      3657 5.33879E-05-1.30479E-05-1.68753E-05 9.82745E-07-7.81884E-20-5.33101E-20
 -1      3658 5.60356E-05-1.41944E-05-1.78175E-05-4.34595E-06-5.41138E-19-4.94826E-19
 -1      3659 1.15002E-04-5.11094E-05-2.72173E-05 1.79117E-05-1.31288E-18-2.51888E-18
 -1      3660 9.53219E-05-2.47835E-05-3.02346E-05 2.76399E-06 1.04731E-18-8.21691E-19
 -1      3661 9.50639E-05-2.39358E-05-3.04774E-05 2.99450E-06 1.08092E-18-8.97631E-19
 -1      3662 9.53358E-05-2.46384E-05-3.02966E-05 2.19922E-06 1.01844E-18-9.74289E-19
 -1      3663 9.54739E-05-2.54845E-05-2.99992E-05 1.98614E-06 9.66651E-19-7.94595E-19
 -1      3664 5.88866E-05-1.49206E-05-1.83467E-05 4.12069E-06-7.33193E-19-4.18434E-19
 -1      3665 6.14618E-05-1.60026E-05-1.95371E-05-4.70037E-06-2.76067E-19-3.16245E-18
 -1      3666 9.56953E-05-2.89232E-05-2.86154E-05-1.02569E-06 1.48385E-19-1.91189E-19
 -1      3667 9.57227E-05-2.89102E-05-2.86326E-05-1.04110E-06 2.19678E-19-2.87926E-19
 -1      3668 9.59771E-05-2.89676E-05-2.87206E-05-9.78934E-07 4.17107E-19-5.30389E-19
 -1      3669 9.58599E-05-2.89876E-05-2.86614E-05-9.62969E-07 3.69659E-19-4.95863E-19
 -1      3670 9.58737E-05-2.62641E-05-2.98318E-05 8.98976E-07 9.25617E-19-1.15324E-18
 -1      3671 9.57142E-05-2.62718E-05-2.97691E-05 1.07214E-06 1.00437E-18-9.99031E-19
 -1      3672 9.56027E-05-2.56908E-05-2.99551E-05 1.65626E-06 9.47245E-19-9.41525E-19
 -1      3673 6.09234E-05-2.01498E-05-1.71094E-05-2.05977E-05-5.64243E-19-1.15808E-18
 -1      3674 6.99456E-05-2.49363E-05-1.93059E-05-2.33945E-05-6.03657E-19-2.21451E-18
 -1      3675 6.14470E-05-1.83808E-05-1.83514E-05-1.61276E-05-3.82568E-19-1.23574E-18
 -1      3676 6.28156E-05-1.71474E-05-1.94992E-05 9.23842E-06-6.56771E-19-3.69200E-19
 -1      3677 9.55268E-05-2.49718E-05-3.02388E-05-1.58157E-06-2.51720E-19-1.22421E-18
 -1      3678 9.57930E-05-2.57267E-05-3.00308E-05-1.23524E-06-1.93005E-19-1.14642E-18
 -1      3679 9.59053E-05-2.63865E-05-2.97990E-05-7.56368E-07-3.08789E-19-1.12962E-18
 -1      3680 9.60656E-05-2.64316E-05-2.98409E-05-6.00545E-07-2.32978E-19-1.28361E-18
 -1      3681 9.56815E-05-2.51547E-05-3.02212E-05-1.24694E-06-1.94337E-19-1.29967E-18
 -1      3682 9.75697E-05-3.07583E-05-2.86479E-05 1.38201E-05-3.98469E-20 6.52937E-19
 -1      3683 9.62176E-05-3.00353E-05-2.83470E-05 1.43141E-05 3.08737E-19-7.62449E-19
 -1      3684 9.59925E-05-3.13545E-05-2.77120E-05 1.57888E-05-6.38104E-19-2.46722E-18
 -1      3685 9.65484E-05-2.85842E-05-2.91239E-05 5.82454E-07-5.80151E-19-5.87583E-19
 -1      3686 9.65153E-05-2.87729E-05-2.90342E-05 6.82877E-07-5.91919E-19-7.06972E-19
 -1      3687 9.64702E-05-2.89128E-05-2.89506E-05 7.30805E-07-5.17189E-19-6.66422E-19
 -1      3688 9.64129E-05-2.90094E-05-2.88876E-05 7.74661E-07-3.47524E-19-9.45941E-19
 -1      3689 9.66419E-05-2.88440E-05-2.90575E-05 5.97221E-07-5.47194E-19-4.35099E-19
 -1      3690 9.63375E-05-2.90671E-05-2.88285E-05 7.86952E-07-1.89188E-19-9.60232E-19
 -1      3691 9.62682E-05-2.90981E-05-2.87866E-05 7.96600E-07-3.23985E-19-9.57065E-19
 -1      3692 9.65222E-05-2.90662E-05-2.89114E-05 6.71497E-07-3.69317E-19-6.05699E-19
 -1      3693 9.61763E-05-2.90978E-05-2.87471E-05 7.89446E-07-2.95724E-19-8.20598E-19
 -1      3694 9.61018E-05-2.90820E-05-2.87216E-05 7.82239E-07-2.56417E-19-7.06513E-19
 -1      3695 9.63563E-05-2.91375E-05-2.88098E-05 6.89697E-07-2.58340E-19-3.33767E-19
 -1      3696 9.60011E-05-2.90398E-05-2.86975E-05 7.68152E-07-3.26860E-19-4.65386E-19
 -1      3697 9.59245E-05-2.89895E-05-2.86849E-05 7.57448E-07-2.21986E-19-1.90327E-19
 -1      3698 9.61655E-05-2.91006E-05-2.87436E-05 6.79737E-07-8.67196E-20-1.03367E-19
 -1      3699 9.58183E-05-2.89159E-05-2.86729E-05 7.46137E-07-4.85175E-19-1.73988E-19
 -1      3700 9.57401E-05-2.88389E-05-2.86703E-05 7.42242E-07-5.43442E-19 5.37473E-20
 -1      3701 9.59606E-05-2.89839E-05-2.87055E-05 6.63485E-07-3.60288E-19-9.53133E-20
 -1      3702 9.56283E-05-2.87396E-05-2.86676E-05 7.41287E-07-3.33385E-19 3.23541E-19
 -1      3703 9.55467E-05-2.86396E-05-2.86728E-05 7.52366E-07-5.07522E-20 4.32645E-19
 -1      3704 9.57447E-05-2.88053E-05-2.86891E-05 6.57965E-07-3.26269E-19 5.41144E-19
 -1      3705 9.54264E-05-2.85168E-05-2.86772E-05 7.67923E-07-2.34644E-19 3.93654E-19
 -1      3706 9.53382E-05-2.83948E-05-2.86883E-05 8.00780E-07-4.32063E-19 5.47816E-19
 -1      3707 9.55149E-05-2.85734E-05-2.86894E-05 6.76640E-07-2.18233E-19 9.67728E-19
 -1      3708 9.52042E-05-2.82480E-05-2.86979E-05 8.38135E-07-4.08642E-19 6.82328E-19
 -1      3709 9.51046E-05-2.81027E-05-2.87133E-05 8.98742E-07-2.58466E-19 7.73714E-19
 -1      3710 9.52633E-05-2.82907E-05-2.87020E-05 7.30663E-07-3.74869E-19 4.67801E-19
 -1      3711 9.49499E-05-2.79296E-05-2.87261E-05 9.62675E-07-2.93496E-19 4.25949E-19
 -1      3712 9.48328E-05-2.77585E-05-2.87444E-05 1.05655E-06-5.50349E-19 3.63079E-19
 -1      3713 9.49777E-05-2.79545E-05-2.87229E-05 8.29662E-07-6.34499E-19 6.87616E-19
 -1      3714 9.46486E-05-2.75551E-05-2.87583E-05 1.15159E-06-2.94223E-19 4.39045E-19
 -1      3715 9.45065E-05-2.73548E-05-2.87777E-05 1.28399E-06 6.91337E-20 8.16828E-19
 -1      3716 9.46425E-05-2.75588E-05-2.87478E-05 9.82348E-07-1.48117E-19 6.97732E-19
 -1      3717 9.42823E-05-2.71171E-05-2.87901E-05 1.41453E-06-1.68809E-20 1.06285E-18
 -1      3718 9.41067E-05-2.68844E-05-2.88081E-05 1.59047E-06-3.16035E-19 9.89093E-19
 -1      3719 9.42386E-05-2.70959E-05-2.87719E-05 1.19682E-06 8.15739E-20 1.18967E-18
 -1      3720 9.38306E-05-2.66086E-05-2.88156E-05 1.76078E-06-4.62918E-19 1.64061E-18
 -1      3721 9.36120E-05-2.63413E-05-2.88291E-05 1.98499E-06 4.39560E-20 1.84001E-18
 -1      3722 9.37437E-05-2.65578E-05-2.87890E-05 1.48063E-06 9.28935E-20 1.37549E-18
 -1      3723 9.32706E-05-2.60252E-05-2.88271E-05 2.19927E-06 1.80014E-19 1.61789E-18
 -1      3724 9.29992E-05-2.57238E-05-2.88313E-05 2.47617E-06 8.43148E-20 1.69044E-18
 -1      3725 9.31330E-05-2.59390E-05-2.87908E-05 1.84081E-06 5.79975E-20 2.62514E-18
 -1      3726 9.25781E-05-2.53684E-05-2.88134E-05 2.73880E-06 3.05489E-19 2.36216E-18
 -1      3727 9.22442E-05-2.50378E-05-2.88020E-05 3.07279E-06 3.98739E-19 2.48000E-18
 -1      3728 9.23790E-05-2.52381E-05-2.87660E-05 2.28413E-06 5.51877E-19 2.14599E-18
 -1      3729 9.17286E-05-2.46495E-05-2.87595E-05 3.38924E-06-7.54039E-20 2.48077E-18
 -1      3730 9.13248E-05-2.43020E-05-2.87234E-05 3.78566E-06 3.18805E-19 2.46739E-18
 -1      3731 9.14526E-05-2.44621E-05-2.86991E-05 2.81819E-06 9.30951E-20 2.25339E-18
 -1      3732 9.06996E-05-2.38950E-05-2.86445E-05 4.16459E-06 6.35527E-19 2.08887E-18
 -1      3733 9.02241E-05-2.35544E-05-2.85716E-05 4.63228E-06 5.38300E-19 2.02415E-18
 -1      3734 9.03239E-05-2.36297E-05-2.85692E-05 3.45443E-06 2.84810E-19 2.19345E-18
 -1      3735 8.94749E-05-2.31548E-05-2.84406E-05 5.08994E-06 3.53990E-19 1.24698E-18
 -1      3736 8.89370E-05-2.28618E-05-2.83151E-05 5.64615E-06 6.17671E-19 1.52912E-18
 -1      3737 8.89633E-05-2.27769E-05-2.83481E-05 4.21461E-06 4.52676E-19 1.50138E-18
 -1      3738 8.80513E-05-2.25124E-05-2.81109E-05 6.21462E-06 4.75534E-19 1.18122E-18
 -1      3739 8.74806E-05-2.23336E-05-2.79132E-05 6.89374E-06 7.56199E-19 8.03566E-19
 -1      3740 8.73427E-05-2.19633E-05-2.79981E-05 5.14367E-06 3.35294E-19 1.32368E-18
 -1      3741 8.64498E-05-2.21012E-05-2.76084E-05 7.63479E-06 8.57605E-19 3.40605E-19
 -1      3742 8.59144E-05-2.21423E-05-2.73153E-05 8.50105E-06 4.64679E-19 3.78604E-19
 -1      3743 8.54381E-05-2.12812E-05-2.74694E-05 6.33246E-06 4.78446E-19 3.76450E-19
 -1      3744 8.47400E-05-2.21295E-05-2.68739E-05 9.52870E-06 3.89081E-19 4.28762E-19
 -1      3745 8.43744E-05-2.25587E-05-2.64610E-05 1.06922E-05 5.00015E-19 8.88105E-19
 -1      3746 8.32335E-05-2.08698E-05-2.66954E-05 7.95523E-06 5.08965E-19 3.78488E-19
 -1      3747 8.30881E-05-2.29250E-05-2.58347E-05 1.21841E-05 5.07144E-20 7.95355E-19
 -1      3748 8.31111E-05-2.40104E-05-2.52741E-05 1.38437E-05-4.34199E-19 1.20817E-18
 -1      3749 8.07556E-05-2.09623E-05-2.55849E-05 1.03310E-05 3.19978E-19 3.88155E-19
 -1      3750 8.17812E-05-2.47315E-05-2.45290E-05 1.56517E-05-8.79045E-19 1.18044E-18
 -1      3751 8.26595E-05-2.68699E-05-2.38311E-05 1.80129E-05-1.03514E-18 1.25819E-18
 -1      3752 7.54927E-05-2.29358E-05-2.23038E-05 1.75305E-05-9.23339E-19 1.36779E-18
 -1      3753 7.81769E-05-2.16113E-05-2.41439E-05 1.34545E-05-6.21319E-19 9.13312E-19
 -1      3754 9.56976E-05-2.88470E-05-2.86484E-05-8.13051E-07 4.19667E-19-2.60221E-19
 -1      3755 9.57587E-05-2.89105E-05-2.86497E-05-8.22357E-07 5.62007E-19-3.38056E-19
 -1      3756 9.63553E-05-2.71005E-05-2.96780E-05-1.87726E-07-3.22802E-19-1.21904E-18
 -1      3757 9.64411E-05-2.75926E-05-2.95118E-05 1.12021E-07-4.30275E-19-1.07784E-18
 -1      3758 7.68086E-05-1.84321E-05-2.49910E-05-6.60566E-06-1.07790E-18-5.64840E-19
 -1      3759 9.81829E-05-3.39201E-05-2.74519E-05 1.63424E-05-1.57610E-18-3.43457E-18
 -1      3760 9.59291E-05-2.85158E-05-2.88936E-05-8.40768E-07 2.52582E-20-3.59994E-19
 -1      3761 9.59596E-05-2.83297E-05-2.89777E-05-6.88431E-07 2.25729E-19-4.59381E-19
 -1      3762 9.61639E-05-2.85961E-05-2.89603E-05-7.92983E-07 1.61951E-19-5.88828E-19
 -1      3763 9.49841E-05-2.79374E-05-2.87319E-05-1.10625E-06 6.87358E-20-1.61156E-19
 -1      3764 9.50646E-05-2.80770E-05-2.87119E-05-1.01411E-06-9.71996E-20-1.09324E-19
 -1      3765 9.51899E-05-2.82233E-05-2.86978E-05-9.48155E-07-2.83959E-19-1.79119E-19
 -1      3766 9.52609E-05-2.83439E-05-2.86809E-05-8.91037E-07-1.61909E-19-2.18493E-20
 -1      3767 9.50855E-05-2.80922E-05-2.87106E-05-9.08120E-07-6.20366E-20 6.81368E-19
 -1      3768 9.44632E-05-2.72396E-05-2.88073E-05-1.66245E-06-4.87720E-19-5.50055E-19
 -1      3769 9.45734E-05-2.74180E-05-2.87854E-05-1.48284E-06-4.94752E-19-7.00609E-19
 -1      3770 9.41301E-05-2.68306E-05-2.88396E-05-2.08391E-06-5.84596E-19-3.66194E-19
 -1      3771 9.42590E-05-2.70251E-05-2.88199E-05-1.85219E-06-5.38886E-19-8.02952E-19
 -1      3772 9.41301E-05-2.69377E-05-2.87936E-05-1.63126E-06-2.21919E-19-6.05454E-19
 -1      3773 9.37410E-05-2.63937E-05-2.88596E-05-2.61668E-06-6.07844E-20-9.18119E-21
 -1      3774 9.38884E-05-2.65970E-05-2.88456E-05-2.32774E-06-4.94399E-19-1.88472E-19
 -1      3775 9.36874E-05-2.64583E-05-2.88085E-05-2.05068E-06-5.78886E-19-6.22446E-19
 -1      3776 9.32984E-05-2.59524E-05-2.88584E-05-3.27273E-06 3.85119E-19 4.14163E-19
 -1      3777 9.34597E-05-2.61501E-05-2.88544E-05-2.92201E-06 3.18322E-19 2.18356E-19
 -1      3778 9.31675E-05-2.59464E-05-2.88042E-05-2.58136E-06-2.94213E-19-5.65172E-19
 -1      3779 9.28172E-05-2.55487E-05-2.88239E-05-4.06457E-06 3.60477E-19 9.15289E-19
 -1      3780 9.29800E-05-2.57162E-05-2.88358E-05-3.64814E-06 4.29837E-19 6.30534E-19
 -1      3781 9.25701E-05-2.54283E-05-2.87696E-05-3.23943E-06 9.13929E-20 2.57689E-19
 -1      3782 9.23331E-05-2.52516E-05-2.87419E-05-5.00633E-06 5.25134E-19 7.50680E-19
 -1      3783 9.24725E-05-2.53492E-05-2.87764E-05-4.52076E-06 7.10185E-19 1.21542E-18
 -1      3784 9.19073E-05-2.49500E-05-2.86903E-05-4.04514E-06 3.33387E-19 1.10643E-18
 -1      3785 9.19153E-05-2.51675E-05-2.85955E-05-6.11569E-06-3.99757E-19 1.34387E-19
 -1      3786 9.19860E-05-2.51348E-05-2.86603E-05-5.55776E-06 1.83129E-19 5.31739E-19
 -1      3787 9.12117E-05-2.45854E-05-2.85490E-05-5.02624E-06 3.51288E-19 7.20548E-19
 -1      3788 9.16847E-05-2.54543E-05-2.83685E-05-7.41562E-06-1.09083E-18 1.24574E-19
 -1      3789 9.16107E-05-2.52024E-05-2.84701E-05-6.78285E-06-8.53359E-19 1.59237E-19
 -1      3790 9.05479E-05-2.44477E-05-2.83257E-05-6.22325E-06-4.74831E-19 2.10337E-19
 -1      3791 9.18430E-05-2.63378E-05-2.80496E-05-8.93185E-06-1.15384E-18 7.37450E-19
 -1      3792 9.15012E-05-2.57408E-05-2.81903E-05-8.22657E-06-9.48269E-19 1.87879E-19
 -1      3793 9.00322E-05-2.47038E-05-2.79999E-05-7.69591E-06-1.16724E-18-3.33587E-19
 -1      3794 9.27123E-05-2.81287E-05-2.76434E-05-1.06730E-05-6.40300E-19-1.90096E-19
 -1      3795 9.19147E-05-2.70168E-05-2.78147E-05-9.91747E-06-7.75573E-19 6.86614E-19
 -1      3796 8.98654E-05-2.55973E-05-2.75556E-05-9.52569E-06-7.73943E-19 1.18547E-19
 -1      3797 9.47850E-05-3.12250E-05-2.71931E-05-1.25731E-05-2.87707E-19 1.86842E-19
 -1      3798 9.32626E-05-2.93880E-05-2.73613E-05-1.18449E-05-7.48538E-19-9.88399E-20
 -1      3799 9.03860E-05-2.74759E-05-2.69926E-05-1.17962E-05-5.22958E-19 5.03425E-19
 -1      3800 9.86931E-05-3.60122E-05-2.68147E-05-1.43730E-05 2.61700E-19-1.14272E-19
 -1      3801 9.61664E-05-3.32802E-05-2.69062E-05-1.38469E-05 3.62742E-19 6.61126E-19
 -1      3802 9.21411E-05-3.08097E-05-2.63526E-05-1.45179E-05-1.76854E-19 4.07178E-19
 -1      3803 9.37609E-05-3.21948E-05-2.63745E-05 1.89963E-05-1.43319E-18-5.33754E-18
 -1      3804 1.00013E-04-3.71974E-05-2.68851E-05 1.81865E-05-1.39578E-18-3.34809E-18
 -1      3805 9.47451E-05-2.76098E-05-2.87698E-05-1.34048E-06-3.74021E-19-3.06914E-19
 -1      3806 9.48388E-05-2.77690E-05-2.87479E-05-1.20746E-06 3.80964E-20-2.21091E-19
 -1      3807 9.45030E-05-2.73718E-05-2.87683E-05-1.30925E-06-6.66244E-20-6.05835E-20
 -1      3808 8.36005E-05-2.45877E-05-2.52385E-05-1.73167E-05-2.81487E-18-8.45794E-19
 -1      3809 7.90985E-05-2.19880E-05-2.45768E-05-1.52815E-05-2.89442E-18-1.65248E-18
 -1      3810 8.41156E-05-2.67401E-05-2.45196E-05-1.97016E-05-1.96263E-18 8.43149E-19
 -1      3811 9.38325E-05-2.09543E-05-3.12429E-05-2.14390E-07 2.32396E-19-1.55592E-18
 -1      3812 9.38759E-05-2.10457E-05-3.12247E-05-7.76216E-07 9.55967E-20-1.59733E-18
 -1      3813 9.46185E-05-2.23804E-05-3.09425E-05-8.06409E-07-6.58997E-20-1.26901E-18
 -1      3814 9.45554E-05-2.22220E-05-3.09821E-05 1.34651E-08 2.37099E-19-1.49462E-18
 -1      3815 1.00491E-04-4.20930E-05-2.50192E-05-2.07375E-05 3.19556E-20 8.44968E-19
 -1      3816 1.05419E-04-4.23810E-05-2.69521E-05-1.46513E-05-6.53618E-19 2.83316E-19
 -1      3817 1.01610E-04-3.89699E-05-2.67455E-05-1.49784E-05-4.07228E-19 4.99807E-20
 -1      3818 9.54754E-05-3.80628E-05-2.44988E-05-2.09250E-05 4.64541E-19 1.58518E-18
 -1      3819 1.03625E-04-4.05932E-05-2.68733E-05 1.80183E-05-1.54163E-18-4.39187E-18
 -1      3820 1.06611E-04-4.40610E-05-2.66553E-05 1.90358E-05-5.68554E-19-3.67151E-18
 -1      3821 1.10547E-04-4.73069E-05-2.69733E-05 1.81810E-05-5.79026E-19-3.62207E-18
 -1      3822 1.04938E-04-4.67759E-05-2.50583E-05 2.48656E-05 1.43135E-19-7.27442E-19
 -1      3823 9.77820E-05-3.89504E-05-2.53705E-05 2.27362E-05-3.18895E-19-4.41130E-18
 -1      3824 9.60189E-05-2.63924E-05-2.98484E-05 6.26588E-07 8.06695E-19-9.22690E-19
 -1      3825 9.58373E-05-2.56666E-05-3.00691E-05 1.14494E-06 7.07577E-19-9.90033E-19
 -1      3826 9.44742E-05-2.23463E-05-3.09301E-05 2.56284E-06 9.80931E-19-1.20778E-18
 -1      3827 9.42625E-05-2.18545E-05-3.10366E-05 2.14480E-06 8.02949E-19-1.33966E-18
 -1      3828 9.48298E-05-2.28939E-05-3.08118E-05 1.55967E-06 5.77510E-19-1.19937E-18
 -1      3829 9.51103E-05-2.37079E-05-3.05868E-05 2.11573E-06 9.73122E-19-1.03773E-18
 -1      3830 6.94111E-05-1.97501E-05-2.10503E-05-1.56767E-05-2.22623E-18-3.67911E-18
 -1      3831 7.99808E-05-2.76274E-05-2.25028E-05-2.31046E-05-1.77393E-18 6.51898E-19
 -1      3832 9.53473E-05-4.02974E-05-2.34790E-05 2.66971E-05 1.54576E-18-2.50667E-18
 -1      3833 9.65310E-05-2.80113E-05-2.93611E-05 2.94329E-07-3.83105E-19-9.62200E-19
 -1      3834 9.65419E-05-2.83288E-05-2.92378E-05 4.78827E-07-4.06471E-19-8.27880E-19
 -1      3835 9.65879E-05-2.76884E-05-2.95274E-05 1.33073E-07-2.63224E-19-1.07254E-18
 -1      3836 9.66807E-05-2.84112E-05-2.92588E-05 4.31404E-07-4.10082E-19-8.05422E-19
 -1      3837 9.59151E-05-2.89822E-05-2.86869E-05-7.55287E-07 4.62131E-19-8.37776E-19
 -1      3838 9.58519E-05-2.89728E-05-2.86609E-05-8.37682E-07 5.27463E-19-5.75857E-19
 -1      3839 9.59132E-05-2.90116E-05-2.86719E-05-8.53061E-07 3.46912E-19-7.45201E-19
 -1      3840 9.62111E-05-2.65992E-05-2.98366E-05-3.79811E-07-2.26286E-19-1.32713E-18
 -1      3841 9.63527E-05-2.67185E-05-2.98410E-05-2.59372E-07-2.08177E-19-1.39053E-18
 -1      3842 9.60735E-05-2.60471E-05-3.00116E-05-6.72660E-07-5.71266E-20-1.41678E-18
 -1      3843 7.88913E-05-2.92197E-05-2.10385E-05-2.40243E-05-7.82374E-19-2.13124E-18
 -1      3844 8.71114E-05-3.35485E-05-2.30549E-05-2.27235E-05 3.08869E-21 6.44989E-19
 -1      3845 7.61071E-05-2.59705E-05-2.14643E-05-2.08323E-05-7.28951E-19-1.95635E-18
 -1      3846 9.62719E-05-2.89419E-05-2.88562E-05-8.58854E-07 2.56973E-19-5.26437E-19
 -1      3847 9.63219E-05-2.88406E-05-2.89174E-05-8.08186E-07 2.85123E-19-6.05184E-19
 -1      3848 7.54487E-05-1.92593E-05-2.39858E-05-1.13306E-05-2.30602E-18-1.60566E-18
 -1      3849 7.17118E-05-1.72250E-05-2.34699E-05-4.47428E-06-3.92810E-19-5.88453E-19
 -1      3850 8.58486E-05-2.98726E-05-2.39191E-05-2.19745E-05-1.12813E-18 1.81970E-18
 -1      3851 9.50956E-05-2.33989E-05-3.07323E-05-4.65009E-07 4.32688E-21-1.21911E-18
 -1      3852 9.51523E-05-2.35689E-05-3.06899E-05-8.16693E-07-2.07096E-19-9.98277E-19
 -1      3853 9.56010E-05-2.87615E-05-2.86465E-05-8.08167E-07 3.67111E-19-6.74532E-20
 -1      3854 9.57273E-05-2.88287E-05-2.86717E-05-7.42259E-07 4.28714E-19-1.35157E-19
 -1      3855 9.55390E-05-2.86777E-05-2.86529E-05-8.13867E-07 6.64266E-20-7.13752E-20
 -1      3856 6.96951E-05-2.00673E-05-2.12327E-05 1.43953E-05-7.39116E-19 2.08847E-20
 -1      3857 6.33498E-05-1.61592E-05-1.99247E-05 1.03293E-05-9.32649E-19-7.82791E-19
 -1      3858 7.11993E-05-1.93291E-05-2.23366E-05 1.23061E-05-4.24198E-19-6.06158E-20
 -1      3859 8.93530E-05-2.94605E-05-2.56771E-05 1.84072E-05-4.64045E-19-2.04081E-18
 -1      3860 9.48173E-05-2.77564E-05-2.87389E-05-1.07210E-06 1.61308E-19 2.91439E-19
 -1      3861 9.63030E-05-3.61199E-05-2.59158E-05-1.70968E-05-4.20671E-20 7.88786E-19
 -1      3862 9.52824E-05-2.38748E-05-3.06018E-05-9.26718E-07-2.51757E-19-1.00409E-18
 -1      3863 9.54568E-05-2.43218E-05-3.04968E-05-1.04173E-06-2.91270E-19-1.19211E-18
 -1      3864 9.57385E-05-2.47717E-05-3.04036E-05-5.71307E-07-1.60978E-19-9.31561E-19
 -1      3865 9.61912E-05-2.81436E-05-2.91657E-05-4.87367E-07 2.86363E-19-4.71591E-19
 -1      3866 7.01264E-05-1.65860E-05-2.28211E-05 1.41223E-06 5.56329E-19-8.16533E-19
 -1      3867 7.12956E-05-1.75427E-05-2.29990E-05 6.34475E-06 6.94703E-19-1.31933E-18
 -1      3868 6.23132E-05-1.52639E-05-2.01970E-05 5.48641E-06-7.29216E-19-3.62954E-19
 -1      3869 9.53720E-05-2.84695E-05-2.86704E-05-8.54637E-07 4.02902E-20 1.49578E-19
 -1      3870 9.54370E-05-2.85719E-05-2.86581E-05-8.26491E-07 8.75237E-21-3.75332E-21
 -1      3871 9.55308E-05-2.86273E-05-2.86733E-05-7.54720E-07-6.84092E-20 5.08356E-19
 -1      3872 9.62198E-05-2.70263E-05-2.96487E-05 2.81505E-07 7.27221E-19-6.47238E-19
 -1      3873 9.61711E-05-2.64693E-05-2.98700E-05 4.80376E-07 5.48840E-19-5.97194E-19
 -1      3874 9.62953E-05-2.75191E-05-2.94816E-05-6.53512E-08 4.91714E-19-4.53324E-19
 -1      3875 9.61460E-05-2.90437E-05-2.87576E-05-8.86913E-07 4.45683E-19-6.75153E-19
 -1      3876 9.62044E-05-2.90054E-05-2.87976E-05-8.76484E-07 3.42338E-19-6.10782E-19
 -1      3877 9.64137E-05-2.90080E-05-2.88901E-05-7.66756E-07 3.95723E-19-5.97408E-19
 -1      3878 9.53331E-05-2.41070E-05-3.05343E-05 1.36261E-06 6.40152E-19-9.20050E-19
 -1      3879 9.52227E-05-2.37729E-05-3.06240E-05 1.08664E-06 4.29903E-19-1.22998E-18
 -1      3880 5.94413E-05-1.52040E-05-1.86146E-05-1.01396E-05-2.77572E-19-1.18045E-18
 -1      3881 6.53750E-05-1.86412E-05-1.99922E-05-1.40359E-05-4.04172E-19-1.14398E-18
 -1      3882 6.05076E-05-1.48113E-05-1.95467E-05-3.73108E-06 8.21953E-20-5.00835E-19
 -1      3883 9.51545E-05-2.35756E-05-3.06884E-05 8.37312E-07 4.93730E-19-1.20179E-18
 -1      3884 9.50966E-05-2.34077E-05-3.07306E-05 4.86271E-07 3.46939E-19-1.30265E-18
 -1      3885 9.56703E-05-2.46400E-05-3.04263E-05 7.13611E-07 4.20607E-19-1.24608E-18
 -1      3886 6.82081E-05-1.96392E-05-2.05333E-05 1.53246E-05-9.26568E-19-5.43941E-19
 -1      3887 6.85377E-05-1.78828E-05-2.16714E-05 8.26986E-06-2.34310E-19-3.49540E-19
 -1      3888 9.43277E-05-3.71112E-05-2.43229E-05 2.36520E-05 7.08890E-19-1.76125E-18
 -1      3889 8.81751E-05-3.49174E-05-2.27562E-05 2.64048E-05 4.29221E-19-1.15406E-18
 -1      3890 8.14482E-05-2.92375E-05-2.24122E-05 2.34772E-05-1.22444E-18 2.35555E-19
 -1      3891 9.16230E-05-3.36449E-05-2.47082E-05 2.22499E-05-3.59569E-19-3.10591E-18
 -1      3892 6.67646E-05-1.65242E-05-2.15309E-05-3.98348E-06-3.99211E-19-1.40738E-18
 -1      3893 6.53980E-05-1.72973E-05-2.04743E-05-1.08970E-05-1.38172E-18-3.83915E-18
 -1      3894 7.44532E-05-2.04840E-05-2.29584E-05-1.36321E-05-2.63746E-18-2.12951E-18
 -1      3895 9.53197E-05-2.83818E-05-2.86875E-05-8.06059E-07-1.25152E-19 7.94094E-19
 -1      3896 7.41376E-05-2.30629E-05-2.18324E-05 1.82439E-05-4.14058E-19-3.71821E-19
 -1      3897 9.55635E-05-2.53137E-05-3.01087E-05 1.77042E-06 9.29468E-19-1.06152E-18
 -1      3898 9.54682E-05-2.48975E-05-3.02469E-05 1.84677E-06 9.88603E-19-1.06571E-18
 -1      3899 9.67874E-05-2.87758E-05-2.91458E-05 4.51185E-07-4.85668E-19-7.59425E-19
 -1      3900 9.67435E-05-2.89424E-05-2.90586E-05 5.14191E-07-4.46437E-19-6.06094E-19
 -1      3901 9.66812E-05-2.90590E-05-2.89794E-05 5.34150E-07-3.18573E-19-4.86922E-19
 -1      3902 9.66065E-05-2.91331E-05-2.89171E-05 5.61360E-07-2.45182E-19-4.64324E-19
 -1      3903 9.68050E-05-2.90022E-05-2.90595E-05 4.03609E-07-2.91775E-19-5.58072E-19
 -1      3904 9.65131E-05-2.91688E-05-2.88608E-05 5.62866E-07-1.12055E-19-3.23457E-19
 -1      3905 9.64215E-05-2.91767E-05-2.88185E-05 5.69267E-07 1.28945E-19-5.32997E-20
 -1      3906 9.66495E-05-2.91681E-05-2.89221E-05 4.37734E-07-1.25526E-19-6.28008E-20
 -1      3907 9.63104E-05-2.91543E-05-2.87806E-05 5.61677E-07-1.52471E-19-1.37533E-19
 -1      3908 9.62098E-05-2.91141E-05-2.87542E-05 5.58965E-07-3.02623E-19-7.77507E-20
 -1      3909 9.64462E-05-2.91886E-05-2.88261E-05 4.43813E-07-1.55578E-19-5.15163E-21
 -1      3910 9.60878E-05-2.90488E-05-2.87309E-05 5.49981E-07-1.87963E-19 5.42543E-21
 -1      3911 9.59815E-05-2.89722E-05-2.87170E-05 5.47481E-07-2.05721E-19 1.45237E-19
 -1      3912 9.62149E-05-2.91031E-05-2.87635E-05 4.37421E-07-2.99731E-20-1.59800E-19
 -1      3913 9.58511E-05-2.88735E-05-2.87052E-05 5.42964E-07-3.58889E-19 2.30034E-19
 -1      3914 9.57390E-05-2.87674E-05-2.87009E-05 5.47994E-07-2.47954E-19 5.60020E-19
 -1      3915 9.59649E-05-2.89370E-05-2.87272E-05 4.32085E-07-1.82416E-19 2.35803E-19
 -1      3916 9.55988E-05-2.86400E-05-2.86977E-05 5.52569E-07-1.45432E-19 4.99307E-19
 -1      3917 9.54781E-05-2.85073E-05-2.87007E-05 5.70972E-07 1.51665E-20 3.23062E-19
 -1      3918 9.56970E-05-2.87054E-05-2.87111E-05 4.37320E-07-7.54779E-20-2.11135E-19
 -1      3919 9.53239E-05-2.83525E-05-2.87037E-05 5.88475E-07-2.48982E-19 1.77322E-19
 -1      3920 9.51895E-05-2.81930E-05-2.87118E-05 6.25094E-07-4.02205E-19 7.59110E-20
 -1      3921 9.54057E-05-2.84149E-05-2.87100E-05 4.61314E-07-1.18256E-19 6.41153E-21
 -1      3922 9.50143E-05-2.80093E-05-2.87188E-05 6.58737E-07-5.55882E-19 4.98746E-19
 -1      3923 9.48591E-05-2.78210E-05-2.87299E-05 7.17786E-07-6.30394E-19 7.94612E-19
 -1      3924 9.50800E-05-2.80659E-05-2.87191E-05 5.10471E-07-2.62683E-19 5.42793E-19
 -1      3925 9.46538E-05-2.76050E-05-2.87384E-05 7.70431E-07-3.90179E-19 1.12971E-18
 -1      3926 9.44690E-05-2.73842E-05-2.87503E-05 8.55668E-07 1.08715E-19 1.41910E-18
 -1      3927 9.47039E-05-2.76539E-05-2.87334E-05 5.90197E-07-3.41396E-19 1.30993E-18
 -1      3928 9.42226E-05-2.71318E-05-2.87573E-05 9.29875E-07 1.92913E-19 1.28994E-18
 -1      3929 9.39977E-05-2.68745E-05-2.87672E-05 1.04465E-06 1.38213E-19 1.45136E-18
 -1      3930 9.42575E-05-2.71713E-05-2.87477E-05 7.05055E-07-2.67285E-20 1.37482E-18
 -1      3931 9.36974E-05-2.65811E-05-2.87693E-05 1.14265E-06 1.72813E-19 1.30973E-18
 -1      3932 9.34204E-05-2.62838E-05-2.87735E-05 1.28988E-06 4.34240E-19 1.50562E-18
 -1      3933 9.37172E-05-2.66098E-05-2.87553E-05 8.58723E-07-9.61619E-20 1.19338E-18
 -1      3934 9.30516E-05-2.59460E-05-2.87660E-05 1.41353E-06 3.61104E-19 1.78506E-18
 -1      3935 9.27092E-05-2.56068E-05-2.87596E-05 1.59569E-06 3.15507E-19 1.94606E-18
 -1      3936 9.30560E-05-2.59617E-05-2.87478E-05 1.05385E-06 5.94022E-19 9.95122E-19
 -1      3937 9.22556E-05-2.52231E-05-2.87362E-05 1.74650E-06 3.69787E-19 1.80337E-18
 -1      3938 9.18333E-05-2.48428E-05-2.87125E-05 1.96584E-06 5.77447E-19 1.54486E-18
 -1      3939 9.22434E-05-2.52223E-05-2.87143E-05 1.29194E-06 2.77980E-19 7.39955E-19
 -1      3940 9.12767E-05-2.44152E-05-2.86649E-05 2.14539E-06 3.89354E-19 1.59995E-18
 -1      3941 9.07591E-05-2.39992E-05-2.86147E-05 2.40472E-06 1.19767E-19 1.91016E-18
 -1      3942 9.12455E-05-2.43920E-05-2.86398E-05 1.57367E-06 6.23281E-19 1.18195E-18
 -1      3943 9.00786E-05-2.35343E-05-2.85315E-05 2.61569E-06 3.75718E-20 1.80918E-18
 -1      3944 8.94501E-05-2.30944E-05-2.84426E-05 2.92042E-06 1.02169E-19 1.74986E-18
 -1      3945 9.00239E-05-2.34784E-05-2.85043E-05 1.90002E-06 2.42574E-19 1.50031E-18
 -1      3946 8.86200E-05-2.26047E-05-2.83084E-05 3.16906E-06-1.98115E-19 1.80841E-18
 -1      3947 8.78650E-05-2.21608E-05-2.81643E-05 3.53138E-06 8.43120E-20 1.33370E-18
 -1      3948 8.85331E-05-2.24982E-05-2.82811E-05 2.27540E-06-1.21725E-19 1.15146E-18
 -1      3949 8.68507E-05-2.16654E-05-2.79584E-05 3.83255E-06 3.30521E-20 4.32633E-19
 -1      3950 8.59541E-05-2.12479E-05-2.77371E-05 4.27938E-06 3.94383E-20 2.88075E-19
 -1      3951 8.67151E-05-2.14767E-05-2.79338E-05 2.71428E-06-6.17812E-19 5.93053E-19
 -1      3952 8.47047E-05-2.07720E-05-2.74307E-05 4.66600E-06 3.22519E-19-2.37275E-19
 -1      3953 8.36528E-05-2.04253E-05-2.71026E-05 5.25259E-06 5.44490E-19-3.85844E-19
 -1      3954 8.44874E-05-2.04459E-05-2.74124E-05 3.25414E-06-8.44154E-20-1.04282E-18
 -1      3955 8.20877E-05-2.00003E-05-2.66544E-05 5.79161E-06 6.61429E-19 3.28041E-20
 -1      3956 8.08693E-05-1.97898E-05-2.61795E-05 6.62541E-06 7.01024E-19 1.32183E-19
 -1      3957 8.17225E-05-1.94397E-05-2.66458E-05 3.97928E-06 5.93460E-19-4.91038E-19
 -1      3958 7.88455E-05-1.94347E-05-2.55264E-05 7.43692E-06 7.57106E-19-3.12047E-19
 -1      3959 7.74132E-05-1.94876E-05-2.48342E-05 8.74890E-06 3.77794E-19-2.50456E-19
 -1      3960 7.82199E-05-1.84950E-05-2.55279E-05 5.05151E-06 6.55913E-19 1.13853E-19
 -1      3961 9.67881E-05-2.82519E-05-2.93706E-05 2.82687E-07-2.12495E-19-8.99078E-19
 -1      3962 9.67972E-05-2.85459E-05-2.92529E-05 4.00533E-07-3.66071E-19-8.65504E-19
 -1      3963 9.68783E-05-2.86339E-05-2.92480E-05 3.21419E-07-3.09719E-19-9.93902E-19
 -1      3964 7.55754E-05-1.99156E-05-2.38223E-05 1.16492E-05 1.15433E-19-1.63208E-18
 -1      3965 9.53664E-05-2.44516E-05-3.03937E-05 1.69993E-06 8.66006E-19-1.04577E-18
 -1      3966 9.63857E-05-2.82507E-05-2.92046E-05-5.02407E-07 1.82438E-19-3.83711E-19
 -1      3967 9.63792E-05-2.79343E-05-2.93281E-05-2.88892E-07 4.06048E-19-3.93138E-19
 -1      3968 9.64599E-05-2.75956E-05-2.95128E-05-9.93098E-08 3.35749E-19-3.63279E-19
 -1      3969 9.49847E-05-2.79666E-05-2.87206E-05-8.22453E-07 7.94219E-20 7.70246E-19
 -1      3970 9.51106E-05-2.81304E-05-2.87082E-05-7.58791E-07-2.94886E-20 9.35678E-19
 -1      3971 9.50658E-05-2.33324E-05-3.07523E-05-1.78163E-07 2.03269E-19-1.49901E-18
 -1      3972 9.55996E-05-2.43621E-05-3.05135E-05-2.33771E-07 8.17173E-20-1.13916E-18
 -1      3973 9.50688E-05-2.33388E-05-3.07517E-05 1.92923E-07 2.86661E-19-1.54573E-18
 -1      3974 9.55106E-05-2.44934E-05-3.04339E-05-1.12402E-06-2.22233E-19-1.34384E-18
 -1      3975 9.56566E-05-2.49510E-05-3.03103E-05-1.16585E-06-1.84092E-19-1.22847E-18
 -1      3976 9.63622E-05-2.86976E-05-2.90011E-05-7.46900E-07 3.13701E-19-7.57609E-19
 -1      3977 9.63935E-05-2.85073E-05-2.90896E-05-6.30718E-07 2.22864E-19-6.36554E-19
 -1      3978 9.65526E-05-2.83286E-05-2.92398E-05-4.66780E-07 4.14698E-19-7.14235E-19
 -1      3979 9.65203E-05-2.87719E-05-2.90365E-05-6.72608E-07 2.97776E-19-6.07732E-19
 -1      3980 9.18138E-05-3.47253E-05-2.44065E-05-1.99331E-05 1.52109E-19 7.07316E-19
 -1      3981 7.82475E-05-2.52179E-05-2.25642E-05 1.99784E-05-5.11873E-19 7.81189E-19
 -1      3982 7.61213E-05-2.19022E-05-2.32627E-05 1.51877E-05-1.69281E-19 2.57114E-19
 -1      3983 7.84589E-05-2.15570E-05-2.44344E-05 1.31264E-05 2.82378E-19 1.45432E-19
 -1      3984 8.31324E-05-2.78681E-05-2.37589E-05 2.04280E-05-4.25747E-19-5.59968E-20
 -1      3985 9.32786E-05-2.61173E-05-2.87819E-05-1.91146E-06-5.81131E-20-8.02182E-19
 -1      3986 9.35215E-05-2.63821E-05-2.87803E-05-1.68766E-06 2.75394E-21-5.78679E-19
 -1      3987 9.38219E-05-2.66611E-05-2.87819E-05-1.51513E-06-6.52183E-20-4.64760E-20
 -1      3988 9.40272E-05-2.69031E-05-2.87726E-05-1.34019E-06 1.31089E-19-1.02870E-21
 -1      3989 9.34532E-05-2.63347E-05-2.87600E-05-1.37551E-06 1.95048E-19-1.13019E-19
 -1      3990 9.18940E-05-2.49377E-05-2.86931E-05-3.04033E-06-1.67375E-19-3.98455E-19
 -1      3991 9.22145E-05-2.52146E-05-2.87235E-05-2.69592E-06-2.12016E-19-9.84186E-19
 -1      3992 9.10566E-05-2.43742E-05-2.85743E-05-3.81724E-06-8.13905E-20 1.13062E-19
 -1      3993 9.14043E-05-2.46218E-05-2.86322E-05-3.39640E-06-2.82271E-19-2.18190E-19
 -1      3994 9.11180E-05-2.43853E-05-2.85901E-05-2.81429E-06-5.03923E-19-8.23440E-19
 -1      3995 9.01509E-05-2.39164E-05-2.83798E-05-4.78171E-06-2.61891E-19 9.72383E-19
 -1      3996 9.05025E-05-2.40920E-05-2.84751E-05-4.26718E-06-1.16956E-19 9.82268E-19
 -1      3997 9.00792E-05-2.37342E-05-2.84224E-05-3.57199E-06-7.12645E-19 2.73343E-19
 -1      3998 8.92318E-05-2.36735E-05-2.80856E-05-5.99074E-06-8.61896E-19 9.06541E-19
 -1      3999 8.95437E-05-2.37135E-05-2.82293E-05-5.35619E-06-1.94047E-19 1.15888E-18
 -1      4000 8.89205E-05-2.31794E-05-2.81622E-05-4.54132E-06-1.48313E-19 1.67117E-18
 -1      4001 8.84006E-05-2.38049E-05-2.76653E-05-7.53178E-06-1.05442E-18 2.86427E-20
 -1      4002 8.85956E-05-2.36160E-05-2.78683E-05-6.73763E-06-1.15938E-18-1.86314E-20
 -1      4003 8.76737E-05-2.28236E-05-2.77796E-05-5.80355E-06-5.60976E-19 7.02970E-19
 -1      4004 8.78368E-05-2.45446E-05-2.70940E-05-9.53448E-06-1.05140E-18 9.18766E-20
 -1      4005 8.77819E-05-2.39884E-05-2.73638E-05-8.52645E-06-1.10554E-18 8.46544E-20
 -1      4006 8.64017E-05-2.28139E-05-2.72393E-05-7.48820E-06-1.29845E-18-1.02670E-20
 -1      4007 8.78585E-05-2.62423E-05-2.63567E-05-1.21629E-05-2.46147E-19 2.39872E-19
 -1      4008 8.73326E-05-2.51136E-05-2.66906E-05-1.08860E-05-4.56982E-19 4.78248E-19
 -1      4009 8.52302E-05-2.33758E-05-2.65008E-05-9.80073E-06-1.04823E-18 3.46680E-19
 -1      4010 8.90910E-05-2.94287E-05-2.54899E-05-1.55125E-05-6.37366E-19 4.88401E-19
 -1      4011 8.76715E-05-2.74129E-05-2.58400E-05-1.39895E-05-5.37543E-19 1.56817E-19
 -1      4012 8.44440E-05-2.48896E-05-2.55243E-05-1.30111E-05-3.64580E-19 3.09698E-19
 -1      4013 9.46604E-05-2.75872E-05-2.87443E-05-9.82538E-07 4.20610E-19 3.60793E-19
 -1      4014 9.48065E-05-2.77763E-05-2.87304E-05-8.87278E-07 4.78329E-19 7.53521E-19
 -1      4015 9.48399E-05-2.78067E-05-2.87269E-05-7.28699E-07 3.07264E-19 8.12175E-19
 -1      4016 8.90527E-05-3.15289E-05-2.46119E-05-1.84824E-05-4.64905E-19 4.06728E-19
 -1      4017 9.58712E-05-2.52497E-05-3.02581E-05-7.15989E-07-1.40873E-19-1.23872E-18
 -1      4018 9.59093E-05-2.56507E-05-3.01099E-05-8.34907E-07-7.09888E-20-1.31894E-18
 -1      4019 9.54848E-05-2.45708E-05-3.03905E-05 1.35429E-06 7.40763E-19-7.76558E-19
 -1      4020 6.63802E-05-1.59241E-05-2.16020E-05 4.00769E-06-1.40766E-19-7.47010E-19
 -1      4021 6.27261E-05-1.45964E-05-2.04128E-05 7.17694E-07-1.83005E-20-3.21925E-19
 -1      4022 6.45576E-05-1.55593E-05-2.10402E-05-4.47454E-06 2.99572E-20-8.28438E-19
 -1      4023 8.23857E-05-2.39101E-05-2.49178E-05 1.62283E-05 1.47786E-19 4.48648E-19
 -1      4024 9.52654E-05-2.82941E-05-2.87005E-05-7.19084E-07-1.65561E-21 7.19534E-19
 -1      4025 9.53771E-05-2.84340E-05-2.86916E-05-6.81714E-07-6.28495E-20 7.59731E-19
 -1      4026 9.51695E-05-2.81762E-05-2.87106E-05-6.28384E-07-8.75046E-20 2.70491E-19
 -1      4027 9.60027E-05-2.90445E-05-2.86952E-05-8.69826E-07 3.10103E-19-4.98645E-19
 -1      4028 9.60638E-05-2.90509E-05-2.87188E-05-8.79851E-07 5.07533E-19-4.61790E-19
 -1      4029 9.62658E-05-2.90957E-05-2.87891E-05-7.90603E-07 3.88787E-19-6.40418E-19
 -1      4030 9.60959E-05-2.90774E-05-2.87239E-05-7.78368E-07 3.66277E-19-7.39999E-19
 -1      4031 9.58225E-05-2.53185E-05-3.02158E-05 8.67473E-07 6.06974E-19-8.17112E-19
 -1      4032 9.66254E-05-2.74038E-05-2.96662E-05-7.65518E-09-1.86712E-19-9.81589E-19
 -1      4033 9.67173E-05-2.78665E-05-2.95109E-05 1.87334E-07-2.76119E-19-8.79425E-19
 -1      4034 9.68188E-05-2.79899E-05-2.94974E-05 1.66958E-07-2.10691E-19-8.87090E-19
 -1      4035 9.42779E-05-2.71524E-05-2.87668E-05-1.20969E-06 1.97802E-19-3.51251E-20
 -1      4036 9.44505E-05-2.73681E-05-2.87536E-05-1.07744E-06 3.27503E-19 1.89879E-19
 -1      4037 9.44556E-05-2.73787E-05-2.87446E-05-8.79869E-07 6.73660E-19 5.56585E-19
 -1      4038 9.26372E-05-2.55340E-05-2.87567E-05-2.41360E-06-4.68338E-19-9.99306E-19
 -1      4039 9.29201E-05-2.58130E-05-2.87678E-05-2.13385E-06-3.04187E-19-1.01095E-18
 -1      4040 9.27998E-05-2.57217E-05-2.87412E-05-1.74470E-06-2.24396E-19-7.35405E-19
 -1      4041 9.61634E-05-2.61708E-05-2.99956E-05 5.67952E-07 4.45463E-19-7.04056E-19
 -1      4042 9.60372E-05-2.57371E-05-3.01321E-05 5.90852E-07 4.27895E-19-9.03340E-19
 -1      4043 9.63473E-05-2.68347E-05-2.97950E-05 2.14595E-07 3.63204E-19-5.58996E-19
 -1      4044 9.59622E-05-2.89836E-05-2.87038E-05-6.47515E-07 2.71347E-19-4.00048E-19
 -1      4045 9.60560E-05-2.90487E-05-2.87172E-05-6.53477E-07 3.74825E-19-4.45666E-19
 -1      4046 7.53242E-05-1.92417E-05-2.41235E-05 9.54691E-06-5.27741E-20-1.19059E-19
 -1      4047 7.38762E-05-1.95070E-05-2.33135E-05 1.10820E-05-3.20568E-19 1.43592E-19
 -1      4048 6.96825E-05-1.68429E-05-2.24387E-05 7.76815E-06 2.54550E-19-9.55436E-19
 -1      4049 7.42427E-05-1.76294E-05-2.41314E-05 6.30439E-06 4.49894E-19-3.10707E-19
 -1      4050 7.20003E-05-2.15958E-05-2.13942E-05-1.71701E-05-2.93140E-19-2.23032E-18
 -1      4051 7.90200E-05-2.55319E-05-2.28794E-05-1.78603E-05-2.69449E-19-1.86867E-18
 -1      4052 9.66507E-05-2.88732E-05-2.90488E-05-6.00616E-07 3.05196E-19-6.04579E-19
 -1      4053 9.66901E-05-2.86977E-05-2.91369E-05-5.22796E-07 2.93866E-19-6.81477E-19
 -1      4054 9.56180E-05-2.43791E-05-3.05116E-05 2.67658E-07 3.73424E-19-1.39625E-18
 -1      4055 8.38637E-05-2.77845E-05-2.40273E-05-1.79383E-05-6.62416E-19 1.05290E-19
 -1      4056 9.59538E-05-2.52095E-05-3.03265E-05-6.40080E-08 1.73365E-19-1.13083E-18
 -1      4057 9.59581E-05-2.52702E-05-3.03043E-05-2.77114E-07-1.03115E-19-8.25179E-19
 -1      4058 9.57456E-05-2.88037E-05-2.86879E-05-6.42391E-07-9.74675E-20 2.60795E-19
 -1      4059 9.58424E-05-2.88963E-05-2.86916E-05-6.40627E-07 1.28874E-19-1.33607E-19
 -1      4060 9.59684E-05-2.89614E-05-2.87184E-05-5.41850E-07 3.34659E-20 1.72911E-19
 -1      4061 6.91045E-05-1.88398E-05-2.15708E-05-1.21619E-05 5.22447E-20-1.29717E-18
 -1      4062 9.39994E-05-2.68885E-05-2.87580E-05-1.09173E-06 1.82524E-19 4.77938E-19
 -1      4063 9.63586E-05-2.61875E-05-3.00630E-05-1.51316E-07 1.81398E-20-7.62992E-19
 -1      4064 9.60251E-05-2.54678E-05-3.02387E-05-3.31795E-07-9.43186E-20-8.05569E-19
 -1      4065 9.61207E-05-2.57667E-05-3.01583E-05-4.00198E-07-1.54343E-19-8.53753E-19
 -1      4066 6.89195E-05-1.63532E-05-2.25907E-05 3.53412E-06 4.90952E-19-7.99444E-19
 -1      4067 9.60578E-05-2.58365E-05-3.00966E-05-6.10631E-07-3.55648E-20-1.31027E-18
 -1      4068 9.60164E-05-2.55615E-05-3.02005E-05 4.39385E-07 3.43934E-19-1.19310E-18
 -1      4069 9.60319E-05-2.56675E-05-3.01579E-05-5.55786E-07-1.80753E-19-1.20615E-18
 -1      4070 9.55155E-05-2.85728E-05-2.86882E-05-6.62454E-07-3.28746E-19 6.76752E-19
 -1      4071 9.56180E-05-2.86896E-05-2.86846E-05-6.45906E-07-2.95006E-19 5.15347E-19
 -1      4072 9.57232E-05-2.87538E-05-2.87017E-05-5.44160E-07-4.07238E-19 4.85611E-19
 -1      4073 9.64619E-05-2.68177E-05-2.98487E-05-1.38464E-07-2.63228E-20-1.08343E-18
 -1      4074 9.65822E-05-2.70031E-05-2.98193E-05-6.82756E-08 1.01850E-20-7.96263E-19
 -1      4075 9.65289E-05-2.90832E-05-2.89054E-05-6.66452E-07 3.95204E-19-5.33262E-19
 -1      4076 9.65952E-05-2.89986E-05-2.89679E-05-6.32108E-07 3.43197E-19-5.30174E-19
 -1      4077 9.67405E-05-2.89382E-05-2.90595E-05-4.99833E-07 2.67653E-19-6.94618E-19
 -1      4078 9.20246E-05-2.50629E-05-2.86898E-05-2.21650E-06-2.77168E-19-1.34968E-18
 -1      4079 8.72890E-05-2.96145E-05-2.47184E-05 1.97420E-05-2.01918E-19-1.48016E-18
 -1      4080 9.54598E-05-2.84913E-05-2.87007E-05-5.69836E-07-2.66697E-19 2.58491E-19
 -1      4081 7.94770E-05-2.38275E-05-2.39193E-05-1.48604E-05-8.84653E-20-8.82277E-19
 -1      4082 9.69493E-05-2.85123E-05-2.93287E-05 1.88544E-07-1.90784E-19-1.01246E-18
 -1      4083 9.69421E-05-2.87640E-05-2.92191E-05 2.53844E-07-2.35404E-19-9.49303E-19
 -1      4084 9.64062E-05-2.64576E-05-2.99668E-05 2.46283E-07 2.61854E-19-1.10947E-18
 -1      4085 9.60422E-05-2.54997E-05-3.02410E-05 3.06461E-07 3.85019E-19-1.36887E-18
 -1      4086 9.67634E-05-2.91671E-05-2.89689E-05 2.95291E-07-1.58159E-19-5.25972E-19
 -1      4087 9.66699E-05-2.92102E-05-2.89108E-05 3.11033E-07-5.37773E-20-4.48637E-19
 -1      4088 9.65616E-05-2.92194E-05-2.88602E-05 3.06560E-07-2.22713E-19-3.20366E-19
 -1      4089 9.64509E-05-2.92008E-05-2.88207E-05 3.10991E-07-1.75474E-19-4.41919E-19
 -1      4090 9.66545E-05-2.92214E-05-2.89015E-05 1.74317E-07-1.99703E-20-7.75386E-19
 -1      4091 9.63242E-05-2.91535E-05-2.87871E-05 3.04706E-07 7.30421E-20-4.37217E-19
 -1      4092 9.62039E-05-2.90886E-05-2.87625E-05 3.06815E-07 8.20093E-20-1.78692E-19
 -1      4093 9.64201E-05-2.91858E-05-2.88165E-05 1.72579E-07-1.53047E-19-3.59701E-19
 -1      4094 9.60659E-05-2.90004E-05-2.87423E-05 2.99226E-07-1.51142E-19-1.75644E-19
 -1      4095 9.59362E-05-2.88985E-05-2.87293E-05 3.03556E-07-2.88655E-19-2.08376E-19
 -1      4096 9.61624E-05-2.90533E-05-2.87629E-05 1.68745E-07 7.33307E-20-4.20773E-19
 -1      4097 9.57881E-05-2.87771E-05-2.87194E-05 3.00305E-07-2.53781E-19-4.24625E-20
 -1      4098 9.56485E-05-2.86442E-05-2.87152E-05 3.10103E-07 1.85281E-19-7.84613E-20
 -1      4099 9.58795E-05-2.88406E-05-2.87322E-05 1.70379E-07-4.79300E-20-1.27206E-20
 -1      4100 9.54872E-05-2.84926E-05-2.87129E-05 3.12484E-07 4.00678E-19-2.66226E-19
 -1      4101 9.53336E-05-2.83305E-05-2.87150E-05 3.30918E-07 1.34579E-19 1.80622E-19
 -1      4102 9.55747E-05-2.85623E-05-2.87195E-05 1.76791E-07 1.59800E-19-3.61036E-19
 -1      4103 9.51531E-05-2.81488E-05-2.87178E-05 3.40209E-07-3.88169E-20 3.62025E-19
 -1      4104 9.49786E-05-2.79563E-05-2.87237E-05 3.69848E-07-1.93791E-19 8.06636E-19
 -1      4105 9.52384E-05-2.82222E-05-2.87194E-05 1.90850E-07 2.19426E-19-6.44577E-20
 -1      4106 9.47705E-05-2.77421E-05-2.87289E-05 3.87118E-07-2.43626E-19 9.57179E-19
 -1      4107 9.45660E-05-2.75160E-05-2.87362E-05 4.29976E-07 3.66382E-20 1.18503E-18
 -1      4108 9.48561E-05-2.78182E-05-2.87267E-05 2.14380E-07-3.29798E-20-2.65539E-19
 -1      4109 9.43198E-05-2.72656E-05-2.87409E-05 4.55993E-07-3.30017E-19 1.45270E-18
 -1      4110 9.40743E-05-2.70019E-05-2.87465E-05 5.13490E-07-9.64939E-20 1.15619E-18
 -1      4111 9.44093E-05-2.73443E-05-2.87359E-05 2.48331E-07-3.02505E-19 7.82202E-19
 -1      4112 9.37777E-05-2.67110E-05-2.87472E-05 5.48640E-07-9.25614E-20 1.19258E-18
 -1      4113 9.34783E-05-2.64056E-05-2.87475E-05 6.21503E-07-3.83464E-20 1.03180E-18
 -1      4114 9.38752E-05-2.67927E-05-2.87405E-05 2.92639E-07 7.24213E-20 2.79903E-19
 -1      4115 9.31172E-05-2.60705E-05-2.87399E-05 6.65645E-07-8.50390E-20 7.93624E-19
 -1      4116 9.27492E-05-2.57202E-05-2.87300E-05 7.53767E-07 2.92520E-19 4.14256E-19
 -1      4117 9.32278E-05-2.61555E-05-2.87325E-05 3.45911E-07-3.42319E-19 2.80559E-19
 -1      4118 9.23081E-05-2.53386E-05-2.87083E-05 8.06051E-07 7.17011E-19-2.15897E-19
 -1      4119 9.18551E-05-2.49422E-05-2.86817E-05 9.08396E-07 3.27865E-19 1.12261E-19
 -1      4120 9.24375E-05-2.54269E-05-2.87018E-05 4.04986E-07 1.00854E-19-2.48980E-19
 -1      4121 9.13165E-05-2.45144E-05-2.86382E-05 9.67112E-07 5.62198E-19 5.44588E-20
 -1      4122 9.07598E-05-2.40738E-05-2.85865E-05 1.08185E-06 4.86502E-19 2.95324E-19
 -1      4123 9.14718E-05-2.46049E-05-2.86347E-05 4.64419E-07 3.13837E-19-3.58255E-19
 -1      4124 9.01037E-05-2.36036E-05-2.85110E-05 1.14443E-06-4.57810E-20 5.24981E-19
 -1      4125 8.94218E-05-2.31246E-05-2.84225E-05 1.26963E-06-2.82912E-20 3.34380E-19
 -1      4126 9.02935E-05-2.36934E-05-2.85134E-05 5.16043E-07 3.51184E-19-1.61838E-19
 -1      4127 8.86235E-05-2.26195E-05-2.83014E-05 1.33299E-06 2.74954E-19-2.88244E-19
 -1      4128 8.77897E-05-2.21119E-05-2.81605E-05 1.46826E-06-2.96388E-19-1.39068E-19
 -1      4129 8.88589E-05-2.27027E-05-2.83140E-05 5.48768E-07-4.42695E-19-7.66863E-19
 -1      4130 8.68155E-05-2.15828E-05-2.79754E-05 1.52977E-06-7.76609E-19-6.62274E-20
 -1      4131 8.57935E-05-2.10592E-05-2.77610E-05 1.67985E-06-5.88500E-19 2.77875E-20
 -1      4132 8.71117E-05-2.16484E-05-2.80044E-05 5.48839E-07-6.59499E-19-1.24962E-18
 -1      4133 8.45920E-05-2.05172E-05-2.74865E-05 1.73925E-06-7.53471E-19-1.76526E-19
 -1      4134 8.33266E-05-1.99901E-05-2.71690E-05 1.92068E-06-5.46665E-19-4.38614E-19
 -1      4135 8.49710E-05-2.05467E-05-2.75407E-05 5.00469E-07-8.04708E-19-7.05105E-20
 -1      4136 8.18109E-05-1.94398E-05-2.67683E-05 1.98422E-06 3.78560E-19-7.05753E-19
 -1      4137 8.02143E-05-1.89177E-05-2.63048E-05 2.23748E-06 8.96920E-19-6.07913E-19
 -1      4138 8.23066E-05-1.94044E-05-2.68612E-05 3.85738E-07-4.00389E-20-6.87127E-19
 -1      4139 7.82294E-05-1.83445E-05-2.57208E-05 2.33449E-06 6.07311E-19-6.36898E-19
 -1      4140 7.61991E-05-1.78442E-05-2.50437E-05 2.73055E-06 5.84029E-19-3.07721E-19
 -1      4141 7.88842E-05-1.82008E-05-2.58724E-05 1.81023E-07 5.73714E-19-1.50897E-18
 -1      4142 9.42712E-05-2.71990E-05-2.87454E-05-7.28053E-07 7.19514E-19 2.69075E-19
 -1      4143 9.44821E-05-2.74355E-05-2.87376E-05-6.45725E-07 6.04552E-19 3.64983E-19
 -1      4144 9.14829E-05-2.46639E-05-2.86377E-05-1.88831E-06-1.41465E-19-3.70886E-19
 -1      4145 9.19065E-05-2.50192E-05-2.86758E-05-1.65292E-06-1.48522E-19-1.74535E-19
 -1      4146 9.67998E-05-2.85439E-05-2.92530E-05-3.85785E-07 3.25331E-19-6.45014E-19
 -1      4147 9.66918E-05-2.84564E-05-2.92466E-05-4.50915E-07 3.27773E-19-5.98169E-19
 -1      4148 9.66812E-05-2.81516E-05-2.93666E-05-3.06475E-07 4.12412E-19-5.62876E-19
 -1      4149 9.60285E-05-2.54245E-05-3.02658E-05 1.12855E-07 3.63135E-19-1.51109E-18
 -1      4150 9.65712E-05-2.68711E-05-2.98787E-05-8.92911E-08 5.91719E-20-9.93268E-19
 -1      4151 9.67320E-05-2.74205E-05-2.97023E-05 3.08516E-08-1.85622E-19-9.03872E-19
 -1      4152 9.65166E-05-2.66654E-05-2.99395E-05-6.45837E-08 4.65754E-22-1.03752E-18
 -1      4153 8.78126E-05-2.25122E-05-2.79834E-05-3.99586E-06-4.75213E-19 7.60023E-19
 -1      4154 8.84208E-05-2.27978E-05-2.81459E-05-3.50965E-06-7.80627E-19 4.34311E-19
 -1      4155 9.63659E-05-2.61660E-05-3.00746E-05 2.71151E-08 1.80642E-19-1.22988E-18
 -1      4156 9.63090E-05-2.62916E-05-3.00040E-05-3.21532E-07-6.19156E-20-1.06816E-18
 -1      4157 9.31269E-05-2.60594E-05-2.87440E-05-1.15637E-06-1.00797E-19 3.01769E-19
 -1      4158 9.34284E-05-2.63629E-05-2.87482E-05-1.01093E-06 2.91804E-19 4.71520E-19
 -1      4159 8.92071E-05-2.31732E-05-2.82998E-05-3.10125E-06-9.75521E-19 2.05666E-19
 -1      4160 8.97618E-05-2.35154E-05-2.84077E-05-2.72427E-06-1.16332E-18-4.02001E-19
 -1      4161 8.82399E-05-2.24981E-05-2.81357E-05-2.57765E-06-1.25521E-18-4.80942E-19
 -1      4162 9.04296E-05-2.39115E-05-2.85084E-05-2.41771E-06-5.35921E-19-5.71868E-19
 -1      4163 9.09201E-05-2.42728E-05-2.85757E-05-2.12079E-06-1.45254E-19-6.15459E-19
 -1      4164 9.08898E-05-2.41852E-05-2.85643E-05-1.50601E-06 4.45439E-20 4.66006E-19
 -1      4165 8.96740E-05-2.33438E-05-2.83969E-05-1.96506E-06-1.23577E-18-4.72161E-19
 -1      4166 8.62528E-05-2.20170E-05-2.75231E-05-5.19124E-06-3.05027E-19 1.72656E-19
 -1      4167 8.68918E-05-2.21933E-05-2.77574E-05-4.54918E-06 2.74682E-19 7.09617E-19
 -1      4168 8.65602E-05-2.16980E-05-2.77462E-05-3.40877E-06-2.79670E-19-3.11836E-19
 -1      4169 8.45474E-05-2.18101E-05-2.68741E-05-6.83059E-06-1.11198E-18 2.12756E-19
 -1      4170 8.51742E-05-2.18025E-05-2.72006E-05-5.95750E-06-6.78022E-19 4.31599E-19
 -1      4171 8.45987E-05-2.10086E-05-2.71832E-05-4.56083E-06-2.18597E-19 2.47507E-19
 -1      4172 8.27552E-05-2.20674E-05-2.59787E-05-9.14548E-06-6.25633E-19-2.43932E-19
 -1      4173 8.32709E-05-2.17575E-05-2.64212E-05-7.92187E-06-9.82739E-19-1.28643E-20
 -1      4174 8.22979E-05-2.05099E-05-2.63855E-05-6.19581E-06-7.12758E-19-6.58697E-19
 -1      4175 8.09827E-05-2.31212E-05-2.47559E-05-1.25605E-05-3.81513E-19-2.91096E-19
 -1      4176 8.12240E-05-2.22816E-05-2.53440E-05-1.07925E-05-4.55137E-19-5.35156E-19
 -1      4177 7.95092E-05-2.02859E-05-2.52629E-05-8.59020E-06-4.71938E-19-1.30704E-18
 -1      4178 9.47068E-05-2.76655E-05-2.87317E-05-5.95951E-07 2.79148E-19 2.96502E-19
 -1      4179 9.48858E-05-2.78704E-05-2.87232E-05-5.37993E-07 2.06606E-19 1.63462E-19
 -1      4180 9.45445E-05-2.74889E-05-2.87335E-05-4.44957E-07 3.80010E-19-7.60957E-19
 -1      4181 9.23769E-05-2.53884E-05-2.87104E-05-1.47615E-06-9.56735E-20 4.63548E-20
 -1      4182 9.27364E-05-2.57220E-05-2.87280E-05-1.29003E-06 2.11500E-20 2.55050E-19
 -1      4183 9.19118E-05-2.49864E-05-2.86643E-05-1.15868E-06 1.83304E-19 7.75762E-19
 -1      4184 7.16597E-05-1.68596E-05-2.34982E-05 3.55589E-06 4.17780E-19-7.37953E-19
 -1      4185 6.94596E-05-1.59516E-05-2.27514E-05-1.33711E-07-2.98397E-20-9.74439E-19
 -1      4186 7.36043E-05-1.72414E-05-2.42284E-05 3.16698E-06 2.31583E-19-4.86798E-19
 -1      4187 9.50776E-05-2.80684E-05-2.87177E-05-5.06422E-07-8.64894E-20-1.12816E-20
 -1      4188 9.52331E-05-2.82440E-05-2.87111E-05-4.68652E-07-1.19391E-19-1.07560E-19
 -1      4189 9.49571E-05-2.79312E-05-2.87229E-05-3.73060E-07 5.65197E-21-4.58374E-19
 -1      4190 9.54013E-05-2.84126E-05-2.87085E-05-4.51818E-07-4.89290E-20-1.72029E-19
 -1      4191 9.55403E-05-2.85609E-05-2.87063E-05-4.30164E-07-3.11806E-19-6.37515E-20
 -1      4192 9.53137E-05-2.83094E-05-2.87155E-05-3.28105E-07 1.01779E-20-4.93717E-19
 -1      4193 9.66036E-05-2.78103E-05-2.94869E-05-1.97382E-07 4.07283E-19-6.05351E-19
 -1      4194 9.65229E-05-2.73476E-05-2.96437E-05 3.64961E-08 3.86593E-19-5.64099E-19
 -1      4195 9.64995E-05-2.70565E-05-2.97624E-05 1.01220E-07 3.13436E-19-7.62952E-19
 -1      4196 9.67249E-05-2.79177E-05-2.94879E-05-1.94216E-07 4.35828E-19-5.90546E-19
 -1      4197 6.82205E-05-1.62282E-05-2.23442E-05-4.01714E-06 7.14461E-20-9.05822E-19
 -1      4198 6.74936E-05-1.66119E-05-2.16533E-05-7.90718E-06 2.64198E-19-1.00371E-18
 -1      4199 7.27406E-05-1.94008E-05-2.28412E-05-1.08404E-05 4.20117E-19-1.59568E-18
 -1      4200 7.07617E-05-1.68361E-05-2.32200E-05-3.61818E-06-2.38228E-21-1.42597E-18
 -1      4201 7.66356E-05-2.10631E-05-2.37503E-05-1.24023E-05 3.09510E-19-1.72885E-18
 -1      4202 9.37515E-05-2.66642E-05-2.87521E-05-9.11394E-07 1.05996E-19 1.41425E-19
 -1      4203 9.40032E-05-2.69342E-05-2.87483E-05-8.00143E-07 2.67947E-19 5.12886E-19
 -1      4204 9.34708E-05-2.63896E-05-2.87390E-05-6.97112E-07 1.70734E-19 3.87884E-19
 -1      4205 9.61970E-05-2.91053E-05-2.87557E-05-5.52960E-07 4.09924E-19-1.40957E-19
 -1      4206 9.61679E-05-2.91031E-05-2.87410E-05-6.64211E-07 5.35764E-19-5.02923E-19
 -1      4207 9.62592E-05-2.91334E-05-2.87670E-05-6.67692E-07 4.83889E-19-4.15850E-19
 -1      4208 9.68470E-05-2.78419E-05-2.95737E-05 8.03177E-08-4.02134E-19-8.63821E-19
 -1      4209 9.69136E-05-2.82408E-05-2.94325E-05 1.80496E-07-3.04449E-19-9.91955E-19
 -1      4210 9.69627E-05-2.83784E-05-2.93969E-05 1.10850E-07-2.79418E-19-8.73172E-19
 -1      4211 9.68325E-05-2.76936E-05-2.96309E-05 4.95957E-08-2.73456E-19-9.79196E-19
 -1      4212 9.69054E-05-2.89530E-05-2.91217E-05 2.59494E-07-1.22979E-19-9.04600E-19
 -1      4213 9.68441E-05-2.90824E-05-2.90405E-05 2.95926E-07-9.12598E-20-6.15691E-19
 -1      4214 9.69636E-05-2.88449E-05-2.91959E-05 1.39624E-07 1.79347E-20-9.19488E-19
 -1      4215 9.68444E-05-2.91240E-05-2.90250E-05 1.65730E-07-8.12869E-20-8.00415E-19
 -1      4216 9.56921E-05-2.87014E-05-2.87092E-05-4.24944E-07-5.26120E-19-6.32700E-20
 -1      4217 9.58203E-05-2.88223E-05-2.87137E-05-4.15196E-07-2.90768E-19 2.67354E-20
 -1      4218 9.56309E-05-2.86276E-05-2.87165E-05-3.04232E-07-3.36884E-19-5.26474E-19
 -1      4219 7.43360E-05-1.69263E-05-2.44643E-05 2.72410E-08 2.48434E-19-1.80781E-18
 -1      4220 9.27640E-05-2.57251E-05-2.87173E-05-8.95376E-07 1.38388E-20 1.27980E-18
 -1      4221 9.40564E-05-2.69768E-05-2.87413E-05-5.50340E-07 2.81178E-19-1.22299E-19
 -1      4222 7.42490E-05-1.87438E-05-2.37354E-05-8.75154E-06 2.17059E-19-1.08647E-18
 -1      4223 9.65441E-05-2.66900E-05-2.99389E-05-2.60888E-08-1.03653E-19-1.01210E-18
 -1      4224 9.67637E-05-2.73065E-05-2.97601E-05-6.55438E-11-8.68996E-20-1.11589E-18
 -1      4225 9.68672E-05-2.77340E-05-2.96293E-05 2.24348E-08-1.87700E-19-9.95111E-19
 -1      4226 9.66205E-05-2.69079E-05-2.98808E-05 5.79055E-08 9.67080E-20-1.30568E-18
 -1      4227 9.59608E-05-2.89339E-05-2.87246E-05-4.18694E-07 4.60226E-21-6.61864E-20
 -1      4228 9.60819E-05-2.90249E-05-2.87382E-05-4.16174E-07 3.29710E-19-2.45811E-19
 -1      4229 9.59210E-05-2.88863E-05-2.87311E-05-2.95673E-07 2.21922E-20-3.01510E-19
 -1      4230 9.68860E-05-2.86776E-05-2.92343E-05-3.33786E-07 2.38206E-19-5.21442E-19
 -1      4231 9.68889E-05-2.84072E-05-2.93471E-05-2.47369E-07 3.43153E-19-6.27169E-19
 -1      4232 9.63617E-05-2.91466E-05-2.88057E-05-6.79191E-07 3.28393E-19-5.89055E-19
 -1      4233 9.64434E-05-2.91283E-05-2.88478E-05-6.70618E-07 3.42353E-19-6.37407E-19
 -1      4234 9.66009E-05-2.91289E-05-2.89191E-05-5.50798E-07 4.01215E-19-4.24149E-19
 -1      4235 9.64170E-05-2.91738E-05-2.88212E-05-5.63620E-07 3.24016E-19-3.41046E-19
 -1      4236 9.65728E-05-2.70221E-05-2.98101E-05 5.65343E-08 3.54054E-19-1.00192E-18
 -1      4237 9.68121E-05-2.90278E-05-2.90500E-05-4.01006E-07 2.36274E-19-6.66464E-19
 -1      4238 9.68667E-05-2.88837E-05-2.91330E-05-3.55476E-07 1.82194E-19-6.39986E-19
 -1      4239 9.69374E-05-2.87609E-05-2.92204E-05-2.37323E-07 1.70534E-19-5.36302E-19
 -1      4240 9.62130E-05-2.91044E-05-2.87599E-05-4.24695E-07 3.88176E-19-2.02400E-19
 -1      4241 9.63299E-05-2.91620E-05-2.87856E-05-4.25757E-07 2.80581E-19-3.20236E-19
 -1      4242 9.61914E-05-2.90830E-05-2.87630E-05-2.96563E-07 2.79124E-19-3.28354E-19
 -1      4243 9.69856E-05-2.88195E-05-2.92141E-05-6.26503E-08 8.95434E-20-7.61453E-19
 -1      4244 9.69424E-05-2.89975E-05-2.91171E-05-4.57125E-08 8.57995E-20-7.08487E-19
 -1      4245 9.65003E-05-2.92175E-05-2.88350E-05 3.00717E-08-6.58453E-20-2.43754E-19
 -1      4246 9.63776E-05-2.91728E-05-2.88009E-05 3.45700E-08-9.54150E-20-2.50253E-19
 -1      4247 9.61963E-05-2.90738E-05-2.87656E-05-6.25855E-08 9.57964E-20-1.96592E-19
 -1      4248 9.60587E-05-2.89814E-05-2.87462E-05-5.79825E-08 1.86019E-19-2.46911E-19
 -1      4249 9.59174E-05-2.88698E-05-2.87338E-05-6.27735E-08-6.71819E-20-2.05224E-19
 -1      4250 9.57666E-05-2.87429E-05-2.87237E-05-5.95545E-08-9.37341E-20-4.39911E-20
 -1      4251 9.56128E-05-2.86005E-05-2.87195E-05-6.78646E-08-1.98294E-19-4.79725E-19
 -1      4252 9.54481E-05-2.84425E-05-2.87168E-05-6.36759E-08-1.23328E-20-5.93973E-19
 -1      4253 9.52773E-05-2.82706E-05-2.87182E-05-7.84309E-08 6.32593E-20-5.27583E-19
 -1      4254 9.50928E-05-2.80815E-05-2.87204E-05-7.26431E-08-1.25939E-19-7.43029E-19
 -1      4255 9.48978E-05-2.78789E-05-2.87248E-05-9.62539E-08 1.34422E-19-5.21516E-19
 -1      4256 9.46850E-05-2.76562E-05-2.87292E-05-8.87715E-08 4.86747E-21-4.33041E-19
 -1      4257 9.44565E-05-2.74203E-05-2.87338E-05-1.23803E-07-1.00681E-19-2.89511E-19
 -1      4258 9.42047E-05-2.71605E-05-2.87374E-05-1.15059E-07 5.75217E-20-3.87774E-19
 -1      4259 9.39318E-05-2.68880E-05-2.87390E-05-1.64530E-07-1.10852E-19 1.05815E-19
 -1      4260 9.36285E-05-2.65870E-05-2.87382E-05-1.55625E-07-3.21183E-20 7.06186E-20
 -1      4261 9.32992E-05-2.62754E-05-2.87327E-05-2.23352E-07-1.16245E-19 3.67505E-19
 -1      4262 9.29301E-05-2.59301E-05-2.87230E-05-2.16285E-07-2.73096E-19 3.40090E-19
 -1      4263 9.25313E-05-2.55785E-05-2.87050E-05-3.07354E-07-1.59710E-19 5.96267E-19
 -1      4264 9.20806E-05-2.51875E-05-2.86804E-05-3.05330E-07 9.60886E-20 2.68224E-19
 -1      4265 9.15988E-05-2.47980E-05-2.86431E-05-4.26812E-07 3.27936E-19 3.21408E-19
 -1      4266 9.10487E-05-2.43626E-05-2.85958E-05-4.34603E-07 4.67275E-19 3.11381E-19
 -1      4267 9.04698E-05-2.39419E-05-2.85303E-05-5.96693E-07 2.20979E-19 3.68017E-19
 -1      4268 8.97995E-05-2.34671E-05-2.84497E-05-6.21035E-07-4.37531E-19-1.08709E-19
 -1      4269 8.91083E-05-2.30271E-05-2.83441E-05-8.38906E-07-1.06035E-18-2.69830E-20
 -1      4270 8.82919E-05-2.25214E-05-2.82165E-05-8.88928E-07-1.15095E-18-7.14639E-19
 -1      4271 8.74706E-05-2.20800E-05-2.80554E-05-1.18577E-06-8.03957E-19-5.38264E-19
 -1      4272 8.64724E-05-2.15546E-05-2.78620E-05-1.27359E-06-9.17503E-19-7.46184E-19
 -1      4273 8.54977E-05-2.11355E-05-2.76250E-05-1.68553E-06-5.50966E-19-5.43207E-19
 -1      4274 8.42631E-05-2.06011E-05-2.73399E-05-1.82759E-06-2.29590E-19-3.49318E-19
 -1      4275 8.31008E-05-2.02330E-05-2.69996E-05-2.41102E-06-1.79808E-19-4.60080E-19
 -1      4276 8.15423E-05-1.96948E-05-2.65859E-05-2.63242E-06 5.78662E-20-8.70763E-19
 -1      4277 8.01431E-05-1.94089E-05-2.61041E-05-3.47108E-06-1.29129E-19-1.26719E-18
 -1      4278 7.81246E-05-1.88619E-05-2.55056E-05-3.81724E-06-1.98285E-19-1.35559E-18
 -1      4279 9.67692E-05-2.77040E-05-2.95967E-05-7.58556E-08 3.49654E-19-8.10980E-19
 -1      4280 9.66673E-05-2.71701E-05-2.97847E-05 2.29509E-08 2.40893E-19-1.16797E-18
 -1      4281 9.68259E-05-2.76030E-05-2.96665E-05-4.59360E-08 1.63874E-19-1.14323E-18
 -1      4282 9.68383E-05-2.80751E-05-2.94734E-05-1.97728E-07 3.34993E-19-7.37020E-19
 -1      4283 9.69125E-05-2.82040E-05-2.94472E-05-1.47460E-07 2.26656E-19-7.23552E-19
 -1      4284 7.63888E-05-1.86397E-05-2.48203E-05-4.99573E-06-3.79279E-20-1.74645E-18
 -1      4285 9.67314E-05-2.92263E-05-2.89297E-05 3.16365E-08 6.77975E-20-4.79422E-19
 -1      4286 9.66216E-05-2.92371E-05-2.88776E-05 3.87736E-08 1.25190E-19-3.37227E-19
 -1      4287 9.65555E-05-2.92280E-05-2.88565E-05-1.08595E-07 1.03896E-20-1.29749E-19
 -1      4288 7.39432E-05-1.80927E-05-2.39995E-05-5.38003E-06 2.35052E-20-1.40261E-18
 -1      4289 9.68689E-05-2.90713E-05-2.90591E-05-2.39866E-07 2.37276E-19-4.95552E-19
 -1      4290 9.68963E-05-2.91048E-05-2.90525E-05-1.79937E-08 1.26734E-19-6.10421E-19
 -1      4291 9.68088E-05-2.91871E-05-2.89796E-05-7.64298E-09 9.92105E-20-6.63283E-19
 -1      4292 9.67705E-05-2.91169E-05-2.89924E-05-3.61374E-07 3.92145E-19-5.92447E-19
 -1      4293 9.67498E-05-2.92062E-05-2.89503E-05-1.58624E-07 3.60146E-19-2.13718E-19
 -1      4294 9.65147E-05-2.92084E-05-2.88445E-05-3.37386E-07 2.07520E-19-4.58185E-19
 -1      4295 9.66173E-05-2.92088E-05-2.88876E-05-3.30293E-07 3.20159E-19-5.43467E-19
 -1      4296 9.66907E-05-2.91792E-05-2.89321E-05-3.79688E-07 4.63535E-19-6.41756E-19
 -1      4297 9.62488E-05-2.91036E-05-2.87773E-05-1.96589E-07 1.56181E-19-2.02369E-19
 -1      4298 9.69988E-05-2.85809E-05-2.93180E-05-3.21623E-08 2.94942E-20-7.05631E-19
 -1      4299 9.69781E-05-2.83302E-05-2.94213E-05 3.97816E-08-1.36998E-19-9.48572E-19
 -1      4300 9.69631E-05-2.82794E-05-2.94380E-05-9.33931E-08-6.36868E-21-7.77721E-19
 -1      4301 9.69014E-05-2.79085E-05-2.95662E-05-3.78072E-08 1.40618E-19-1.03854E-18
 -1      4302 9.64985E-05-2.92049E-05-2.88412E-05-2.00991E-07 3.30574E-20-4.92347E-19
 -1      4303 9.69370E-05-2.80271E-05-2.95279E-05 3.00217E-08-2.18146E-19-9.42726E-19
 -1      4304 9.68483E-05-2.76687E-05-2.96517E-05-8.85158E-09-2.37564E-21-1.04963E-18
 -1      4305 9.63753E-05-2.91706E-05-2.88003E-05-1.97393E-07-4.85101E-20-3.13723E-19
 -3
    1PSTEP                         4           1           1          
  100CL  101 1.000000000        4305                     0    1           1
 -4  ERROR       1    1
 -5  STR(%)      1    1    0    0
 -1         1 3.57661E+01
 -1         2 2.43419E+01
 -1         3 1.02412E-01
 -1         4 1.61672E-01
 -1         5 1.40407E+01
 -1         6 1.31450E+01
 -1         7 1.31450E+01
 -1         8 3.66345E+00
 -1         9 1.82309E+00
 -1        10 1.29171E+00
 -1        11 1.04549E+00
 -1        12 8.99068E-01
 -1        13 8.08937E-01
 -1        14 7.54286E-01
 -1        15 7.56209E-01
 -1        16 8.13187E-01
 -1        17 9.00684E-01
 -1        18 1.05225E+00
 -1        19 1.30729E+00
 -1        20 1.83512E+00
 -1        21 3.50532E+00
 -1        22 8.64256E+00
 -1        23 1.31450E+01
 -1        24 4.31912E+00
 -1        25 3.34246E+00
 -1        26 2.11318E+00
 -1        27 1.36524E+00
 -1        28 1.01587E+00
 -1        29 7.77509E-01
 -1        30 5.98535E-01
 -1        31 4.59577E-01
 -1        32 3.53116E-01
 -1        33 2.76138E-01
 -1        34 2.15143E-01
 -1        35 1.68146E-01
 -1        36 1.33235E-01
 -1        37 1.08642E-01
 -1        38 9.27700E-02
 -1        39 9.14723E-02
 -1        40 1.01308E-01
 -1        41 1.24260E-01
 -1        42 1.61727E-01
 -1        43 2.12004E-01
 -1        44 2.76263E-01
 -1        45 3.54816E-01
 -1        46 4.46207E-01
 -1        47 5.45822E-01
 -1        48 6.44737E-01
 -1        49 8.45631E-01
 -1        50 1.06092E+00
 -1        51 1.33341E+00
 -1        52 1.57545E+00
 -1        53 1.67181E+00
 -1        54 1.67181E+00
 -1        55 1.66376E+00
 -1        56 1.91874E+00
 -1        57 2.81076E+00
 -1        58 4.50219E+00
 -1        59 4.86533E+00
 -1        60 4.86533E+00
 -1        61 4.81538E+00
 -1        62 3.65615E+00
 -1        63 2.01294E+00
 -1        64 1.46506E+00
 -1        65 1.54362E+00
 -1        66 1.54362E+00
 -1        67 1.46635E+00
 -1        68 1.11176E+00
 -1        69 1.10343E+00
 -1        70 9.72943E-01
 -1        71 7.66893E-01
 -1        72 1.40407E+01
 -1        73 3.39553E+00
 -1        74 2.41430E+00
 -1        75 1.66735E+00
 -1        76 1.14655E+00
 -1        77 9.06736E-01
 -1        78 7.32562E-01
 -1        79 5.89907E-01
 -1        80 4.71549E-01
 -1        81 3.73766E-01
 -1        82 3.00665E-01
 -1        83 2.41465E-01
 -1        84 1.93895E-01
 -1        85 1.57349E-01
 -1        86 1.31034E-01
 -1        87 1.14112E-01
 -1        88 1.14084E-01
 -1        89 1.27612E-01
 -1        90 1.48011E-01
 -1        91 1.73832E-01
 -1        92 2.02848E-01
 -1        93 2.54567E-01
 -1        94 3.17498E-01
 -1        95 3.85125E-01
 -1        96 4.50399E-01
 -1        97 5.01790E-01
 -1        98 5.22236E-01
 -1        99 5.95342E-01
 -1       100 7.67557E-01
 -1       101 9.05136E-01
 -1       102 1.00621E+00
 -1       103 1.27689E+00
 -1       104 1.32257E+00
 -1       105 1.57546E+00
 -1       106 1.79401E+00
 -1       107 2.66677E+00
 -1       108 3.04695E+00
 -1       109 3.38163E+00
 -1       110 3.38163E+00
 -1       111 3.05651E+00
 -1       112 2.04812E+00
 -1       113 1.17571E+00
 -1       114 7.36971E-01
 -1       115 9.75278E-01
 -1       116 9.75278E-01
 -1       117 9.24804E-01
 -1       118 7.35192E-01
 -1       119 6.67820E-01
 -1       120 3.88856E-01
 -1       121 2.08608E-01
 -1       122 2.08608E-01
 -1       123 1.86958E-01
 -1       124 1.41666E-01
 -1       125 8.05748E-02
 -1       126 1.19181E-01
 -1       127 2.15909E-01
 -1       128 2.75624E-01
 -1       129 2.78025E-01
 -1       130 2.78025E-01
 -1       131 2.18885E-01
 -1       132 1.20932E-01
 -1       133 1.23694E-01
 -1       134 2.19524E-01
 -1       135 3.81940E-01
 -1       136 4.46761E-01
 -1       137 2.41172E+01
 -1       138 4.73028E+01
 -1       139 4.73028E+01
 -1       140 2.10289E+01
 -1       141 1.26893E+01
 -1       142 1.26893E+01
 -1       143 1.22924E+01
 -1       144 1.22924E+01
 -1       145 1.21114E+01
 -1       146 1.38330E+01
 -1       147 3.17940E+01
 -1       148 3.17940E+01
 -1       149 2.75144E+01
 -1       150 2.42201E+01
 -1       151 2.41820E+01
 -1       152 2.61548E+01
 -1       153 3.57661E+01
 -1       154 1.44761E+01
 -1       155 1.21357E+01
 -1       156 1.23049E+01
 -1       157 1.28316E+01
 -1       158 1.28316E+01
 -1       159 1.25101E+01
 -1       160 1.84455E+01
 -1       161 4.66802E+01
 -1       162 4.66802E+01
 -1       163 2.47953E+01
 -1       164 6.07790E+00
 -1       165 2.29750E+00
 -1       166 1.50803E+00
 -1       167 1.15725E+00
 -1       168 9.72914E-01
 -1       169 8.64100E-01
 -1       170 7.96316E-01
 -1       171 7.56209E-01
 -1       172 7.99668E-01
 -1       173 8.67249E-01
 -1       174 9.80798E-01
 -1       175 1.17208E+00
 -1       176 1.52703E+00
 -1       177 2.26028E+00
 -1       178 3.93116E+00
 -1       179 1.40407E+01
 -1       180 4.31912E+00
 -1       181 3.34246E+00
 -1       182 2.11318E+00
 -1       183 1.44944E+00
 -1       184 1.02833E+00
 -1       185 7.77509E-01
 -1       186 5.98535E-01
 -1       187 4.71973E-01
 -1       188 3.73262E-01
 -1       189 2.95638E-01
 -1       190 2.40373E-01
 -1       191 1.93940E-01
 -1       192 1.56125E-01
 -1       193 1.26209E-01
 -1       194 1.03189E-01
 -1       195 8.73572E-02
 -1       196 9.14723E-02
 -1       197 1.04935E-01
 -1       198 1.32920E-01
 -1       199 1.70489E-01
 -1       200 2.18496E-01
 -1       201 2.77198E-01
 -1       202 3.61443E-01
 -1       203 4.88166E-01
 -1       204 6.37390E-01
 -1       205 8.01213E-01
 -1       206 9.61908E-01
 -1       207 1.11234E+00
 -1       208 1.33341E+00
 -1       209 1.57545E+00
 -1       210 1.67181E+00
 -1       211 1.66376E+00
 -1       212 1.64145E+00
 -1       213 1.91874E+00
 -1       214 2.81828E+00
 -1       215 4.50219E+00
 -1       216 4.86533E+00
 -1       217 4.81538E+00
 -1       218 3.65615E+00
 -1       219 2.19861E+00
 -1       220 1.36061E+00
 -1       221 1.46506E+00
 -1       222 1.54362E+00
 -1       223 1.46635E+00
 -1       224 1.11176E+00
 -1       225 1.10343E+00
 -1       226 9.72943E-01
 -1       227 7.66893E-01
 -1       228 3.39553E+00
 -1       229 2.41430E+00
 -1       230 1.66735E+00
 -1       231 1.14655E+00
 -1       232 9.06736E-01
 -1       233 7.32562E-01
 -1       234 5.89907E-01
 -1       235 4.71549E-01
 -1       236 3.73766E-01
 -1       237 3.00665E-01
 -1       238 2.41465E-01
 -1       239 1.95062E-01
 -1       240 1.59411E-01
 -1       241 1.32326E-01
 -1       242 1.14112E-01
 -1       243 1.08452E-01
 -1       244 1.14084E-01
 -1       245 1.27612E-01
 -1       246 1.48011E-01
 -1       247 1.80569E-01
 -1       248 2.25900E-01
 -1       249 2.77367E-01
 -1       250 3.31585E-01
 -1       251 3.85125E-01
 -1       252 4.50399E-01
 -1       253 5.01790E-01
 -1       254 5.26689E-01
 -1       255 6.44119E-01
 -1       256 7.67557E-01
 -1       257 9.05136E-01
 -1       258 1.00621E+00
 -1       259 1.27689E+00
 -1       260 1.32257E+00
 -1       261 1.57546E+00
 -1       262 1.91229E+00
 -1       263 2.66677E+00
 -1       264 3.04695E+00
 -1       265 3.38163E+00
 -1       266 3.05651E+00
 -1       267 2.04812E+00
 -1       268 1.17571E+00
 -1       269 6.62257E-01
 -1       270 7.36971E-01
 -1       271 9.75278E-01
 -1       272 9.24804E-01
 -1       273 7.35192E-01
 -1       274 6.67820E-01
 -1       275 4.17832E-01
 -1       276 2.72637E-01
 -1       277 3.06816E-01
 -1       278 3.06816E-01
 -1       279 2.40563E-01
 -1       280 1.86869E-01
 -1       281 3.64746E-01
 -1       282 5.04413E-01
 -1       283 5.35687E-01
 -1       284 5.35687E-01
 -1       285 5.08585E-01
 -1       286 3.72782E-01
 -1       287 1.86252E-01
 -1       288 3.42968E-01
 -1       289 3.42968E-01
 -1       290 4.46761E-01
 -1       291 3.11880E+01
 -1       292 2.92964E+01
 -1       293 4.73028E+01
 -1       294 2.21243E+01
 -1       295 1.14059E+01
 -1       296 1.26893E+01
 -1       297 1.21506E+01
 -1       298 1.22924E+01
 -1       299 1.21114E+01
 -1       300 1.14710E+01
 -1       301 1.38330E+01
 -1       302 3.17940E+01
 -1       303 3.12649E+01
 -1       304 2.54816E+01
 -1       305 2.67869E+01
 -1       306 2.67869E+01
 -1       307 3.31927E+01
 -1       308 3.57661E+01
 -1       309 1.44761E+01
 -1       310 1.15039E+01
 -1       311 1.21357E+01
 -1       312 1.23049E+01
 -1       313 1.28316E+01
 -1       314 1.25101E+01
 -1       315 1.07217E+01
 -1       316 1.96911E+01
 -1       317 4.66802E+01
 -1       318 2.82073E+01
 -1       319 3.11880E+01
 -1       320 1.04557E+00
 -1       321 2.47964E+00
 -1       322 7.90857E-01
 -1       323 6.93742E-01
 -1       324 6.31798E-01
 -1       325 5.87755E-01
 -1       326 5.90964E-01
 -1       327 6.34496E-01
 -1       328 7.01042E-01
 -1       329 7.96070E-01
 -1       330 9.31377E-01
 -1       331 1.15940E+00
 -1       332 1.32848E+00
 -1       333 2.20152E+00
 -1       334 1.91521E+00
 -1       335 1.73072E+00
 -1       336 1.26961E+00
 -1       337 9.09336E-01
 -1       338 6.59098E-01
 -1       339 5.41307E-01
 -1       340 4.45062E-01
 -1       341 3.60703E-01
 -1       342 2.95668E-01
 -1       343 2.41698E-01
 -1       344 1.95694E-01
 -1       345 1.58425E-01
 -1       346 1.29473E-01
 -1       347 1.04756E-01
 -1       348 8.58813E-02
 -1       349 7.84642E-02
 -1       350 8.54496E-02
 -1       351 1.04935E-01
 -1       352 1.32920E-01
 -1       353 1.75576E-01
 -1       354 2.48406E-01
 -1       355 3.40001E-01
 -1       356 4.51996E-01
 -1       357 5.83601E-01
 -1       358 7.29605E-01
 -1       359 8.77658E-01
 -1       360 1.00526E+00
 -1       361 1.11547E+00
 -1       362 1.24576E+00
 -1       363 1.27298E+00
 -1       364 1.15529E+00
 -1       365 1.14152E+00
 -1       366 1.20462E+00
 -1       367 1.88988E+00
 -1       368 2.52760E+00
 -1       369 2.90982E+00
 -1       370 2.78175E+00
 -1       371 2.75492E+00
 -1       372 2.11788E+00
 -1       373 1.60341E+00
 -1       374 1.20726E+00
 -1       375 1.06349E+00
 -1       376 9.88399E-01
 -1       377 9.36535E-01
 -1       378 7.76103E-01
 -1       379 7.92128E-01
 -1       380 6.65915E-01
 -1       381 1.13159E+00
 -1       382 8.93246E-01
 -1       383 7.06153E-01
 -1       384 5.47866E-01
 -1       385 4.40596E-01
 -1       386 3.74932E-01
 -1       387 3.12214E-01
 -1       388 2.57021E-01
 -1       389 2.12670E-01
 -1       390 1.73964E-01
 -1       391 1.44026E-01
 -1       392 1.20842E-01
 -1       393 1.03904E-01
 -1       394 9.42747E-02
 -1       395 9.43108E-02
 -1       396 9.99512E-02
 -1       397 1.21254E-01
 -1       398 1.51041E-01
 -1       399 2.02467E-01
 -1       400 2.75466E-01
 -1       401 3.61364E-01
 -1       402 4.56931E-01
 -1       403 5.54755E-01
 -1       404 6.41642E-01
 -1       405 7.20109E-01
 -1       406 7.66271E-01
 -1       407 7.66271E-01
 -1       408 7.31321E-01
 -1       409 5.70654E-01
 -1       410 6.04342E-01
 -1       411 9.06063E-01
 -1       412 1.50165E+00
 -1       413 1.84233E+00
 -1       414 1.84233E+00
 -1       415 1.80035E+00
 -1       416 1.92013E+00
 -1       417 1.95586E+00
 -1       418 1.50817E+00
 -1       419 9.82250E-01
 -1       420 6.01009E-01
 -1       421 5.20816E-01
 -1       422 5.71968E-01
 -1       423 6.23730E-01
 -1       424 5.58005E-01
 -1       425 5.54768E-01
 -1       426 4.17832E-01
 -1       427 3.80988E-01
 -1       428 4.40462E-01
 -1       429 4.40462E-01
 -1       430 3.23859E-01
 -1       431 4.47125E-01
 -1       432 6.82489E-01
 -1       433 7.94433E-01
 -1       434 7.96796E-01
 -1       435 7.96796E-01
 -1       436 7.05930E-01
 -1       437 4.67637E-01
 -1       438 3.97925E-01
 -1       439 5.57708E-01
 -1       440 2.92964E+01
 -1       441 3.11880E+01
 -1       442 2.77274E+01
 -1       443 1.64258E+01
 -1       444 9.71410E+00
 -1       445 9.19510E-01
 -1       446 9.99306E+00
 -1       447 1.07334E+01
 -1       448 1.03814E+01
 -1       449 9.25194E+00
 -1       450 7.66573E+00
 -1       451 1.25146E+01
 -1       452 2.24568E+01
 -1       453 2.41491E+01
 -1       454 3.81881E+01
 -1       455 3.81881E+01
 -1       456 2.71917E+01
 -1       457 2.18992E+01
 -1       458 1.30803E+01
 -1       459 7.24422E+00
 -1       460 8.55907E+00
 -1       461 9.89399E+00
 -1       462 1.09716E+01
 -1       463 1.03168E+01
 -1       464 8.10791E+00
 -1       465 8.81543E+00
 -1       466 1.62170E+01
 -1       467 2.82073E+01
 -1       468 2.72374E+01
 -1       469 6.76458E+00
 -1       470 6.84854E+00
 -1       471 2.40315E+01
 -1       472 1.04944E+00
 -1       473 4.86440E-01
 -1       474 5.09078E-01
 -1       475 4.31773E-01
 -1       476 4.57534E-01
 -1       477 4.86954E-01
 -1       478 5.10863E-01
 -1       479 5.10863E-01
 -1       480 6.07730E-01
 -1       481 2.77274E+01
 -1       482 8.93246E-01
 -1       483 8.03748E-01
 -1       484 7.06789E-01
 -1       485 5.91209E-01
 -1       486 4.79408E-01
 -1       487 3.81109E-01
 -1       488 3.26812E-01
 -1       489 2.77743E-01
 -1       490 2.31539E-01
 -1       491 1.91955E-01
 -1       492 1.58653E-01
 -1       493 1.29473E-01
 -1       494 1.04756E-01
 -1       495 8.43797E-02
 -1       496 6.92956E-02
 -1       497 6.58308E-02
 -1       498 7.85448E-02
 -1       499 1.02063E-01
 -1       500 1.52263E-01
 -1       501 2.15407E-01
 -1       502 2.94226E-01
 -1       503 3.91046E-01
 -1       504 5.07159E-01
 -1       505 6.41775E-01
 -1       506 7.90470E-01
 -1       507 9.43067E-01
 -1       508 1.08126E+00
 -1       509 1.19148E+00
 -1       510 1.39740E+00
 -1       511 1.59796E+00
 -1       512 1.70653E+00
 -1       513 2.01067E+00
 -1       514 2.45216E+00
 -1       515 2.26756E+00
 -1       516 3.19758E+00
 -1       517 3.84964E+00
 -1       518 3.40694E+00
 -1       519 2.50039E+00
 -1       520 2.00505E+00
 -1       521 2.07268E+00
 -1       522 1.71274E+00
 -1       523 1.20532E+00
 -1       524 1.01675E+00
 -1       525 8.58881E-01
 -1       526 7.25241E-01
 -1       527 1.77752E+01
 -1       528 5.47866E-01
 -1       529 4.40596E-01
 -1       530 3.74932E-01
 -1       531 3.12214E-01
 -1       532 2.57021E-01
 -1       533 2.12791E-01
 -1       534 1.74413E-01
 -1       535 1.41598E-01
 -1       536 1.14309E-01
 -1       537 9.23205E-02
 -1       538 7.64519E-02
 -1       539 6.84497E-02
 -1       540 8.02954E-02
 -1       541 9.77371E-02
 -1       542 1.31242E-01
 -1       543 1.85307E-01
 -1       544 2.50711E-01
 -1       545 3.27594E-01
 -1       546 4.14203E-01
 -1       547 5.05835E-01
 -1       548 5.93581E-01
 -1       549 6.66806E-01
 -1       550 7.27021E-01
 -1       551 7.84216E-01
 -1       552 8.06073E-01
 -1       553 7.47208E-01
 -1       554 8.53567E-01
 -1       555 8.22874E-01
 -1       556 1.30557E+00
 -1       557 1.58617E+00
 -1       558 1.87046E+00
 -1       559 2.14607E+00
 -1       560 2.17236E+00
 -1       561 1.86378E+00
 -1       562 1.58393E+00
 -1       563 1.38074E+00
 -1       564 1.04614E+00
 -1       565 8.67363E-01
 -1       566 7.28216E-01
 -1       567 5.88483E-01
 -1       568 5.07495E-01
 -1       569 4.81039E-01
 -1       570 6.05869E-01
 -1       571 7.97301E-01
 -1       572 3.88321E-01
 -1       573 4.82669E-01
 -1       574 1.08798E+00
 -1       575 1.08798E+00
 -1       576 1.12138E+00
 -1       577 1.12138E+00
 -1       578 8.50730E-01
 -1       579 7.14422E-01
 -1       580 6.61026E-01
 -1       581 2.72374E+01
 -1       582 7.06153E-01
 -1       583 1.37498E+01
 -1       584 8.74635E-01
 -1       585 8.33514E+00
 -1       586 6.74613E+00
 -1       587 4.57508E-01
 -1       588 6.49633E+00
 -1       589 7.22479E+00
 -1       590 2.41491E+01
 -1       591 7.82861E+00
 -1       592 4.81843E+00
 -1       593 1.04487E+01
 -1       594 1.57686E+01
 -1       595 3.81881E+01
 -1       596 2.71917E+01
 -1       597 1.74221E+01
 -1       598 1.06714E+01
 -1       599 6.45083E+00
 -1       600 5.18643E+00
 -1       601 6.73703E+00
 -1       602 8.18425E+00
 -1       603 7.39761E+00
 -1       604 5.24756E+00
 -1       605 5.08916E+00
 -1       606 1.46515E+01
 -1       607 8.28148E+00
 -1       608 5.48089E+00
 -1       609 1.32871E+00
 -1       610 7.24786E-01
 -1       611 2.02229E+01
 -1       612 1.28942E+01
 -1       613 1.77040E+01
 -1       614 5.57708E-01
 -1       615 1.54763E+01
 -1       616 3.58625E-01
 -1       617 3.43139E-01
 -1       618 3.61806E-01
 -1       619 3.37664E-01
 -1       620 7.14422E-01
 -1       621 5.44371E-01
 -1       622 4.00185E-01
 -1       623 3.86782E-01
 -1       624 3.45718E-01
 -1       625 2.96265E-01
 -1       626 2.46735E-01
 -1       627 2.14990E-01
 -1       628 1.82171E-01
 -1       629 1.51079E-01
 -1       630 1.24754E-01
 -1       631 1.01324E-01
 -1       632 8.05491E-02
 -1       633 6.17266E-02
 -1       634 4.37819E-02
 -1       635 5.04175E-02
 -1       636 7.57528E-02
 -1       637 1.17295E-01
 -1       638 1.68687E-01
 -1       639 2.32519E-01
 -1       640 3.11582E-01
 -1       641 4.08825E-01
 -1       642 5.27276E-01
 -1       643 6.69898E-01
 -1       644 8.40950E-01
 -1       645 1.03603E+00
 -1       646 1.25649E+00
 -1       647 1.48500E+00
 -1       648 1.80766E+00
 -1       649 2.36976E+00
 -1       650 2.79199E+00
 -1       651 3.10017E+00
 -1       652 3.14119E+00
 -1       653 4.34490E+00
 -1       654 6.50346E+00
 -1       655 4.47710E+00
 -1       656 2.28188E+00
 -1       657 2.08506E+00
 -1       658 2.63105E+00
 -1       659 2.17142E+00
 -1       660 1.63146E+00
 -1       661 1.22463E+00
 -1       662 9.45976E-01
 -1       663 5.23291E+00
 -1       664 3.30714E-01
 -1       665 3.98992E-01
 -1       666 2.38022E-01
 -1       667 2.01597E-01
 -1       668 1.67874E-01
 -1       669 1.38030E-01
 -1       670 1.12337E-01
 -1       671 9.04769E-02
 -1       672 7.17156E-02
 -1       673 5.50131E-02
 -1       674 5.73223E-02
 -1       675 6.82543E-02
 -1       676 1.06988E-01
 -1       677 1.54090E-01
 -1       678 2.11089E-01
 -1       679 2.79133E-01
 -1       680 3.58497E-01
 -1       681 4.47974E-01
 -1       682 5.44032E-01
 -1       683 6.39738E-01
 -1       684 7.23476E-01
 -1       685 8.20880E-01
 -1       686 9.53910E-01
 -1       687 1.06486E+00
 -1       688 1.10914E+00
 -1       689 1.37019E+00
 -1       690 1.74697E+00
 -1       691 2.50152E+00
 -1       692 2.38585E+00
 -1       693 3.50819E+00
 -1       694 5.46550E+00
 -1       695 5.50866E+00
 -1       696 1.86378E+00
 -1       697 1.89705E+00
 -1       698 1.56474E+00
 -1       699 1.35195E+00
 -1       700 1.03169E+00
 -1       701 7.37369E-01
 -1       702 5.88483E-01
 -1       703 4.47219E-01
 -1       704 1.59712E+00
 -1       705 3.60407E+00
 -1       706 9.98859E-01
 -1       707 1.59712E+00
 -1       708 1.32997E+00
 -1       709 1.54761E+00
 -1       710 1.38429E+00
 -1       711 1.17204E+00
 -1       712 4.66311E-01
 -1       713 4.67944E-01
 -1       714 5.17153E-01
 -1       715 2.83521E+00
 -1       716 3.93372E+00
 -1       717 1.40084E+01
 -1       718 2.75836E-01
 -1       719 6.93125E+00
 -1       720 3.61806E-01
 -1       721 6.25161E+00
 -1       722 3.65139E-01
 -1       723 9.97076E+00
 -1       724 5.56314E+00
 -1       725 1.46428E+01
 -1       726 1.31316E+01
 -1       727 8.86254E+00
 -1       728 1.39078E+01
 -1       729 5.58909E+00
 -1       730 9.98688E+00
 -1       731 7.07944E+00
 -1       732 4.17524E+00
 -1       733 2.81726E+00
 -1       734 5.30566E+00
 -1       735 1.25600E+01
 -1       736 5.50866E+00
 -1       737 4.67944E-01
 -1       738 3.42375E-01
 -1       739 3.15562E+00
 -1       740 7.52172E+00
 -1       741 1.21143E+01
 -1       742 6.73703E+00
 -1       743 5.30623E-01
 -1       744 8.50448E-01
 -1       745 1.00187E+01
 -1       746 1.02189E+01
 -1       747 7.00607E-01
 -1       748 3.57951E-01
 -1       749 2.40408E-01
 -1       750 3.95004E+00
 -1       751 2.57336E-01
 -1       752 2.50950E-01
 -1       753 2.28742E-01
 -1       754 2.00155E-01
 -1       755 1.73130E-01
 -1       756 1.51294E-01
 -1       757 1.27842E-01
 -1       758 1.04441E-01
 -1       759 8.18110E-02
 -1       760 5.99726E-02
 -1       761 3.84296E-02
 -1       762 3.48362E-02
 -1       763 5.22968E-02
 -1       764 8.71639E-02
 -1       765 1.32148E-01
 -1       766 1.90321E-01
 -1       767 2.63444E-01
 -1       768 3.54486E-01
 -1       769 4.66096E-01
 -1       770 5.99863E-01
 -1       771 7.54847E-01
 -1       772 9.32504E-01
 -1       773 1.18736E+00
 -1       774 1.56715E+00
 -1       775 2.09681E+00
 -1       776 2.68892E+00
 -1       777 4.67457E+00
 -1       778 7.49354E+00
 -1       779 3.76382E+00
 -1       780 9.40365E+00
 -1       781 6.20710E+00
 -1       782 3.57985E+00
 -1       783 2.76925E+00
 -1       784 2.29029E+00
 -1       785 1.64262E-01
 -1       786 1.90498E-01
 -1       787 1.11510E-01
 -1       788 8.70951E-02
 -1       789 6.55423E-02
 -1       790 4.64333E-02
 -1       791 3.22598E-02
 -1       792 4.39483E-02
 -1       793 7.61049E-02
 -1       794 1.14725E-01
 -1       795 1.61624E-01
 -1       796 2.18718E-01
 -1       797 2.87958E-01
 -1       798 3.73081E-01
 -1       799 4.74927E-01
 -1       800 5.91102E-01
 -1       801 7.16739E-01
 -1       802 8.57578E-01
 -1       803 9.94538E-01
 -1       804 1.24667E+00
 -1       805 1.53382E+00
 -1       806 1.78028E+00
 -1       807 2.81068E+00
 -1       808 3.50819E+00
 -1       809 2.02505E+00
 -1       810 2.08950E+00
 -1       811 1.64117E+00
 -1       812 1.46589E+00
 -1       813 1.15412E+00
 -1       814 8.91291E-01
 -1       815 6.55830E-01
 -1       816 2.32173E+00
 -1       817 2.29739E+00
 -1       818 4.61418E+00
 -1       819 3.07718E-01
 -1       820 2.64550E-01
 -1       821 2.56422E+00
 -1       822 2.32173E+00
 -1       823 8.13769E+00
 -1       824 1.37419E-01
 -1       825 2.29739E+00
 -1       826 2.88699E-01
 -1       827 1.09955E+01
 -1       828 1.02481E+01
 -1       829 2.82487E-01
 -1       830 1.21143E+01
 -1       831 2.38711E-01
 -1       832 2.88850E-01
 -1       833 9.47201E+00
 -1       834 9.41663E+00
 -1       835 2.81726E+00
 -1       836 2.82164E-01
 -1       837 4.51059E+00
 -1       838 8.82751E+00
 -1       839 2.80450E+00
 -1       840 1.76768E+00
 -1       841 2.83137E+00
 -1       842 2.19431E-01
 -1       843 3.09473E+00
 -1       844 2.56250E-01
 -1       845 2.09541E+00
 -1       846 1.62356E+00
 -1       847 3.27490E-01
 -1       848 1.26607E+00
 -1       849 5.29985E+00
 -1       850 9.47201E+00
 -1       851 2.80257E-01
 -1       852 2.71778E-01
 -1       853 2.88850E-01
 -1       854 5.94729E+00
 -1       855 8.55927E+00
 -1       856 3.27490E-01
 -1       857 1.83809E-01
 -1       858 1.76414E-01
 -1       859 1.60299E-01
 -1       860 1.39841E-01
 -1       861 1.23237E-01
 -1       862 1.05554E-01
 -1       863 8.69640E-02
 -1       864 6.82650E-02
 -1       865 4.96552E-02
 -1       866 5.01601E-02
 -1       867 5.54329E-02
 -1       868 8.17520E-02
 -1       869 1.23384E-01
 -1       870 1.75875E-01
 -1       871 2.42154E-01
 -1       872 3.25693E-01
 -1       873 4.30679E-01
 -1       874 5.62275E-01
 -1       875 7.26932E-01
 -1       876 9.32504E-01
 -1       877 1.18736E+00
 -1       878 1.49523E+00
 -1       879 2.02836E+00
 -1       880 3.24052E+00
 -1       881 4.52842E+00
 -1       882 3.07653E+00
 -1       883 4.16345E+00
 -1       884 4.04032E+00
 -1       885 9.30039E+00
 -1       886 7.39420E-02
 -1       887 9.44238E-02
 -1       888 4.19636E-02
 -1       889 4.48802E-02
 -1       890 6.58629E-02
 -1       891 1.02295E-01
 -1       892 1.47585E-01
 -1       893 2.02700E-01
 -1       894 2.68888E-01
 -1       895 3.46694E-01
 -1       896 4.35327E-01
 -1       897 5.31584E-01
 -1       898 6.60834E-01
 -1       899 8.32244E-01
 -1       900 1.08369E+00
 -1       901 1.38876E+00
 -1       902 1.71407E+00
 -1       903 2.21265E+00
 -1       904 2.95773E+00
 -1       905 2.45374E+00
 -1       906 2.03866E+00
 -1       907 2.91248E-01
 -1       908 9.30039E+00
 -1       909 3.37951E+00
 -1       910 3.95887E+00
 -1       911 3.71828E+00
 -1       912 2.09398E-01
 -1       913 5.37659E-02
 -1       914 5.88312E+00
 -1       915 1.53050E-01
 -1       916 1.09675E+00
 -1       917 6.46062E+00
 -1       918 1.73539E-01
 -1       919 5.19213E+00
 -1       920 5.70941E+00
 -1       921 1.76958E-01
 -1       922 1.39417E-01
 -1       923 4.37224E+00
 -1       924 1.15093E-01
 -1       925 2.17632E-01
 -1       926 2.17341E-01
 -1       927 1.65804E-01
 -1       928 2.69432E+00
 -1       929 2.11116E-01
 -1       930 4.39129E+00
 -1       931 2.90403E+00
 -1       932 2.17836E-01
 -1       933 2.17836E-01
 -1       934 5.61145E+00
 -1       935 1.18387E-01
 -1       936 5.55551E+00
 -1       937 1.35175E-01
 -1       938 1.81703E-01
 -1       939 6.26834E+00
 -1       940 1.36681E-01
 -1       941 1.35989E-01
 -1       942 1.26678E-01
 -1       943 1.12552E-01
 -1       944 9.79345E-02
 -1       945 8.45853E-02
 -1       946 7.02585E-02
 -1       947 5.82288E-02
 -1       948 5.97983E-02
 -1       949 6.47420E-02
 -1       950 7.43163E-02
 -1       951 1.04322E-01
 -1       952 1.47397E-01
 -1       953 2.01962E-01
 -1       954 2.71184E-01
 -1       955 3.59294E-01
 -1       956 4.72361E-01
 -1       957 6.19732E-01
 -1       958 8.16619E-01
 -1       959 1.08829E+00
 -1       960 1.47732E+00
 -1       961 2.02836E+00
 -1       962 2.67766E+00
 -1       963 3.70843E+00
 -1       964 7.73908E-02
 -1       965 1.23875E-01
 -1       966 1.98047E-01
 -1       967 6.43602E-02
 -1       968 5.77571E-02
 -1       969 1.34099E-01
 -1       970 1.84733E-01
 -1       971 2.47297E-01
 -1       972 3.24011E-01
 -1       973 4.17165E-01
 -1       974 5.28932E-01
 -1       975 6.60834E-01
 -1       976 8.12160E-01
 -1       977 1.04175E+00
 -1       978 1.38640E+00
 -1       979 1.98535E+00
 -1       980 2.92419E+00
 -1       981 4.15751E+00
 -1       982 9.33075E-02
 -1       983 6.40435E+00
 -1       984 2.17632E-01
 -1       985 3.99445E+00
 -1       986 4.09592E+00
 -1       987 1.14110E-01
 -1       988 2.04542E-01
 -1       989 1.36967E-01
 -1       990 9.37256E-02
 -1       991 1.02117E-01
 -1       992 4.83702E+00
 -1       993 1.40960E-01
 -1       994 6.13293E+00
 -1       995 1.54582E-01
 -1       996 6.08631E-02
 -1       997 4.37309E+00
 -1       998 1.53618E-01
 -1       999 5.45216E-02
 -1      1000 1.46133E-01
 -1      1001 1.24238E-01
 -1      1002 1.41821E-01
 -1      1003 4.52454E+00
 -1      1004 1.55108E-01
 -1      1005 4.39834E+00
 -1      1006 4.15751E+00
 -1      1007 1.03631E-01
 -1      1008 9.78697E-02
 -1      1009 8.79213E-02
 -1      1010 7.57953E-02
 -1      1011 6.64086E-02
 -1      1012 6.43624E-02
 -1      1013 6.49547E-02
 -1      1014 6.87742E-02
 -1      1015 7.65892E-02
 -1      1016 9.25197E-02
 -1      1017 1.17454E-01
 -1      1018 1.52298E-01
 -1      1019 2.03086E-01
 -1      1020 2.67662E-01
 -1      1021 3.50530E-01
 -1      1022 4.59011E-01
 -1      1023 6.06000E-01
 -1      1024 8.15669E-01
 -1      1025 1.13428E+00
 -1      1026 1.64411E+00
 -1      1027 2.02150E+00
 -1      1028 1.02318E-01
 -1      1029 1.56633E-01
 -1      1030 7.04197E-02
 -1      1031 1.55108E-01
 -1      1032 1.06789E-01
 -1      1033 1.53091E-01
 -1      1034 4.15751E+00
 -1      1035 2.06483E-01
 -1      1036 1.53058E-01
 -1      1037 3.60226E-01
 -1      1038 4.70085E-01
 -1      1039 6.11745E-01
 -1      1040 7.96777E-01
 -1      1041 1.04175E+00
 -1      1042 1.36341E+00
 -1      1043 1.88136E+00
 -1      1044 2.58614E+00
 -1      1045 8.31073E-02
 -1      1046 3.59019E+00
 -1      1047 6.42138E-02
 -1      1048 1.08966E-01
 -1      1049 9.01986E-02
 -1      1050 1.10919E-01
 -1      1051 2.74207E-01
 -1      1052 1.06488E-01
 -1      1053 7.23151E-02
 -1      1054 2.80924E+00
 -1      1055 4.34259E+00
 -1      1056 1.17690E-01
 -1      1057 1.05169E-01
 -1      1058 6.17949E-02
 -1      1059 1.00145E-01
 -1      1060 6.15488E-02
 -1      1061 1.10360E-01
 -1      1062 8.02209E-02
 -1      1063 1.06488E-01
 -1      1064 7.24656E-02
 -1      1065 7.23034E-02
 -1      1066 9.08869E-02
 -1      1067 6.64086E-02
 -1      1068 6.49547E-02
 -1      1069 6.87742E-02
 -1      1070 7.65892E-02
 -1      1071 9.25197E-02
 -1      1072 1.15765E-01
 -1      1073 1.46812E-01
 -1      1074 1.87251E-01
 -1      1075 2.39169E-01
 -1      1076 3.05574E-01
 -1      1077 3.91211E-01
 -1      1078 5.04166E-01
 -1      1079 6.59001E-01
 -1      1080 8.99696E-01
 -1      1081 1.34019E+00
 -1      1082 2.02561E+00
 -1      1083 1.03304E-01
 -1      1084 2.74145E-01
 -1      1085 1.17193E-01
 -1      1086 6.50348E-02
 -1      1087 6.58125E-01
 -1      1088 1.65470E-01
 -1      1089 4.87558E-01
 -1      1090 3.64848E-01
 -1      1091 9.03096E-01
 -1      1092 1.34019E+00
 -1      1093 2.02561E+00
 -1      1094 2.74102E+00
 -1      1095 8.31073E-02
 -1      1096 2.09962E-01
 -1      1097 2.74102E+00
 -1      1098 7.04197E-02
 -1      1099 6.42138E-02
 -1      1100 9.81556E-02
 -1      1101 3.49878E+00
 -1      1102 1.30365E-01
 -1      1103 1.11168E-01
 -1      1104 6.56424E-02
 -1      1105 7.64727E-02
 -1      1106 6.34785E-02
 -1      1107 6.50348E-02
 -1      1108 9.08869E-02
 -1      1109 8.73740E-02
 -1      1110 1.11168E-01
 -1      1111 8.97151E-02
 -1      1112 9.52364E-02
 -1      1113 9.52364E-02
 -1      1114 7.62494E-02
 -1      1115 1.11168E-01
 -1      1116 1.05096E-01
 -1      1117 6.56424E-02
 -1      1118 1.31450E+01
 -1      1119 8.40422E+00
 -1      1120 2.74327E+00
 -1      1121 1.55740E+00
 -1      1122 1.16860E+00
 -1      1123 9.72281E-01
 -1      1124 8.54002E-01
 -1      1125 7.81612E-01
 -1      1126 7.55248E-01
 -1      1127 7.84698E-01
 -1      1128 8.56936E-01
 -1      1129 9.76469E-01
 -1      1130 1.17977E+00
 -1      1131 1.57120E+00
 -1      1132 2.67022E+00
 -1      1133 6.07394E+00
 -1      1134 1.13416E+01
 -1      1135 1.31450E+01
 -1      1136 8.73206E+00
 -1      1137 3.83079E+00
 -1      1138 2.72782E+00
 -1      1139 1.73921E+00
 -1      1140 1.19056E+00
 -1      1141 8.96690E-01
 -1      1142 6.88022E-01
 -1      1143 5.29056E-01
 -1      1144 4.06346E-01
 -1      1145 3.14627E-01
 -1      1146 2.45640E-01
 -1      1147 1.91644E-01
 -1      1148 1.50690E-01
 -1      1149 1.20939E-01
 -1      1150 1.00706E-01
 -1      1151 9.21211E-02
 -1      1152 9.63903E-02
 -1      1153 1.12784E-01
 -1      1154 1.42994E-01
 -1      1155 1.86866E-01
 -1      1156 2.44133E-01
 -1      1157 3.15539E-01
 -1      1158 4.00512E-01
 -1      1159 4.96015E-01
 -1      1160 5.95280E-01
 -1      1161 7.45184E-01
 -1      1162 9.53274E-01
 -1      1163 1.19716E+00
 -1      1164 1.45443E+00
 -1      1165 1.62363E+00
 -1      1166 1.67181E+00
 -1      1167 1.66779E+00
 -1      1168 1.79125E+00
 -1      1169 2.36475E+00
 -1      1170 3.65647E+00
 -1      1171 4.68376E+00
 -1      1172 4.86533E+00
 -1      1173 4.84035E+00
 -1      1174 4.23576E+00
 -1      1175 2.83454E+00
 -1      1176 1.73900E+00
 -1      1177 1.50434E+00
 -1      1178 1.54362E+00
 -1      1179 1.50499E+00
 -1      1180 1.28905E+00
 -1      1181 1.10759E+00
 -1      1182 1.03818E+00
 -1      1183 8.69918E-01
 -1      1184 4.64283E-01
 -1      1185 1.40407E+01
 -1      1186 8.71813E+00
 -1      1187 2.90492E+00
 -1      1188 2.04083E+00
 -1      1189 1.40695E+00
 -1      1190 1.02664E+00
 -1      1191 8.19649E-01
 -1      1192 6.61235E-01
 -1      1193 5.30728E-01
 -1      1194 4.22658E-01
 -1      1195 3.37216E-01
 -1      1196 2.71065E-01
 -1      1197 2.17680E-01
 -1      1198 1.75622E-01
 -1      1199 1.44192E-01
 -1      1200 1.22573E-01
 -1      1201 1.14098E-01
 -1      1202 1.20848E-01
 -1      1203 1.37812E-01
 -1      1204 1.60921E-01
 -1      1205 1.88340E-01
 -1      1206 2.28708E-01
 -1      1207 2.86032E-01
 -1      1208 3.51312E-01
 -1      1209 4.17762E-01
 -1      1210 4.76095E-01
 -1      1211 5.12013E-01
 -1      1212 5.58789E-01
 -1      1213 6.81450E-01
 -1      1214 8.36347E-01
 -1      1215 9.55675E-01
 -1      1216 1.14155E+00
 -1      1217 1.29973E+00
 -1      1218 1.44902E+00
 -1      1219 1.68474E+00
 -1      1220 2.23039E+00
 -1      1221 2.85686E+00
 -1      1222 3.21429E+00
 -1      1223 3.38163E+00
 -1      1224 3.21907E+00
 -1      1225 2.55232E+00
 -1      1226 1.61191E+00
 -1      1227 9.56339E-01
 -1      1228 8.56125E-01
 -1      1229 9.75278E-01
 -1      1230 9.50041E-01
 -1      1231 8.29998E-01
 -1      1232 7.01506E-01
 -1      1233 5.28338E-01
 -1      1234 2.45634E-01
 -1      1235 1.55510E-01
 -1      1236 2.08608E-01
 -1      1237 1.97783E-01
 -1      1238 1.64312E-01
 -1      1239 1.11120E-01
 -1      1240 9.98779E-02
 -1      1241 1.67545E-01
 -1      1242 2.45767E-01
 -1      1243 2.76825E-01
 -1      1244 2.78025E-01
 -1      1245 2.48455E-01
 -1      1246 1.69908E-01
 -1      1247 1.22313E-01
 -1      1248 1.71609E-01
 -1      1249 3.00732E-01
 -1      1250 4.14351E-01
 -1      1251 3.04217E-01
 -1      1252 2.42295E+01
 -1      1253 3.57100E+01
 -1      1254 4.73028E+01
 -1      1255 3.41659E+01
 -1      1256 1.68591E+01
 -1      1257 1.26893E+01
 -1      1258 1.24908E+01
 -1      1259 1.22924E+01
 -1      1260 1.22019E+01
 -1      1261 1.29722E+01
 -1      1262 2.28135E+01
 -1      1263 3.17940E+01
 -1      1264 2.96542E+01
 -1      1265 2.58672E+01
 -1      1266 2.42011E+01
 -1      1267 2.51684E+01
 -1      1268 3.09604E+01
 -1      1269 3.57661E+01
 -1      1270 2.51211E+01
 -1      1271 1.33059E+01
 -1      1272 1.22203E+01
 -1      1273 1.25682E+01
 -1      1274 1.28316E+01
 -1      1275 1.26708E+01
 -1      1276 1.54778E+01
 -1      1277 3.25629E+01
 -1      1278 4.66802E+01
 -1      1279 3.57377E+01
 -1      1280 2.45686E+01
 -1      1281 1.31450E+01
 -1      1282 4.87068E+00
 -1      1283 9.61145E+00
 -1      1284 2.06030E+00
 -1      1285 2.98047E+00
 -1      1286 4.18770E+00
 -1      1287 1.39987E+00
 -1      1288 1.66556E+00
 -1      1289 1.90276E+00
 -1      1290 1.10137E+00
 -1      1291 1.22448E+00
 -1      1292 1.33264E+00
 -1      1293 9.35991E-01
 -1      1294 1.00920E+00
 -1      1295 1.06508E+00
 -1      1296 8.36518E-01
 -1      1297 8.81584E-01
 -1      1298 9.18507E-01
 -1      1299 7.75301E-01
 -1      1300 8.02626E-01
 -1      1301 8.30208E-01
 -1      1302 7.56209E-01
 -1      1303 7.55248E-01
 -1      1304 7.76262E-01
 -1      1305 8.06428E-01
 -1      1306 7.77939E-01
 -1      1307 7.77939E-01
 -1      1308 8.83966E-01
 -1      1309 8.40218E-01
 -1      1310 8.33458E-01
 -1      1311 1.01653E+00
 -1      1312 9.40741E-01
 -1      1313 9.24023E-01
 -1      1314 1.23969E+00
 -1      1315 1.11217E+00
 -1      1316 1.07644E+00
 -1      1317 1.68107E+00
 -1      1318 1.41716E+00
 -1      1319 1.34956E+00
 -1      1320 2.88280E+00
 -1      1321 2.04770E+00
 -1      1322 1.89365E+00
 -1      1323 6.28686E+00
 -1      1324 3.71824E+00
 -1      1325 3.09572E+00
 -1      1326 1.40407E+01
 -1      1327 1.13416E+01
 -1      1328 8.98595E+00
 -1      1329 1.40407E+01
 -1      1330 8.73206E+00
 -1      1331 4.31912E+00
 -1      1332 3.83079E+00
 -1      1333 3.34246E+00
 -1      1334 3.83079E+00
 -1      1335 2.72782E+00
 -1      1336 2.11318E+00
 -1      1337 2.72782E+00
 -1      1338 1.78131E+00
 -1      1339 1.40734E+00
 -1      1340 1.78131E+00
 -1      1341 1.19679E+00
 -1      1342 1.02210E+00
 -1      1343 1.23888E+00
 -1      1344 8.96690E-01
 -1      1345 7.77509E-01
 -1      1346 9.02920E-01
 -1      1347 6.88022E-01
 -1      1348 5.98535E-01
 -1      1349 6.88022E-01
 -1      1350 5.35254E-01
 -1      1351 4.65775E-01
 -1      1352 5.35254E-01
 -1      1353 4.16420E-01
 -1      1354 3.63189E-01
 -1      1355 4.22617E-01
 -1      1356 3.24377E-01
 -1      1357 2.85888E-01
 -1      1358 3.34450E-01
 -1      1359 2.58255E-01
 -1      1360 2.27758E-01
 -1      1361 2.68005E-01
 -1      1362 2.04541E-01
 -1      1363 1.81043E-01
 -1      1364 2.17156E-01
 -1      1365 1.62136E-01
 -1      1366 1.44680E-01
 -1      1367 1.75032E-01
 -1      1368 1.29722E-01
 -1      1369 1.17426E-01
 -1      1370 1.41167E-01
 -1      1371 1.05916E-01
 -1      1372 9.79794E-02
 -1      1373 1.14699E-01
 -1      1374 9.00636E-02
 -1      1375 8.94147E-02
 -1      1376 9.52730E-02
 -1      1377 9.14723E-02
 -1      1378 9.63903E-02
 -1      1379 8.94147E-02
 -1      1380 1.03122E-01
 -1      1381 1.14598E-01
 -1      1382 9.82038E-02
 -1      1383 1.28590E-01
 -1      1384 1.47323E-01
 -1      1385 1.18928E-01
 -1      1386 1.66108E-01
 -1      1387 1.91246E-01
 -1      1388 1.51704E-01
 -1      1389 2.15250E-01
 -1      1390 2.47379E-01
 -1      1391 1.94492E-01
 -1      1392 2.76730E-01
 -1      1393 3.16007E-01
 -1      1394 2.47847E-01
 -1      1395 3.58130E-01
 -1      1396 4.03825E-01
 -1      1397 3.19321E-01
 -1      1398 4.67187E-01
 -1      1399 5.16994E-01
 -1      1400 4.24805E-01
 -1      1401 5.91606E-01
 -1      1402 6.41063E-01
 -1      1403 5.62778E-01
 -1      1404 7.22975E-01
 -1      1405 8.23422E-01
 -1      1406 7.19301E-01
 -1      1407 9.03769E-01
 -1      1408 1.01141E+00
 -1      1409 8.81560E-01
 -1      1410 1.08663E+00
 -1      1411 1.22288E+00
 -1      1412 1.03713E+00
 -1      1413 1.33341E+00
 -1      1414 1.45443E+00
 -1      1415 1.22288E+00
 -1      1416 1.57545E+00
 -1      1417 1.62363E+00
 -1      1418 1.45443E+00
 -1      1419 1.67181E+00
 -1      1420 1.67181E+00
 -1      1421 1.62363E+00
 -1      1422 1.66779E+00
 -1      1423 1.66376E+00
 -1      1424 1.66779E+00
 -1      1425 1.65260E+00
 -1      1426 1.78009E+00
 -1      1427 1.65260E+00
 -1      1428 1.91874E+00
 -1      1429 2.36475E+00
 -1      1430 1.78009E+00
 -1      1431 2.81452E+00
 -1      1432 3.66024E+00
 -1      1433 2.36851E+00
 -1      1434 4.50219E+00
 -1      1435 4.68376E+00
 -1      1436 3.66024E+00
 -1      1437 4.86533E+00
 -1      1438 4.86533E+00
 -1      1439 4.68376E+00
 -1      1440 4.84035E+00
 -1      1441 4.81538E+00
 -1      1442 4.84035E+00
 -1      1443 4.23576E+00
 -1      1444 3.65615E+00
 -1      1445 4.23576E+00
 -1      1446 2.92738E+00
 -1      1447 2.10577E+00
 -1      1448 2.92738E+00
 -1      1449 1.68677E+00
 -1      1450 1.41284E+00
 -1      1451 1.77961E+00
 -1      1452 1.46506E+00
 -1      1453 1.50434E+00
 -1      1454 1.41284E+00
 -1      1455 1.54362E+00
 -1      1456 1.54362E+00
 -1      1457 1.50434E+00
 -1      1458 1.50499E+00
 -1      1459 1.46635E+00
 -1      1460 1.50499E+00
 -1      1461 1.28905E+00
 -1      1462 1.11176E+00
 -1      1463 1.28905E+00
 -1      1464 1.10759E+00
 -1      1465 1.10343E+00
 -1      1466 1.10759E+00
 -1      1467 1.03818E+00
 -1      1468 9.72943E-01
 -1      1469 1.03818E+00
 -1      1470 8.69918E-01
 -1      1471 7.66893E-01
 -1      1472 8.69918E-01
 -1      1473 6.06827E-01
 -1      1474 6.06827E-01
 -1      1475 3.39553E+00
 -1      1476 8.71813E+00
 -1      1477 8.71813E+00
 -1      1478 2.41430E+00
 -1      1479 2.90492E+00
 -1      1480 2.90492E+00
 -1      1481 1.66735E+00
 -1      1482 2.04083E+00
 -1      1483 2.04083E+00
 -1      1484 1.14655E+00
 -1      1485 1.40695E+00
 -1      1486 1.40695E+00
 -1      1487 9.06736E-01
 -1      1488 1.02664E+00
 -1      1489 1.02664E+00
 -1      1490 7.32562E-01
 -1      1491 8.19649E-01
 -1      1492 8.19649E-01
 -1      1493 5.89907E-01
 -1      1494 6.61235E-01
 -1      1495 6.61235E-01
 -1      1496 4.71549E-01
 -1      1497 5.30728E-01
 -1      1498 5.30728E-01
 -1      1499 3.73766E-01
 -1      1500 4.22658E-01
 -1      1501 4.22658E-01
 -1      1502 3.00665E-01
 -1      1503 3.37216E-01
 -1      1504 3.37216E-01
 -1      1505 2.41465E-01
 -1      1506 2.71065E-01
 -1      1507 2.71065E-01
 -1      1508 1.94479E-01
 -1      1509 2.18263E-01
 -1      1510 2.18263E-01
 -1      1511 1.58380E-01
 -1      1512 1.76653E-01
 -1      1513 1.77237E-01
 -1      1514 1.31680E-01
 -1      1515 1.44838E-01
 -1      1516 1.45869E-01
 -1      1517 1.14112E-01
 -1      1518 1.22573E-01
 -1      1519 1.23219E-01
 -1      1520 1.11268E-01
 -1      1521 1.11282E-01
 -1      1522 1.11282E-01
 -1      1523 1.20848E-01
 -1      1524 1.14084E-01
 -1      1525 1.11268E-01
 -1      1526 1.37812E-01
 -1      1527 1.27612E-01
 -1      1528 1.20848E-01
 -1      1529 1.60921E-01
 -1      1530 1.48011E-01
 -1      1531 1.37812E-01
 -1      1532 1.91709E-01
 -1      1533 1.77200E-01
 -1      1534 1.64290E-01
 -1      1535 2.40233E-01
 -1      1536 2.14374E-01
 -1      1537 2.03234E-01
 -1      1538 2.97433E-01
 -1      1539 2.65967E-01
 -1      1540 2.51634E-01
 -1      1541 3.58355E-01
 -1      1542 3.24542E-01
 -1      1543 3.04476E-01
 -1      1544 4.17762E-01
 -1      1545 3.85125E-01
 -1      1546 3.58355E-01
 -1      1547 4.76095E-01
 -1      1548 4.50399E-01
 -1      1549 4.17762E-01
 -1      1550 5.12013E-01
 -1      1551 5.01790E-01
 -1      1552 4.76095E-01
 -1      1553 5.61016E-01
 -1      1554 5.24463E-01
 -1      1555 5.14240E-01
 -1      1556 7.05838E-01
 -1      1557 6.19731E-01
 -1      1558 5.85404E-01
 -1      1559 8.36347E-01
 -1      1560 7.67557E-01
 -1      1561 7.05838E-01
 -1      1562 9.55675E-01
 -1      1563 9.05136E-01
 -1      1564 8.36347E-01
 -1      1565 1.14155E+00
 -1      1566 1.00621E+00
 -1      1567 9.55675E-01
 -1      1568 1.29973E+00
 -1      1569 1.27689E+00
 -1      1570 1.14155E+00
 -1      1571 1.44902E+00
 -1      1572 1.32257E+00
 -1      1573 1.29973E+00
 -1      1574 1.68474E+00
 -1      1575 1.57546E+00
 -1      1576 1.44902E+00
 -1      1577 2.28953E+00
 -1      1578 1.85315E+00
 -1      1579 1.74388E+00
 -1      1580 2.85686E+00
 -1      1581 2.66677E+00
 -1      1582 2.28953E+00
 -1      1583 3.21429E+00
 -1      1584 3.04695E+00
 -1      1585 2.85686E+00
 -1      1586 3.38163E+00
 -1      1587 3.38163E+00
 -1      1588 3.21429E+00
 -1      1589 3.05651E+00
 -1      1590 3.21907E+00
 -1      1591 3.21907E+00
 -1      1592 2.04812E+00
 -1      1593 2.55232E+00
 -1      1594 2.55232E+00
 -1      1595 1.17571E+00
 -1      1596 1.61191E+00
 -1      1597 1.61191E+00
 -1      1598 6.99614E-01
 -1      1599 9.18982E-01
 -1      1600 9.18982E-01
 -1      1601 8.56125E-01
 -1      1602 7.36971E-01
 -1      1603 6.99614E-01
 -1      1604 9.75278E-01
 -1      1605 9.75278E-01
 -1      1606 8.56125E-01
 -1      1607 9.24804E-01
 -1      1608 9.50041E-01
 -1      1609 9.50041E-01
 -1      1610 7.35192E-01
 -1      1611 8.29998E-01
 -1      1612 8.29998E-01
 -1      1613 6.67820E-01
 -1      1614 7.01506E-01
 -1      1615 7.01506E-01
 -1      1616 4.03344E-01
 -1      1617 5.42826E-01
 -1      1618 5.42826E-01
 -1      1619 2.98732E-01
 -1      1620 2.40622E-01
 -1      1621 2.40622E-01
 -1      1622 2.46887E-01
 -1      1623 2.57712E-01
 -1      1624 2.89726E-01
 -1      1625 2.24241E-01
 -1      1626 2.46887E-01
 -1      1627 3.06816E-01
 -1      1628 1.60569E-01
 -1      1629 1.91114E-01
 -1      1630 2.73689E-01
 -1      1631 1.53025E-01
 -1      1632 1.33722E-01
 -1      1633 2.13716E-01
 -1      1634 2.90327E-01
 -1      1635 2.41963E-01
 -1      1636 2.75807E-01
 -1      1637 3.90019E-01
 -1      1638 3.60161E-01
 -1      1639 4.34579E-01
 -1      1640 4.06856E-01
 -1      1641 4.05656E-01
 -1      1642 5.20050E-01
 -1      1643 4.06856E-01
 -1      1644 4.06856E-01
 -1      1645 5.35687E-01
 -1      1646 3.63735E-01
 -1      1647 3.93305E-01
 -1      1648 5.22136E-01
 -1      1649 2.46857E-01
 -1      1650 2.95834E-01
 -1      1651 4.40684E-01
 -1      1652 1.54973E-01
 -1      1653 1.53592E-01
 -1      1654 2.79517E-01
 -1      1655 2.81246E-01
 -1      1656 2.33331E-01
 -1      1657 2.64610E-01
 -1      1658 3.62454E-01
 -1      1659 2.81246E-01
 -1      1660 3.42968E-01
 -1      1661 4.46761E-01
 -1      1662 4.14351E-01
 -1      1663 3.94865E-01
 -1      1664 6.06827E-01
 -1      1665 2.76526E+01
 -1      1666 2.77649E+01
 -1      1667 3.82996E+01
 -1      1668 2.67068E+01
 -1      1669 4.73028E+01
 -1      1670 4.73028E+01
 -1      1671 2.15766E+01
 -1      1672 3.47136E+01
 -1      1673 1.20476E+01
 -1      1674 1.62174E+01
 -1      1675 1.26893E+01
 -1      1676 1.26893E+01
 -1      1677 1.22215E+01
 -1      1678 1.24199E+01
 -1      1679 1.22924E+01
 -1      1680 1.22924E+01
 -1      1681 1.21114E+01
 -1      1682 1.22019E+01
 -1      1683 1.26520E+01
 -1      1684 1.17912E+01
 -1      1685 2.28135E+01
 -1      1686 1.38330E+01
 -1      1687 3.17940E+01
 -1      1688 3.17940E+01
 -1      1689 2.93896E+01
 -1      1690 3.15295E+01
 -1      1691 2.48508E+01
 -1      1692 2.64980E+01
 -1      1693 2.54844E+01
 -1      1694 2.55035E+01
 -1      1695 2.64708E+01
 -1      1696 2.54844E+01
 -1      1697 3.44794E+01
 -1      1698 2.96737E+01
 -1      1699 3.57661E+01
 -1      1700 3.57661E+01
 -1      1701 1.44761E+01
 -1      1702 2.51211E+01
 -1      1703 1.18198E+01
 -1      1704 1.29900E+01
 -1      1705 1.22203E+01
 -1      1706 1.21357E+01
 -1      1707 1.25682E+01
 -1      1708 1.23049E+01
 -1      1709 1.28316E+01
 -1      1710 1.28316E+01
 -1      1711 1.25101E+01
 -1      1712 1.26708E+01
 -1      1713 1.45836E+01
 -1      1714 1.16159E+01
 -1      1715 3.31856E+01
 -1      1716 1.90683E+01
 -1      1717 4.66802E+01
 -1      1718 4.66802E+01
 -1      1719 2.65013E+01
 -1      1720 3.74437E+01
 -1      1721 2.77649E+01
 -1      1722 2.79916E+01
 -1      1723 1.67651E+01
 -1      1724 3.47136E+01
 -1      1725 3.13220E-01
 -1      1726 3.45234E-01
 -1      1727 3.02422E+01
 -1      1728 3.82996E+01
 -1      1729 3.11880E+01
 -1      1730 1.20476E+01
 -1      1731 1.24199E+01
 -1      1732 1.22215E+01
 -1      1733 1.22019E+01
 -1      1734 1.17912E+01
 -1      1735 1.26520E+01
 -1      1736 2.28135E+01
 -1      1737 3.15295E+01
 -1      1738 2.83732E+01
 -1      1739 2.61342E+01
 -1      1740 2.67869E+01
 -1      1741 2.99898E+01
 -1      1742 3.44794E+01
 -1      1743 2.51211E+01
 -1      1744 1.29900E+01
 -1      1745 1.18198E+01
 -1      1746 1.22203E+01
 -1      1747 1.25682E+01
 -1      1748 1.26708E+01
 -1      1749 1.16159E+01
 -1      1750 1.52064E+01
 -1      1751 3.31856E+01
 -1      1752 3.74437E+01
 -1      1753 2.96977E+01
 -1      1754 9.61145E+00
 -1      1755 1.27680E+00
 -1      1756 1.67153E+00
 -1      1757 2.38857E+00
 -1      1758 4.27877E+00
 -1      1759 1.76260E+00
 -1      1760 8.81886E-01
 -1      1761 9.74052E-01
 -1      1762 7.78921E-01
 -1      1763 8.33328E-01
 -1      1764 7.42300E-01
 -1      1765 7.14057E-01
 -1      1766 7.47949E-01
 -1      1767 6.62770E-01
 -1      1768 6.71982E-01
 -1      1769 6.92035E-01
 -1      1770 6.09776E-01
 -1      1771 6.95316E-01
 -1      1772 6.73586E-01
 -1      1773 5.89359E-01
 -1      1774 7.50872E-01
 -1      1775 7.17082E-01
 -1      1776 6.12730E-01
 -1      1777 8.40920E-01
 -1      1778 7.84145E-01
 -1      1779 6.67769E-01
 -1      1780 9.84077E-01
 -1      1781 8.88434E-01
 -1      1782 7.48556E-01
 -1      1783 1.22920E+00
 -1      1784 1.05173E+00
 -1      1785 8.63724E-01
 -1      1786 1.70984E+00
 -1      1787 1.34321E+00
 -1      1788 1.04539E+00
 -1      1789 2.62982E+00
 -1      1790 1.79438E+00
 -1      1791 1.24394E+00
 -1      1792 8.12113E+00
 -1      1793 3.06634E+00
 -1      1794 1.76500E+00
 -1      1795 2.79852E+00
 -1      1796 5.19851E+00
 -1      1797 2.16475E+00
 -1      1798 2.65537E+00
 -1      1799 2.05836E+00
 -1      1800 3.39938E+00
 -1      1801 2.53659E+00
 -1      1802 1.92195E+00
 -1      1803 1.69140E+00
 -1      1804 1.35952E+00
 -1      1805 1.50017E+00
 -1      1806 1.17939E+00
 -1      1807 9.68834E-01
 -1      1808 1.08947E+00
 -1      1809 8.43715E-01
 -1      1810 7.18304E-01
 -1      1811 7.84217E-01
 -1      1812 6.59408E-01
 -1      1813 5.69921E-01
 -1      1814 6.00203E-01
 -1      1815 5.21798E-01
 -1      1816 4.58517E-01
 -1      1817 4.93184E-01
 -1      1818 4.16338E-01
 -1      1819 3.66983E-01
 -1      1820 4.02882E-01
 -1      1821 3.34465E-01
 -1      1822 2.95653E-01
 -1      1823 3.28185E-01
 -1      1824 2.68668E-01
 -1      1825 2.41036E-01
 -1      1826 2.68683E-01
 -1      1827 2.18033E-01
 -1      1828 1.94817E-01
 -1      1829 2.18696E-01
 -1      1830 1.76182E-01
 -1      1831 1.57275E-01
 -1      1832 1.77059E-01
 -1      1833 1.42799E-01
 -1      1834 1.27841E-01
 -1      1835 1.43949E-01
 -1      1836 1.15483E-01
 -1      1837 1.03973E-01
 -1      1838 1.17115E-01
 -1      1839 9.45351E-02
 -1      1840 8.66193E-02
 -1      1841 9.53188E-02
 -1      1842 8.29107E-02
 -1      1843 8.49682E-02
 -1      1844 8.21728E-02
 -1      1845 8.84610E-02
 -1      1846 9.51924E-02
 -1      1847 8.19569E-02
 -1      1848 1.04935E-01
 -1      1849 1.18928E-01
 -1      1850 9.51924E-02
 -1      1851 1.32920E-01
 -1      1852 1.51704E-01
 -1      1853 1.18928E-01
 -1      1854 1.73033E-01
 -1      1855 1.97036E-01
 -1      1856 1.54248E-01
 -1      1857 2.33451E-01
 -1      1858 2.62802E-01
 -1      1859 2.11991E-01
 -1      1860 3.08599E-01
 -1      1861 3.50722E-01
 -1      1862 2.94203E-01
 -1      1863 4.06720E-01
 -1      1864 4.70081E-01
 -1      1865 3.95999E-01
 -1      1866 5.35883E-01
 -1      1867 6.10495E-01
 -1      1868 5.17798E-01
 -1      1869 6.83497E-01
 -1      1870 7.65409E-01
 -1      1871 6.56603E-01
 -1      1872 8.39436E-01
 -1      1873 9.19783E-01
 -1      1874 8.03632E-01
 -1      1875 9.83582E-01
 -1      1876 1.05880E+00
 -1      1877 9.41457E-01
 -1      1878 1.11390E+00
 -1      1879 1.22444E+00
 -1      1880 1.06036E+00
 -1      1881 1.28958E+00
 -1      1882 1.41060E+00
 -1      1883 1.18061E+00
 -1      1884 1.42421E+00
 -1      1885 1.47240E+00
 -1      1886 1.25937E+00
 -1      1887 1.41355E+00
 -1      1888 1.40952E+00
 -1      1889 1.21413E+00
 -1      1890 1.40264E+00
 -1      1891 1.39148E+00
 -1      1892 1.14841E+00
 -1      1893 1.42303E+00
 -1      1894 1.56168E+00
 -1      1895 1.17307E+00
 -1      1896 1.90431E+00
 -1      1897 2.35408E+00
 -1      1898 1.54725E+00
 -1      1899 2.67294E+00
 -1      1900 3.51489E+00
 -1      1901 2.20874E+00
 -1      1902 3.70600E+00
 -1      1903 3.88757E+00
 -1      1904 2.71871E+00
 -1      1905 3.82354E+00
 -1      1906 3.79857E+00
 -1      1907 2.84578E+00
 -1      1908 3.78515E+00
 -1      1909 3.20553E+00
 -1      1910 2.76833E+00
 -1      1911 2.88701E+00
 -1      1912 2.15824E+00
 -1      1913 2.43640E+00
 -1      1914 1.90101E+00
 -1      1915 1.48201E+00
 -1      1916 1.86065E+00
 -1      1917 1.28394E+00
 -1      1918 1.33616E+00
 -1      1919 1.40534E+00
 -1      1920 1.26428E+00
 -1      1921 1.30356E+00
 -1      1922 1.13538E+00
 -1      1923 1.26601E+00
 -1      1924 1.22737E+00
 -1      1925 1.02594E+00
 -1      1926 1.20144E+00
 -1      1927 1.02415E+00
 -1      1928 9.62467E-01
 -1      1929 9.43929E-01
 -1      1930 9.39765E-01
 -1      1931 8.56319E-01
 -1      1932 9.47777E-01
 -1      1933 8.82535E-01
 -1      1934 7.84115E-01
 -1      1935 8.19429E-01
 -1      1936 7.16404E-01
 -1      1937 5.56338E-01
 -1      1938 7.29021E-01
 -1      1939 1.39947E+00
 -1      1940 1.77295E+00
 -1      1941 1.52340E+00
 -1      1942 1.01990E+00
 -1      1943 1.28030E+00
 -1      1944 1.01242E+00
 -1      1945 8.06444E-01
 -1      1946 9.26351E-01
 -1      1947 7.99699E-01
 -1      1948 6.40214E-01
 -1      1949 7.27301E-01
 -1      1950 6.27009E-01
 -1      1951 5.15252E-01
 -1      1952 5.86579E-01
 -1      1953 4.94231E-01
 -1      1954 4.23240E-01
 -1      1955 4.82420E-01
 -1      1956 4.07764E-01
 -1      1957 3.42990E-01
 -1      1958 3.91881E-01
 -1      1959 3.43573E-01
 -1      1960 2.78843E-01
 -1      1961 3.15394E-01
 -1      1962 2.84618E-01
 -1      1963 2.27067E-01
 -1      1964 2.56668E-01
 -1      1965 2.34846E-01
 -1      1966 1.84513E-01
 -1      1967 2.07714E-01
 -1      1968 1.93317E-01
 -1      1969 1.51718E-01
 -1      1970 1.69544E-01
 -1      1971 1.58995E-01
 -1      1972 1.26584E-01
 -1      1973 1.40127E-01
 -1      1974 1.32434E-01
 -1      1975 1.09008E-01
 -1      1976 1.18115E-01
 -1      1977 1.12373E-01
 -1      1978 1.01363E-01
 -1      1979 1.04193E-01
 -1      1980 9.90893E-02
 -1      1981 1.04197E-01
 -1      1982 1.01381E-01
 -1      1983 9.42928E-02
 -1      1984 1.13782E-01
 -1      1985 1.07018E-01
 -1      1986 9.71310E-02
 -1      1987 1.34633E-01
 -1      1988 1.24433E-01
 -1      1989 1.10603E-01
 -1      1990 1.65805E-01
 -1      1991 1.49526E-01
 -1      1992 1.36148E-01
 -1      1993 2.14183E-01
 -1      1994 1.91518E-01
 -1      1995 1.76754E-01
 -1      1996 2.76417E-01
 -1      1997 2.50683E-01
 -1      1998 2.38966E-01
 -1      1999 3.46474E-01
 -1      2000 3.19366E-01
 -1      2001 3.18415E-01
 -1      2002 4.21028E-01
 -1      2003 3.94258E-01
 -1      2004 4.09147E-01
 -1      2005 5.02577E-01
 -1      2006 4.69940E-01
 -1      2007 5.05843E-01
 -1      2008 5.71716E-01
 -1      2009 5.46021E-01
 -1      2010 5.98199E-01
 -1      2011 6.23399E-01
 -1      2012 6.10950E-01
 -1      2013 6.80876E-01
 -1      2014 7.05195E-01
 -1      2015 6.46480E-01
 -1      2016 7.43190E-01
 -1      2017 7.66914E-01
 -1      2018 7.05195E-01
 -1      2019 7.66271E-01
 -1      2020 8.18229E-01
 -1      2021 7.49439E-01
 -1      2022 7.48796E-01
 -1      2023 7.88434E-01
 -1      2024 7.37895E-01
 -1      2025 6.50987E-01
 -1      2026 9.40614E-01
 -1      2027 8.05278E-01
 -1      2028 5.87498E-01
 -1      2029 1.11432E+00
 -1      2030 1.09147E+00
 -1      2031 7.55202E-01
 -1      2032 1.53856E+00
 -1      2033 1.41211E+00
 -1      2034 1.20385E+00
 -1      2035 1.87731E+00
 -1      2036 1.70889E+00
 -1      2037 1.67199E+00
 -1      2038 2.25455E+00
 -1      2039 1.87731E+00
 -1      2040 1.84233E+00
 -1      2041 2.42365E+00
 -1      2042 2.23356E+00
 -1      2043 1.82134E+00
 -1      2044 2.65088E+00
 -1      2045 2.48354E+00
 -1      2046 1.86024E+00
 -1      2047 2.50618E+00
 -1      2048 2.66875E+00
 -1      2049 1.93799E+00
 -1      2050 1.77815E+00
 -1      2051 2.28234E+00
 -1      2052 1.73201E+00
 -1      2053 1.07898E+00
 -1      2054 1.51519E+00
 -1      2055 1.24521E+00
 -1      2056 6.31633E-01
 -1      2057 8.88358E-01
 -1      2058 7.91630E-01
 -1      2059 6.28893E-01
 -1      2060 5.91536E-01
 -1      2061 5.60913E-01
 -1      2062 7.73623E-01
 -1      2063 6.54469E-01
 -1      2064 5.46392E-01
 -1      2065 7.74267E-01
 -1      2066 7.99504E-01
 -1      2067 5.97849E-01
 -1      2068 6.46599E-01
 -1      2069 7.41405E-01
 -1      2070 5.90868E-01
 -1      2071 6.11294E-01
 -1      2072 6.44980E-01
 -1      2073 5.56386E-01
 -1      2074 4.17832E-01
 -1      2075 5.42826E-01
 -1      2076 4.86300E-01
 -1      2077 3.45234E-01
 -1      2078 3.10776E-01
 -1      2079 3.43902E-01
 -1      2080 3.73639E-01
 -1      2081 3.73639E-01
 -1      2082 4.10725E-01
 -1      2083 3.73639E-01
 -1      2084 3.56549E-01
 -1      2085 4.29147E-01
 -1      2086 4.40462E-01
 -1      2087 2.55364E-01
 -1      2088 2.82211E-01
 -1      2089 3.52424E-01
 -1      2090 4.05935E-01
 -1      2091 3.16997E-01
 -1      2092 3.85492E-01
 -1      2093 5.93451E-01
 -1      2094 5.23618E-01
 -1      2095 5.64807E-01
 -1      2096 6.65060E-01
 -1      2097 6.49423E-01
 -1      2098 7.38461E-01
 -1      2099 6.66242E-01
 -1      2100 6.66242E-01
 -1      2101 7.95615E-01
 -1      2102 6.52691E-01
 -1      2103 6.66242E-01
 -1      2104 7.96796E-01
 -1      2105 5.39356E-01
 -1      2106 6.07257E-01
 -1      2107 7.51363E-01
 -1      2108 3.26944E-01
 -1      2109 4.20210E-01
 -1      2110 5.86783E-01
 -1      2111 3.70447E-01
 -1      2112 2.92088E-01
 -1      2113 4.32781E-01
 -1      2114 4.50338E-01
 -1      2115 4.50338E-01
 -1      2116 4.77817E-01
 -1      2117 3.82996E+01
 -1      2118 2.92964E+01
 -1      2119 3.11880E+01
 -1      2120 3.11880E+01
 -1      2121 2.85119E+01
 -1      2122 2.94577E+01
 -1      2123 2.85119E+01
 -1      2124 1.92751E+01
 -1      2125 3.18643E+01
 -1      2126 1.05600E+01
 -1      2127 1.59192E+01
 -1      2128 1.03838E+00
 -1      2129 1.21377E+00
 -1      2130 9.82539E-01
 -1      2131 8.55184E-01
 -1      2132 1.10718E+01
 -1      2133 1.13412E+01
 -1      2134 1.15129E+01
 -1      2135 1.14420E+01
 -1      2136 1.03632E+01
 -1      2137 1.12464E+01
 -1      2138 1.13369E+01
 -1      2139 1.03615E+01
 -1      2140 1.06817E+01
 -1      2141 1.07493E+01
 -1      2142 9.56836E+00
 -1      2143 2.21543E+01
 -1      2144 1.31738E+01
 -1      2145 2.68609E+01
 -1      2146 2.71254E+01
 -1      2147 1.74857E+01
 -1      2148 2.48153E+01
 -1      2149 2.77070E+01
 -1      2150 3.24875E+01
 -1      2151 3.18349E+01
 -1      2152 3.24875E+01
 -1      2153 3.24875E+01
 -1      2154 3.01922E+01
 -1      2155 2.69893E+01
 -1      2156 2.88326E+01
 -1      2157 2.75460E+01
 -1      2158 1.37782E+01
 -1      2159 2.44232E+01
 -1      2160 9.37405E+00
 -1      2161 1.08601E+01
 -1      2162 1.03474E+01
 -1      2163 1.00315E+01
 -1      2164 1.10994E+01
 -1      2165 1.10149E+01
 -1      2166 1.19016E+01
 -1      2167 1.16383E+01
 -1      2168 1.14134E+01
 -1      2169 1.15742E+01
 -1      2170 9.41482E+00
 -1      2171 1.03090E+01
 -1      2172 1.42532E+01
 -1      2173 9.76858E+00
 -1      2174 3.14486E+01
 -1      2175 1.79540E+01
 -1      2176 2.82073E+01
 -1      2177 3.74437E+01
 -1      2178 2.22121E+01
 -1      2179 2.92127E+01
 -1      2180 2.77224E+01
 -1      2181 9.72695E+00
 -1      2182 9.08524E+00
 -1      2183 8.23934E+00
 -1      2184 2.91105E+00
 -1      2185 8.42080E+00
 -1      2186 9.76893E+00
 -1      2187 6.80656E+00
 -1      2188 2.10518E+00
 -1      2189 2.94577E+01
 -1      2190 2.28611E+01
 -1      2191 5.02235E-01
 -1      2192 2.92127E+01
 -1      2193 1.30700E+01
 -1      2194 2.61194E+01
 -1      2195 2.61194E+01
 -1      2196 2.56345E+01
 -1      2197 1.25162E+01
 -1      2198 8.46167E+00
 -1      2199 9.21235E+00
 -1      2200 1.06442E+01
 -1      2201 1.04328E+01
 -1      2202 9.22653E+00
 -1      2203 7.90164E+00
 -1      2204 1.01623E+01
 -1      2205 1.74898E+01
 -1      2206 2.45455E+01
 -1      2207 3.26899E+01
 -1      2208 3.81881E+01
 -1      2209 2.33030E+01
 -1      2210 1.00902E+01
 -1      2211 8.45883E+00
 -1      2212 1.05574E+01
 -1      2213 9.81667E+00
 -1      2214 3.11686E+01
 -1      2215 1.09052E+00
 -1      2216 1.48232E+00
 -1      2217 5.59119E-01
 -1      2218 5.90091E-01
 -1      2219 6.01410E-01
 -1      2220 6.49968E-01
 -1      2221 4.97759E-01
 -1      2222 5.11368E-01
 -1      2223 5.09764E-01
 -1      2224 5.46015E-01
 -1      2225 5.24249E-01
 -1      2226 4.44653E-01
 -1      2227 5.93998E-01
 -1      2228 5.60725E-01
 -1      2229 4.72244E-01
 -1      2230 6.53467E-01
 -1      2231 6.05953E-01
 -1      2232 4.98909E-01
 -1      2233 7.21120E-01
 -1      2234 6.53467E-01
 -1      2235 5.10863E-01
 -1      2236 8.83565E-01
 -1      2237 7.69554E-01
 -1      2238 5.59297E-01
 -1      2239 2.77274E+01
 -1      2240 2.94577E+01
 -1      2241 8.93246E-01
 -1      2242 1.01242E+00
 -1      2243 9.71341E-01
 -1      2244 1.26724E+00
 -1      2245 1.03668E+00
 -1      2246 9.88199E-01
 -1      2247 8.08062E-01
 -1      2248 7.55268E-01
 -1      2249 7.50272E-01
 -1      2250 6.25154E-01
 -1      2251 6.48999E-01
 -1      2252 5.69253E-01
 -1      2253 5.10357E-01
 -1      2254 5.35308E-01
 -1      2255 4.61208E-01
 -1      2256 4.13085E-01
 -1      2257 4.30258E-01
 -1      2258 3.85937E-01
 -1      2259 3.43757E-01
 -1      2260 3.53960E-01
 -1      2261 3.19223E-01
 -1      2262 2.86706E-01
 -1      2263 3.02278E-01
 -1      2264 2.63603E-01
 -1      2265 2.36618E-01
 -1      2266 2.54641E-01
 -1      2267 2.16827E-01
 -1      2268 1.93825E-01
 -1      2269 2.11747E-01
 -1      2270 1.77173E-01
 -1      2271 1.58539E-01
 -1      2272 1.75304E-01
 -1      2273 1.43949E-01
 -1      2274 1.29473E-01
 -1      2275 1.44063E-01
 -1      2276 1.17115E-01
 -1      2277 1.04756E-01
 -1      2278 1.17115E-01
 -1      2279 9.45680E-02
 -1      2280 8.51305E-02
 -1      2281 9.45680E-02
 -1      2282 7.75885E-02
 -1      2283 7.38799E-02
 -1      2284 7.68377E-02
 -1      2285 7.21475E-02
 -1      2286 7.56402E-02
 -1      2287 6.75632E-02
 -1      2288 8.19972E-02
 -1      2289 9.17400E-02
 -1      2290 7.21878E-02
 -1      2291 1.03499E-01
 -1      2292 1.17492E-01
 -1      2293 9.03041E-02
 -1      2294 1.42591E-01
 -1      2295 1.63920E-01
 -1      2296 1.27163E-01
 -1      2297 1.95492E-01
 -1      2298 2.31906E-01
 -1      2299 1.83835E-01
 -1      2300 2.71316E-01
 -1      2301 3.17113E-01
 -1      2302 2.54816E-01
 -1      2303 3.65524E-01
 -1      2304 4.21521E-01
 -1      2305 3.42636E-01
 -1      2306 4.79577E-01
 -1      2307 5.45380E-01
 -1      2308 4.49102E-01
 -1      2309 6.12688E-01
 -1      2310 6.85690E-01
 -1      2311 5.74467E-01
 -1      2312 7.60037E-01
 -1      2313 8.34064E-01
 -1      2314 7.16122E-01
 -1      2315 9.10362E-01
 -1      2316 9.74161E-01
 -1      2317 8.66768E-01
 -1      2318 1.04326E+00
 -1      2319 1.09836E+00
 -1      2320 1.01216E+00
 -1      2321 1.15347E+00
 -1      2322 1.21862E+00
 -1      2323 1.13637E+00
 -1      2324 1.32158E+00
 -1      2325 1.33519E+00
 -1      2326 1.29444E+00
 -1      2327 1.43547E+00
 -1      2328 1.37663E+00
 -1      2329 1.49768E+00
 -1      2330 1.43091E+00
 -1      2331 1.42403E+00
 -1      2332 1.65225E+00
 -1      2333 1.57610E+00
 -1      2334 1.60764E+00
 -1      2335 1.85860E+00
 -1      2336 1.82839E+00
 -1      2337 2.17102E+00
 -1      2338 2.23142E+00
 -1      2339 2.07872E+00
 -1      2340 2.39758E+00
 -1      2341 2.35986E+00
 -1      2342 2.86259E+00
 -1      2343 3.05370E+00
 -1      2344 2.73257E+00
 -1      2345 3.37973E+00
 -1      2346 3.31570E+00
 -1      2347 3.52361E+00
 -1      2348 3.09435E+00
 -1      2349 3.08093E+00
 -1      2350 3.62829E+00
 -1      2351 2.62765E+00
 -1      2352 2.30913E+00
 -1      2353 2.95366E+00
 -1      2354 2.06147E+00
 -1      2355 1.80423E+00
 -1      2356 2.25272E+00
 -1      2357 1.83805E+00
 -1      2358 1.63997E+00
 -1      2359 2.03887E+00
 -1      2360 1.46000E+00
 -1      2361 1.38811E+00
 -1      2362 1.89271E+00
 -1      2363 1.13441E+00
 -1      2364 1.09686E+00
 -1      2365 1.45903E+00
 -1      2366 1.00257E+00
 -1      2367 9.76642E-01
 -1      2368 1.11104E+00
 -1      2369 8.97708E-01
 -1      2370 8.17492E-01
 -1      2371 9.37815E-01
 -1      2372 7.50672E-01
 -1      2373 7.58684E-01
 -1      2374 7.92061E-01
 -1      2375 2.35358E+01
 -1      2376 2.27513E+01
 -1      2377 2.27513E+01
 -1      2378 5.47866E-01
 -1      2379 6.27009E-01
 -1      2380 4.40596E-01
 -1      2381 4.94231E-01
 -1      2382 4.94231E-01
 -1      2383 3.74932E-01
 -1      2384 4.07764E-01
 -1      2385 4.07764E-01
 -1      2386 3.12214E-01
 -1      2387 3.43573E-01
 -1      2388 3.43573E-01
 -1      2389 2.57021E-01
 -1      2390 2.84618E-01
 -1      2391 2.84618E-01
 -1      2392 2.12730E-01
 -1      2393 2.34906E-01
 -1      2394 2.34906E-01
 -1      2395 1.74188E-01
 -1      2396 1.93542E-01
 -1      2397 1.93602E-01
 -1      2398 1.42812E-01
 -1      2399 1.57781E-01
 -1      2400 1.58006E-01
 -1      2401 1.17576E-01
 -1      2402 1.29167E-01
 -1      2403 1.27954E-01
 -1      2404 9.81122E-02
 -1      2405 1.06581E-01
 -1      2406 1.03315E-01
 -1      2407 8.53633E-02
 -1      2408 9.01779E-02
 -1      2409 8.43862E-02
 -1      2410 8.13802E-02
 -1      2411 8.13622E-02
 -1      2412 7.24508E-02
 -1      2413 9.01233E-02
 -1      2414 8.73031E-02
 -1      2415 7.43725E-02
 -1      2416 1.09496E-01
 -1      2417 9.88441E-02
 -1      2418 8.90162E-02
 -1      2419 1.41142E-01
 -1      2420 1.26248E-01
 -1      2421 1.14489E-01
 -1      2422 1.93887E-01
 -1      2423 1.68174E-01
 -1      2424 1.58275E-01
 -1      2425 2.63089E-01
 -1      2426 2.26589E-01
 -1      2427 2.18009E-01
 -1      2428 3.44479E-01
 -1      2429 3.01530E-01
 -1      2430 2.89152E-01
 -1      2431 4.35567E-01
 -1      2432 3.87783E-01
 -1      2433 3.70898E-01
 -1      2434 5.30295E-01
 -1      2435 4.81383E-01
 -1      2436 4.60019E-01
 -1      2437 6.17612E-01
 -1      2438 5.74168E-01
 -1      2439 5.49708E-01
 -1      2440 6.93457E-01
 -1      2441 6.54224E-01
 -1      2442 6.30194E-01
 -1      2443 7.46646E-01
 -1      2444 7.23565E-01
 -1      2445 6.96913E-01
 -1      2446 7.75243E-01
 -1      2447 7.75243E-01
 -1      2448 7.55618E-01
 -1      2449 7.68697E-01
 -1      2450 7.86172E-01
 -1      2451 7.95144E-01
 -1      2452 6.58931E-01
 -1      2453 7.39264E-01
 -1      2454 7.76640E-01
 -1      2455 7.28954E-01
 -1      2456 7.12110E-01
 -1      2457 8.00387E-01
 -1      2458 8.64468E-01
 -1      2459 7.13608E-01
 -1      2460 8.38220E-01
 -1      2461 1.40361E+00
 -1      2462 1.10582E+00
 -1      2463 1.06422E+00
 -1      2464 1.71425E+00
 -1      2465 1.54391E+00
 -1      2466 1.44587E+00
 -1      2467 1.85639E+00
 -1      2468 1.85639E+00
 -1      2469 1.72831E+00
 -1      2470 1.97321E+00
 -1      2471 1.99420E+00
 -1      2472 2.00827E+00
 -1      2473 2.04624E+00
 -1      2474 1.98635E+00
 -1      2475 2.15921E+00
 -1      2476 1.90982E+00
 -1      2477 1.89195E+00
 -1      2478 2.01807E+00
 -1      2479 1.54605E+00
 -1      2480 1.76989E+00
 -1      2481 1.72385E+00
 -1      2482 1.18149E+00
 -1      2483 1.44446E+00
 -1      2484 1.48234E+00
 -1      2485 8.23575E-01
 -1      2486 1.01420E+00
 -1      2487 1.21344E+00
 -1      2488 6.94089E-01
 -1      2489 7.34186E-01
 -1      2490 9.56752E-01
 -1      2491 6.50092E-01
 -1      2492 6.24516E-01
 -1      2493 7.97790E-01
 -1      2494 6.06106E-01
 -1      2495 5.80225E-01
 -1      2496 6.58349E-01
 -1      2497 5.32750E-01
 -1      2498 5.65613E-01
 -1      2499 5.47989E-01
 -1      2500 5.17903E-01
 -1      2501 5.19522E-01
 -1      2502 4.94267E-01
 -1      2503 4.97615E-01
 -1      2504 5.26497E-01
 -1      2505 4.64864E-01
 -1      2506 7.39895E-01
 -1      2507 6.22213E-01
 -1      2508 7.01585E-01
 -1      2509 3.84655E-01
 -1      2510 4.14392E-01
 -1      2511 4.03264E-01
 -1      2512 4.31829E-01
 -1      2513 4.35495E-01
 -1      2514 5.44269E-01
 -1      2515 9.41206E-01
 -1      2516 8.85234E-01
 -1      2517 9.42640E-01
 -1      2518 9.42388E-01
 -1      2519 9.41206E-01
 -1      2520 1.08798E+00
 -1      2521 9.59086E-01
 -1      2522 9.59086E-01
 -1      2523 1.10468E+00
 -1      2524 9.13652E-01
 -1      2525 9.59086E-01
 -1      2526 1.12138E+00
 -1      2527 6.59183E-01
 -1      2528 7.78330E-01
 -1      2529 9.86053E-01
 -1      2530 5.56174E-01
 -1      2531 5.91030E-01
 -1      2532 7.82576E-01
 -1      2533 6.09367E-01
 -1      2534 5.29476E-01
 -1      2535 6.87724E-01
 -1      2536 6.11812E-01
 -1      2537 2.92127E+01
 -1      2538 2.72374E+01
 -1      2539 7.06153E-01
 -1      2540 7.99699E-01
 -1      2541 6.27009E-01
 -1      2542 1.50878E+01
 -1      2543 2.15231E+01
 -1      2544 1.67714E+00
 -1      2545 1.30268E+00
 -1      2546 8.39191E-01
 -1      2547 9.60101E-01
 -1      2548 1.22761E+01
 -1      2549 8.57528E+00
 -1      2550 9.63035E+00
 -1      2551 7.20593E+00
 -1      2552 5.22631E-01
 -1      2553 5.44653E-01
 -1      2554 4.71974E-01
 -1      2555 4.44640E-01
 -1      2556 7.87414E+00
 -1      2557 8.43886E+00
 -1      2558 8.97909E+00
 -1      2559 8.60892E+00
 -1      2560 3.11686E+01
 -1      2561 2.41491E+01
 -1      2562 9.10500E+00
 -1      2563 9.28100E+00
 -1      2564 6.24208E+00
 -1      2565 7.03518E+00
 -1      2566 5.78228E+00
 -1      2567 1.64528E+01
 -1      2568 1.14816E+01
 -1      2569 1.99589E+01
 -1      2570 1.91127E+01
 -1      2571 1.31086E+01
 -1      2572 3.81881E+01
 -1      2573 3.81881E+01
 -1      2574 3.11686E+01
 -1      2575 2.71917E+01
 -1      2576 3.26899E+01
 -1      2577 3.26899E+01
 -1      2578 1.96607E+01
 -1      2579 2.23069E+01
 -1      2580 1.18759E+01
 -1      2581 1.62853E+01
 -1      2582 6.84752E+00
 -1      2583 9.76557E+00
 -1      2584 8.56111E+00
 -1      2585 6.87275E+00
 -1      2586 6.21532E+00
 -1      2587 8.31551E+00
 -1      2588 7.64805E+00
 -1      2589 9.57793E+00
 -1      2590 9.03912E+00
 -1      2591 8.85720E+00
 -1      2592 9.18461E+00
 -1      2593 6.67774E+00
 -1      2594 7.78218E+00
 -1      2595 6.95230E+00
 -1      2596 6.59854E+00
 -1      2597 2.14294E+01
 -1      2598 1.54342E+01
 -1      2599 8.99779E+00
 -1      2600 1.23537E+01
 -1      2601 6.12273E+00
 -1      2602 7.59749E+00
 -1      2603 1.62196E+00
 -1      2604 1.76512E+00
 -1      2605 1.32860E+00
 -1      2606 1.18907E+00
 -1      2607 7.16247E+00
 -1      2608 6.16932E-01
 -1      2609 7.57822E-01
 -1      2610 8.22148E-01
 -1      2611 2.39751E+01
 -1      2612 2.57054E+01
 -1      2613 2.37302E+01
 -1      2614 1.33220E+01
 -1      2615 2.10953E+01
 -1      2616 1.53347E+01
 -1      2617 1.24406E+00
 -1      2618 7.03666E+00
 -1      2619 1.14933E+01
 -1      2620 6.16471E+00
 -1      2621 2.24707E+01
 -1      2622 2.24707E+01
 -1      2623 2.08677E+01
 -1      2624 9.68222E-01
 -1      2625 4.60751E-01
 -1      2626 8.97073E-01
 -1      2627 4.60751E-01
 -1      2628 6.11812E-01
 -1      2629 5.57708E-01
 -1      2630 6.09367E-01
 -1      2631 6.74918E-01
 -1      2632 6.88119E+00
 -1      2633 1.93415E+01
 -1      2634 7.99699E-01
 -1      2635 1.10156E+01
 -1      2636 6.71215E+00
 -1      2637 8.59740E+00
 -1      2638 5.16837E+00
 -1      2639 6.32259E+00
 -1      2640 7.79093E+00
 -1      2641 7.46064E+00
 -1      2642 5.81863E+00
 -1      2643 1.98127E+01
 -1      2644 1.56225E+01
 -1      2645 1.98127E+01
 -1      2646 7.52670E+00
 -1      2647 4.34680E-01
 -1      2648 5.65738E+00
 -1      2649 2.23069E+01
 -1      2650 1.40467E+01
 -1      2651 5.96173E+00
 -1      2652 6.41475E-01
 -1      2653 4.22790E-01
 -1      2654 4.08079E-01
 -1      2655 4.00336E-01
 -1      2656 3.87456E-01
 -1      2657 3.50882E-01
 -1      2658 4.36335E-01
 -1      2659 4.36335E-01
 -1      2660 4.72697E-01
 -1      2661 4.24264E-01
 -1      2662 3.49735E-01
 -1      2663 6.36065E-01
 -1      2664 6.87724E-01
 -1      2665 7.19832E-01
 -1      2666 7.18808E-01
 -1      2667 7.96904E-01
 -1      2668 8.28583E-01
 -1      2669 5.53487E-01
 -1      2670 4.95697E-01
 -1      2671 4.88995E-01
 -1      2672 4.33095E-01
 -1      2673 3.93483E-01
 -1      2674 4.12563E-01
 -1      2675 3.63414E-01
 -1      2676 3.66250E-01
 -1      2677 3.38687E-01
 -1      2678 3.11538E-01
 -1      2679 3.20992E-01
 -1      2680 2.86773E-01
 -1      2681 2.62239E-01
 -1      2682 2.71500E-01
 -1      2683 2.46367E-01
 -1      2684 2.23264E-01
 -1      2685 2.30862E-01
 -1      2686 2.06855E-01
 -1      2687 1.87063E-01
 -1      2688 1.98580E-01
 -1      2689 1.71517E-01
 -1      2690 1.54866E-01
 -1      2691 1.66625E-01
 -1      2692 1.41703E-01
 -1      2693 1.27113E-01
 -1      2694 1.37916E-01
 -1      2695 1.15398E-01
 -1      2696 1.03040E-01
 -1      2697 1.13039E-01
 -1      2698 9.26526E-02
 -1      2699 8.24644E-02
 -1      2700 9.09365E-02
 -1      2701 7.30532E-02
 -1      2702 6.55111E-02
 -1      2703 7.11378E-02
 -1      2704 5.65388E-02
 -1      2705 5.48064E-02
 -1      2706 5.27543E-02
 -1      2707 5.81242E-02
 -1      2708 6.44812E-02
 -1      2709 4.70997E-02
 -1      2710 7.71488E-02
 -1      2711 8.89081E-02
 -1      2712 6.30852E-02
 -1      2713 1.09679E-01
 -1      2714 1.34779E-01
 -1      2715 9.65239E-02
 -1      2716 1.60475E-01
 -1      2717 1.92047E-01
 -1      2718 1.42991E-01
 -1      2719 2.23963E-01
 -1      2720 2.63372E-01
 -1      2721 2.00603E-01
 -1      2722 3.02904E-01
 -1      2723 3.51314E-01
 -1      2724 2.72051E-01
 -1      2725 3.99936E-01
 -1      2726 4.57992E-01
 -1      2727 3.60204E-01
 -1      2728 5.17217E-01
 -1      2729 5.84526E-01
 -1      2730 4.68051E-01
 -1      2731 6.55837E-01
 -1      2732 7.30184E-01
 -1      2733 5.98587E-01
 -1      2734 8.15710E-01
 -1      2735 8.92008E-01
 -1      2736 7.55424E-01
 -1      2737 9.89549E-01
 -1      2738 1.05864E+00
 -1      2739 9.38490E-01
 -1      2740 1.16887E+00
 -1      2741 1.22398E+00
 -1      2742 1.14626E+00
 -1      2743 1.33824E+00
 -1      2744 1.44120E+00
 -1      2745 1.37074E+00
 -1      2746 1.60253E+00
 -1      2747 1.70281E+00
 -1      2748 1.64633E+00
 -1      2749 1.98386E+00
 -1      2750 2.03814E+00
 -1      2751 2.08871E+00
 -1      2752 2.24926E+00
 -1      2753 2.40133E+00
 -1      2754 2.58088E+00
 -1      2755 2.55542E+00
 -1      2756 2.77617E+00
 -1      2757 2.94608E+00
 -1      2758 2.79668E+00
 -1      2759 2.70437E+00
 -1      2760 3.12068E+00
 -1      2761 3.30623E+00
 -1      2762 3.77124E+00
 -1      2763 3.74304E+00
 -1      2764 5.17655E+00
 -1      2765 4.95520E+00
 -1      2766 3.94202E+00
 -1      2767 3.48875E+00
 -1      2768 2.39113E+00
 -1      2769 2.14347E+00
 -1      2770 3.37949E+00
 -1      2771 2.04505E+00
 -1      2772 2.07887E+00
 -1      2773 2.18347E+00
 -1      2774 2.35186E+00
 -1      2775 2.17189E+00
 -1      2776 2.35805E+00
 -1      2777 1.94208E+00
 -1      2778 1.68837E+00
 -1      2779 2.40124E+00
 -1      2780 1.41839E+00
 -1      2781 1.32411E+00
 -1      2782 1.90144E+00
 -1      2783 1.12069E+00
 -1      2784 1.04175E+00
 -1      2785 1.42804E+00
 -1      2786 9.02428E-01
 -1      2787 8.35608E-01
 -1      2788 8.30199E-01
 -1      2789 1.08530E+00
 -1      2790 5.35690E+00
 -1      2791 6.75720E+00
 -1      2792 3.52823E-01
 -1      2793 3.85655E-01
 -1      2794 4.19794E-01
 -1      2795 4.73429E-01
 -1      2796 3.64853E-01
 -1      2797 2.47522E-01
 -1      2798 2.75118E-01
 -1      2799 2.07194E-01
 -1      2800 2.29309E-01
 -1      2801 2.19810E-01
 -1      2802 1.71144E-01
 -1      2803 1.90333E-01
 -1      2804 1.84736E-01
 -1      2805 1.39814E-01
 -1      2806 1.56221E-01
 -1      2807 1.52952E-01
 -1      2808 1.13323E-01
 -1      2809 1.26968E-01
 -1      2810 1.25183E-01
 -1      2811 9.13987E-02
 -1      2812 1.02393E-01
 -1      2813 1.01407E-01
 -1      2814 7.40838E-02
 -1      2815 8.20181E-02
 -1      2816 8.10962E-02
 -1      2817 6.17314E-02
 -1      2818 6.57325E-02
 -1      2819 6.33644E-02
 -1      2820 6.88088E-02
 -1      2821 6.28860E-02
 -1      2822 5.61677E-02
 -1      2823 8.29957E-02
 -1      2824 7.42749E-02
 -1      2825 6.27883E-02
 -1      2826 1.19115E-01
 -1      2827 1.02363E-01
 -1      2828 8.76211E-02
 -1      2829 1.69699E-01
 -1      2830 1.42666E-01
 -1      2831 1.30539E-01
 -1      2832 2.30900E-01
 -1      2833 1.98198E-01
 -1      2834 1.82590E-01
 -1      2835 3.03363E-01
 -1      2836 2.64922E-01
 -1      2837 2.45111E-01
 -1      2838 3.86350E-01
 -1      2839 3.43045E-01
 -1      2840 3.18815E-01
 -1      2841 4.76904E-01
 -1      2842 4.31088E-01
 -1      2843 4.03236E-01
 -1      2844 5.68807E-01
 -1      2845 5.24933E-01
 -1      2846 4.96003E-01
 -1      2847 6.53272E-01
 -1      2848 6.16660E-01
 -1      2849 5.91885E-01
 -1      2850 7.25249E-01
 -1      2851 6.95141E-01
 -1      2852 6.81607E-01
 -1      2853 8.02548E-01
 -1      2854 7.73950E-01
 -1      2855 7.72178E-01
 -1      2856 8.79991E-01
 -1      2857 8.69063E-01
 -1      2858 8.87395E-01
 -1      2859 9.06036E-01
 -1      2860 9.35469E-01
 -1      2861 1.00939E+00
 -1      2862 9.81355E-01
 -1      2863 9.28176E-01
 -1      2864 1.08700E+00
 -1      2865 1.09653E+00
 -1      2866 1.11188E+00
 -1      2867 1.23967E+00
 -1      2868 1.52627E+00
 -1      2869 1.28492E+00
 -1      2870 1.55858E+00
 -1      2871 2.04384E+00
 -1      2872 1.90355E+00
 -1      2873 2.12424E+00
 -1      2874 2.12816E+00
 -1      2875 1.98601E+00
 -1      2876 2.44368E+00
 -1      2877 2.82713E+00
 -1      2878 2.68933E+00
 -1      2879 2.94702E+00
 -1      2880 3.81893E+00
 -1      2881 3.80578E+00
 -1      2882 4.48685E+00
 -1      2883 3.68622E+00
 -1      2884 3.84051E+00
 -1      2885 5.48708E+00
 -1      2886 1.72385E+00
 -1      2887 1.86378E+00
 -1      2888 3.68622E+00
 -1      2889 1.63890E+00
 -1      2890 1.74049E+00
 -1      2891 1.88041E+00
 -1      2892 1.30544E+00
 -1      2893 1.47274E+00
 -1      2894 1.73090E+00
 -1      2895 1.10966E+00
 -1      2896 1.19905E+00
 -1      2897 1.45835E+00
 -1      2898 8.79953E-01
 -1      2899 9.49526E-01
 -1      2900 1.19182E+00
 -1      2901 6.62926E-01
 -1      2902 7.32793E-01
 -1      2903 8.84529E-01
 -1      2904 5.47989E-01
 -1      2905 5.88483E-01
 -1      2906 6.62926E-01
 -1      2907 4.64129E-01
 -1      2908 4.77357E-01
 -1      2909 5.17851E-01
 -1      2910 4.17770E-01
 -1      2911 7.99711E-01
 -1      2912 1.34255E+00
 -1      2913 1.34255E+00
 -1      2914 4.21125E+00
 -1      2915 5.05020E+00
 -1      2916 8.98080E-01
 -1      2917 8.02364E-01
 -1      2918 1.35925E+00
 -1      2919 1.34255E+00
 -1      2920 1.59712E+00
 -1      2921 1.20898E+00
 -1      2922 1.06364E+00
 -1      2923 1.16442E+00
 -1      2924 1.46355E+00
 -1      2925 1.33449E+00
 -1      2926 1.33449E+00
 -1      2927 1.57237E+00
 -1      2928 1.11751E+00
 -1      2929 1.25283E+00
 -1      2930 1.46595E+00
 -1      2931 9.43233E-01
 -1      2932 1.01139E+00
 -1      2933 1.27817E+00
 -1      2934 7.14422E-01
 -1      2935 5.07088E-01
 -1      2936 5.86232E-01
 -1      2937 4.32651E-01
 -1      2938 6.71289E-01
 -1      2939 6.35846E-01
 -1      2940 5.87366E-01
 -1      2941 5.96365E-01
 -1      2942 6.11653E-01
 -1      2943 7.05199E-01
 -1      2944 5.30762E-01
 -1      2945 4.91732E-01
 -1      2946 3.96219E+00
 -1      2947 4.04139E+00
 -1      2948 5.33993E+00
 -1      2949 4.37607E+00
 -1      2950 3.76889E+00
 -1      2951 2.06000E+01
 -1      2952 2.60983E+01
 -1      2953 2.94025E-01
 -1      2954 3.25384E-01
 -1      2955 3.03275E-01
 -1      2956 2.56929E-01
 -1      2957 7.60637E+00
 -1      2958 1.03405E+01
 -1      2959 4.36335E-01
 -1      2960 4.24380E-01
 -1      2961 3.60216E-01
 -1      2962 3.61806E-01
 -1      2963 8.35014E+00
 -1      2964 6.49887E+00
 -1      2965 4.25789E-01
 -1      2966 4.37108E-01
 -1      2967 1.23111E+01
 -1      2968 9.15295E+00
 -1      2969 6.69587E+00
 -1      2970 6.39396E+00
 -1      2971 1.60324E+01
 -1      2972 2.09172E+01
 -1      2973 2.56599E+01
 -1      2974 1.86403E+01
 -1      2975 1.23156E+01
 -1      2976 9.65561E+00
 -1      2977 1.58415E+01
 -1      2978 2.08176E+01
 -1      2979 6.04271E+00
 -1      2980 6.70885E+00
 -1      2981 1.03291E+01
 -1      2982 1.37045E+01
 -1      2983 5.54096E+00
 -1      2984 4.76567E+00
 -1      2985 6.76514E+00
 -1      2986 8.87541E+00
 -1      2987 4.68084E+00
 -1      2988 5.31304E+00
 -1      2989 5.62734E+00
 -1      2990 4.26007E+00
 -1      2991 6.95053E+00
 -1      2992 7.34386E+00
 -1      2993 4.86233E+00
 -1      2994 5.93736E+00
 -1      2995 4.83290E+00
 -1      2996 4.14907E+00
 -1      2997 6.82040E+00
 -1      2998 5.19741E+00
 -1      2999 1.82958E+01
 -1      3000 1.36058E+01
 -1      3001 6.36672E+00
 -1      3002 6.17860E+00
 -1      3003 4.16296E+00
 -1      3004 4.88511E-01
 -1      3005 5.96365E-01
 -1      3006 4.16541E-01
 -1      3007 1.70653E+01
 -1      3008 3.42757E-01
 -1      3009 3.87074E-01
 -1      3010 3.99942E-01
 -1      3011 4.31825E+00
 -1      3012 4.19427E+00
 -1      3013 2.98644E+00
 -1      3014 1.06358E+01
 -1      3015 1.02080E+01
 -1      3016 7.22648E+00
 -1      3017 4.07044E+00
 -1      3018 5.76051E-01
 -1      3019 1.61686E+01
 -1      3020 1.96759E+01
 -1      3021 1.49091E+01
 -1      3022 5.09266E+00
 -1      3023 4.34064E-01
 -1      3024 5.29333E+00
 -1      3025 6.62025E+00
 -1      3026 7.46064E+00
 -1      3027 4.96730E+00
 -1      3028 6.08208E+00
 -1      3029 6.73703E+00
 -1      3030 1.35700E+01
 -1      3031 4.59472E-01
 -1      3032 4.88921E-01
 -1      3033 5.06646E-01
 -1      3034 5.53590E+00
 -1      3035 4.59658E+00
 -1      3036 5.57612E+00
 -1      3037 1.51320E+01
 -1      3038 7.55708E+00
 -1      3039 7.82435E-01
 -1      3040 7.82435E-01
 -1      3041 1.01125E+00
 -1      3042 8.98212E-01
 -1      3043 1.12654E+01
 -1      3044 7.63821E+00
 -1      3045 5.49028E+00
 -1      3046 1.34010E+01
 -1      3047 5.54096E+00
 -1      3048 8.53316E+00
 -1      3049 1.28936E+01
 -1      3050 9.44060E+00
 -1      3051 1.27475E+01
 -1      3052 1.23148E+01
 -1      3053 1.71840E+01
 -1      3054 1.28476E+01
 -1      3055 1.16753E+01
 -1      3056 1.43256E+01
 -1      3057 6.53238E-01
 -1      3058 5.91638E-01
 -1      3059 6.15615E-01
 -1      3060 8.49733E-01
 -1      3061 4.07730E-01
 -1      3062 4.22196E-01
 -1      3063 3.61545E-01
 -1      3064 3.50163E-01
 -1      3065 4.41017E-01
 -1      3066 3.65616E+00
 -1      3067 2.89036E-01
 -1      3068 3.01107E-01
 -1      3069 5.10082E+00
 -1      3070 3.94188E+00
 -1      3071 3.22059E-01
 -1      3072 3.01527E-01
 -1      3073 2.98334E-01
 -1      3074 2.73607E-01
 -1      3075 2.54143E-01
 -1      3076 2.62504E-01
 -1      3077 2.37739E-01
 -1      3078 2.39846E-01
 -1      3079 2.23445E-01
 -1      3080 2.07572E-01
 -1      3081 2.14449E-01
 -1      3082 1.94060E-01
 -1      3083 1.77650E-01
 -1      3084 1.86642E-01
 -1      3085 1.66732E-01
 -1      3086 1.51187E-01
 -1      3087 1.62212E-01
 -1      3088 1.39460E-01
 -1      3089 1.26298E-01
 -1      3090 1.39568E-01
 -1      3091 1.14598E-01
 -1      3092 1.02883E-01
 -1      3093 1.16142E-01
 -1      3094 9.15674E-02
 -1      3095 8.11800E-02
 -1      3096 9.31262E-02
 -1      3097 7.02609E-02
 -1      3098 6.08496E-02
 -1      3099 7.08918E-02
 -1      3100 5.00781E-02
 -1      3101 4.11058E-02
 -1      3102 4.92011E-02
 -1      3103 3.93091E-02
 -1      3104 4.26269E-02
 -1      3105 3.66329E-02
 -1      3106 5.13571E-02
 -1      3107 6.40248E-02
 -1      3108 4.35665E-02
 -1      3109 8.14583E-02
 -1      3110 1.02229E-01
 -1      3111 6.97303E-02
 -1      3112 1.24721E-01
 -1      3113 1.50418E-01
 -1      3114 1.09656E-01
 -1      3115 1.79504E-01
 -1      3116 2.11420E-01
 -1      3117 1.61235E-01
 -1      3118 2.47982E-01
 -1      3119 2.87513E-01
 -1      3120 2.26883E-01
 -1      3121 3.33034E-01
 -1      3122 3.81656E-01
 -1      3123 3.08965E-01
 -1      3124 4.37461E-01
 -1      3125 4.96686E-01
 -1      3126 4.10291E-01
 -1      3127 5.63570E-01
 -1      3128 6.34881E-01
 -1      3129 5.32980E-01
 -1      3130 7.12373E-01
 -1      3131 7.97898E-01
 -1      3132 6.77355E-01
 -1      3133 8.86727E-01
 -1      3134 9.84268E-01
 -1      3135 8.43676E-01
 -1      3136 1.11170E+00
 -1      3137 1.22193E+00
 -1      3138 1.05993E+00
 -1      3139 1.41182E+00
 -1      3140 1.52607E+00
 -1      3141 1.37726E+00
 -1      3142 1.79091E+00
 -1      3143 1.95224E+00
 -1      3144 1.83198E+00
 -1      3145 2.24829E+00
 -1      3146 2.52934E+00
 -1      3147 2.39286E+00
 -1      3148 3.52217E+00
 -1      3149 3.73328E+00
 -1      3150 3.68174E+00
 -1      3151 5.14276E+00
 -1      3152 5.29685E+00
 -1      3153 6.08405E+00
 -1      3154 3.65822E+00
 -1      3155 4.49837E+00
 -1      3156 5.34754E+00
 -1      3157 1.09818E+01
 -1      3158 9.68720E+00
 -1      3159 4.14608E+00
 -1      3160 4.41907E+00
 -1      3161 3.10545E+00
 -1      3162 2.87563E+00
 -1      3163 4.89347E+00
 -1      3164 2.47034E+00
 -1      3165 2.20036E+00
 -1      3166 3.17455E+00
 -1      3167 1.96088E+00
 -1      3168 1.75746E+00
 -1      3169 2.52977E+00
 -1      3170 7.28649E+00
 -1      3171 8.74021E+00
 -1      3172 1.66068E-01
 -1      3173 1.82929E-01
 -1      3174 1.96048E-01
 -1      3175 2.14260E-01
 -1      3176 1.77380E-01
 -1      3177 1.11924E-01
 -1      3178 1.24770E-01
 -1      3179 8.87860E-02
 -1      3180 9.97162E-02
 -1      3181 9.93028E-02
 -1      3182 6.86290E-02
 -1      3183 7.80096E-02
 -1      3184 7.63187E-02
 -1      3185 5.07232E-02
 -1      3186 5.90744E-02
 -1      3187 5.59878E-02
 -1      3188 4.47910E-02
 -1      3189 4.36365E-02
 -1      3190 3.93465E-02
 -1      3191 5.61013E-02
 -1      3192 5.06353E-02
 -1      3193 3.81041E-02
 -1      3194 9.15464E-02
 -1      3195 7.21796E-02
 -1      3196 6.00266E-02
 -1      3197 1.34408E-01
 -1      3198 1.10856E-01
 -1      3199 9.54149E-02
 -1      3200 1.86357E-01
 -1      3201 1.57857E-01
 -1      3202 1.38175E-01
 -1      3203 2.48926E-01
 -1      3204 2.14904E-01
 -1      3205 1.90171E-01
 -1      3206 3.23228E-01
 -1      3207 2.83545E-01
 -1      3208 2.53338E-01
 -1      3209 4.10527E-01
 -1      3210 3.65789E-01
 -1      3211 3.30519E-01
 -1      3212 5.09479E-01
 -1      3213 4.61450E-01
 -1      3214 4.24004E-01
 -1      3215 6.15420E-01
 -1      3216 5.67567E-01
 -1      3217 5.33015E-01
 -1      3218 7.20108E-01
 -1      3219 6.78238E-01
 -1      3220 6.53921E-01
 -1      3221 8.39229E-01
 -1      3222 7.90527E-01
 -1      3223 7.87159E-01
 -1      3224 9.74224E-01
 -1      3225 9.07709E-01
 -1      3226 9.26058E-01
 -1      3227 1.15577E+00
 -1      3228 1.10029E+00
 -1      3229 1.12061E+00
 -1      3230 1.32148E+00
 -1      3231 1.29934E+00
 -1      3232 1.39025E+00
 -1      3233 1.57524E+00
 -1      3234 1.44471E+00
 -1      3235 1.65705E+00
 -1      3236 2.27882E+00
 -1      3237 2.09044E+00
 -1      3238 2.29548E+00
 -1      3239 3.22578E+00
 -1      3240 2.84851E+00
 -1      3241 3.50819E+00
 -1      3242 2.94702E+00
 -1      3243 5.52730E+00
 -1      3244 4.54864E+00
 -1      3245 5.53590E+00
 -1      3246 5.51432E+00
 -1      3247 1.96105E+00
 -1      3248 1.94441E+00
 -1      3249 1.82712E+00
 -1      3250 1.99327E+00
 -1      3251 2.05727E+00
 -1      3252 1.49656E+00
 -1      3253 1.60296E+00
 -1      3254 1.86533E+00
 -1      3255 1.24879E+00
 -1      3256 1.40892E+00
 -1      3257 1.55353E+00
 -1      3258 9.45745E-01
 -1      3259 1.09291E+00
 -1      3260 1.31000E+00
 -1      3261 7.39887E-01
 -1      3262 8.14330E-01
 -1      3263 1.02271E+00
 -1      3264 5.51524E-01
 -1      3265 6.22157E-01
 -1      3266 7.73561E-01
 -1      3267 5.93227E-01
 -1      3268 1.74689E+00
 -1      3269 1.85301E+00
 -1      3270 1.94726E+00
 -1      3271 1.94726E+00
 -1      3272 6.73836E+00
 -1      3273 5.43290E+00
 -1      3274 3.53355E-01
 -1      3275 3.87014E-01
 -1      3276 4.67944E-01
 -1      3277 3.66247E-01
 -1      3278 3.32367E-01
 -1      3279 3.66247E-01
 -1      3280 3.24897E+00
 -1      3281 3.08414E+00
 -1      3282 1.85301E+00
 -1      3283 1.93467E+00
 -1      3284 2.32173E+00
 -1      3285 9.06228E+00
 -1      3286 1.13902E+01
 -1      3287 1.37725E-01
 -1      3288 1.52647E-01
 -1      3289 1.50841E-01
 -1      3290 1.24465E-01
 -1      3291 1.92250E+00
 -1      3292 1.94726E+00
 -1      3293 2.29739E+00
 -1      3294 2.30956E+00
 -1      3295 3.09707E-01
 -1      3296 3.43846E-01
 -1      3297 2.98209E-01
 -1      3298 1.24516E+01
 -1      3299 1.56092E+01
 -1      3300 1.24454E+01
 -1      3301 1.21283E+01
 -1      3302 9.19291E+00
 -1      3303 4.13429E-01
 -1      3304 3.10076E-01
 -1      3305 2.61447E-01
 -1      3306 3.99820E-01
 -1      3307 1.49091E+01
 -1      3308 1.23372E+01
 -1      3309 3.19448E-01
 -1      3310 3.12747E-01
 -1      3311 2.48024E-01
 -1      3312 2.51631E-01
 -1      3313 5.50866E+00
 -1      3314 3.23738E-01
 -1      3315 3.15994E-01
 -1      3316 1.17402E+01
 -1      3317 1.13018E+01
 -1      3318 1.11554E+01
 -1      3319 1.16622E+01
 -1      3320 8.46918E+00
 -1      3321 8.08893E+00
 -1      3322 5.75638E+00
 -1      3323 4.16296E+00
 -1      3324 2.81726E+00
 -1      3325 3.12651E-01
 -1      3326 3.12270E-01
 -1      3327 2.85507E-01
 -1      3328 2.98644E+00
 -1      3329 1.21143E+01
 -1      3330 3.25713E+00
 -1      3331 5.72092E+00
 -1      3332 6.01616E+00
 -1      3333 4.13721E+00
 -1      3334 1.15549E+01
 -1      3335 1.14179E+01
 -1      3336 9.14976E+00
 -1      3337 9.53782E+00
 -1      3338 4.28211E+00
 -1      3339 5.08980E+00
 -1      3340 1.07590E+01
 -1      3341 5.11031E+00
 -1      3342 4.01871E+00
 -1      3343 3.28416E+00
 -1      3344 2.98006E+00
 -1      3345 7.80537E+00
 -1      3346 7.81561E+00
 -1      3347 2.02898E+00
 -1      3348 1.49615E+00
 -1      3349 1.35683E+00
 -1      3350 4.06851E+00
 -1      3351 2.83329E+00
 -1      3352 2.04965E-01
 -1      3353 2.28727E-01
 -1      3354 2.47633E-01
 -1      3355 2.47504E+00
 -1      3356 2.53287E+00
 -1      3357 4.54864E+00
 -1      3358 4.30169E+00
 -1      3359 4.30169E+00
 -1      3360 2.55989E+00
 -1      3361 2.47925E+00
 -1      3362 1.46986E+00
 -1      3363 2.04471E+00
 -1      3364 2.93482E-01
 -1      3365 2.72475E-01
 -1      3366 2.66043E-01
 -1      3367 2.19640E+00
 -1      3368 1.84627E+00
 -1      3369 1.71269E+00
 -1      3370 1.47677E+00
 -1      3371 1.31121E+00
 -1      3372 1.85949E+00
 -1      3373 3.42720E-01
 -1      3374 3.46314E-01
 -1      3375 1.44482E+00
 -1      3376 1.13246E+00
 -1      3377 9.83338E-01
 -1      3378 3.03621E+00
 -1      3379 3.55613E+00
 -1      3380 7.08120E+00
 -1      3381 4.95702E+00
 -1      3382 7.65925E+00
 -1      3383 2.55855E+00
 -1      3384 1.13018E+01
 -1      3385 9.84548E+00
 -1      3386 9.47201E+00
 -1      3387 3.21032E-01
 -1      3388 3.21032E-01
 -1      3389 2.60332E-01
 -1      3390 3.69044E-01
 -1      3391 3.94465E-01
 -1      3392 2.77133E-01
 -1      3393 2.89748E-01
 -1      3394 3.25328E-01
 -1      3395 3.23738E-01
 -1      3396 2.88850E-01
 -1      3397 2.84553E-01
 -1      3398 9.92753E+00
 -1      3399 8.47140E+00
 -1      3400 7.68196E+00
 -1      3401 1.20178E+01
 -1      3402 9.28896E+00
 -1      3403 9.38910E+00
 -1      3404 2.55662E+00
 -1      3405 3.46314E-01
 -1      3406 3.97717E-01
 -1      3407 2.96020E-01
 -1      3408 3.27490E-01
 -1      3409 2.17379E-01
 -1      3410 2.06276E-01
 -1      3411 2.02578E-01
 -1      3412 1.88285E-01
 -1      3413 1.80111E-01
 -1      3414 1.80227E-01
 -1      3415 1.66715E-01
 -1      3416 1.68357E-01
 -1      3417 1.56486E-01
 -1      3418 1.45568E-01
 -1      3419 1.50070E-01
 -1      3420 1.37266E-01
 -1      3421 1.25539E-01
 -1      3422 1.31539E-01
 -1      3423 1.16698E-01
 -1      3424 1.04998E-01
 -1      3425 1.14396E-01
 -1      3426 9.57027E-02
 -1      3427 8.43875E-02
 -1      3428 9.62592E-02
 -1      3429 7.50380E-02
 -1      3430 6.41188E-02
 -1      3431 7.76145E-02
 -1      3432 5.48139E-02
 -1      3433 4.40424E-02
 -1      3434 5.89601E-02
 -1      3435 4.42949E-02
 -1      3436 4.24981E-02
 -1      3437 4.99077E-02
 -1      3438 4.51345E-02
 -1      3439 5.38648E-02
 -1      3440 5.27965E-02
 -1      3441 6.70244E-02
 -1      3442 8.44579E-02
 -1      3443 6.85924E-02
 -1      3444 1.05274E-01
 -1      3445 1.27766E-01
 -1      3446 1.02568E-01
 -1      3447 1.54012E-01
 -1      3448 1.83098E-01
 -1      3449 1.49630E-01
 -1      3450 2.16237E-01
 -1      3451 2.52799E-01
 -1      3452 2.09014E-01
 -1      3453 2.94568E-01
 -1      3454 3.40089E-01
 -1      3455 2.83923E-01
 -1      3456 3.92582E-01
 -1      3457 4.48387E-01
 -1      3458 3.78186E-01
 -1      3459 5.14185E-01
 -1      3460 5.81069E-01
 -1      3461 4.96477E-01
 -1      3462 6.63398E-01
 -1      3463 7.40889E-01
 -1      3464 6.44603E-01
 -1      3465 8.43676E-01
 -1      3466 9.32504E-01
 -1      3467 8.29718E-01
 -1      3468 1.05993E+00
 -1      3469 1.18736E+00
 -1      3470 1.05993E+00
 -1      3471 1.34130E+00
 -1      3472 1.53119E+00
 -1      3473 1.34130E+00
 -1      3474 1.79775E+00
 -1      3475 2.06259E+00
 -1      3476 1.76179E+00
 -1      3477 2.66867E+00
 -1      3478 2.96472E+00
 -1      3479 2.63444E+00
 -1      3480 3.60867E+00
 -1      3481 4.60150E+00
 -1      3482 3.88447E+00
 -1      3483 6.40613E+00
 -1      3484 2.68341E+00
 -1      3485 2.42210E+00
 -1      3486 2.69913E+00
 -1      3487 2.45821E+00
 -1      3488 3.87165E+00
 -1      3489 3.46635E+00
 -1      3490 3.40478E+00
 -1      3491 3.16530E+00
 -1      3492 3.55842E+00
 -1      3493 4.10188E+00
 -1      3494 1.07074E+01
 -1      3495 9.35202E+00
 -1      3496 6.97422E-02
 -1      3497 8.05185E-02
 -1      3498 9.07595E-02
 -1      3499 1.02967E-01
 -1      3500 8.41829E-02
 -1      3501 3.71117E-02
 -1      3502 4.41984E-02
 -1      3503 4.44143E-02
 -1      3504 3.85700E-02
 -1      3505 4.34219E-02
 -1      3506 7.09839E-02
 -1      3507 5.49056E-02
 -1      3508 5.53715E-02
 -1      3509 1.08510E-01
 -1      3510 8.91997E-02
 -1      3511 8.40787E-02
 -1      3512 1.54605E-01
 -1      3513 1.31155E-01
 -1      3514 1.24940E-01
 -1      3515 2.10709E-01
 -1      3516 1.82162E-01
 -1      3517 1.75143E-01
 -1      3518 2.78423E-01
 -1      3519 2.43803E-01
 -1      3520 2.35794E-01
 -1      3521 3.59888E-01
 -1      3522 3.17326E-01
 -1      3523 3.07791E-01
 -1      3524 4.55127E-01
 -1      3525 4.04204E-01
 -1      3526 3.91011E-01
 -1      3527 5.61343E-01
 -1      3528 5.03255E-01
 -1      3529 4.83455E-01
 -1      3530 6.88787E-01
 -1      3531 6.25968E-01
 -1      3532 5.96209E-01
 -1      3533 8.44911E-01
 -1      3534 7.74491E-01
 -1      3535 7.46539E-01
 -1      3536 1.03911E+00
 -1      3537 9.70632E-01
 -1      3538 9.57965E-01
 -1      3539 1.31772E+00
 -1      3540 1.19165E+00
 -1      3541 1.23622E+00
 -1      3542 1.62395E+00
 -1      3543 1.48037E+00
 -1      3544 1.55142E+00
 -1      3545 1.99647E+00
 -1      3546 1.87324E+00
 -1      3547 1.96336E+00
 -1      3548 2.88420E+00
 -1      3549 2.36900E+00
 -1      3550 2.58519E+00
 -1      3551 3.38036E+00
 -1      3552 6.33306E+00
 -1      3553 3.71243E+00
 -1      3554 1.30906E+00
 -1      3555 2.44700E+00
 -1      3556 2.41477E+00
 -1      3557 1.80393E+00
 -1      3558 1.95981E+00
 -1      3559 1.46497E+00
 -1      3560 1.59639E+00
 -1      3561 2.24620E+00
 -1      3562 3.16811E-01
 -1      3563 3.24599E-01
 -1      3564 3.09369E-01
 -1      3565 1.01480E+01
 -1      3566 1.07074E+01
 -1      3567 2.42270E+00
 -1      3568 2.51034E+00
 -1      3569 2.91663E+00
 -1      3570 2.80002E+00
 -1      3571 3.02418E+00
 -1      3572 3.38168E+00
 -1      3573 3.66919E+00
 -1      3574 3.02001E+00
 -1      3575 3.02001E+00
 -1      3576 3.39740E+00
 -1      3577 2.95599E+00
 -1      3578 2.49049E-01
 -1      3579 2.58558E-01
 -1      3580 5.00996E-02
 -1      3581 5.96541E-02
 -1      3582 6.38539E-02
 -1      3583 4.78647E-02
 -1      3584 7.01040E+00
 -1      3585 8.06562E+00
 -1      3586 7.35532E+00
 -1      3587 5.20577E+00
 -1      3588 6.49175E+00
 -1      3589 1.58656E-01
 -1      3590 1.71774E-01
 -1      3591 8.98681E-01
 -1      3592 8.13689E-01
 -1      3593 8.76293E-01
 -1      3594 1.18141E+00
 -1      3595 6.99117E+00
 -1      3596 7.93862E+00
 -1      3597 5.48560E+00
 -1      3598 2.42115E+00
 -1      3599 2.15438E-01
 -1      3600 2.12245E-01
 -1      3601 1.78674E-01
 -1      3602 1.07074E+01
 -1      3603 2.59033E+00
 -1      3604 5.82637E+00
 -1      3605 7.30438E+00
 -1      3606 5.56971E+00
 -1      3607 9.30039E+00
 -1      3608 7.86403E+00
 -1      3609 5.50463E+00
 -1      3610 7.13434E+00
 -1      3611 1.83728E-01
 -1      3612 1.98195E-01
 -1      3613 1.65004E-01
 -1      3614 4.51923E+00
 -1      3615 2.33453E-01
 -1      3616 2.01984E-01
 -1      3617 3.33481E+00
 -1      3618 3.33481E+00
 -1      3619 2.37841E-01
 -1      3620 1.04758E-01
 -1      3621 1.13302E-01
 -1      3622 1.26256E-01
 -1      3623 2.54440E-01
 -1      3624 2.72561E-01
 -1      3625 6.78355E+00
 -1      3626 2.72415E-01
 -1      3627 2.72415E-01
 -1      3628 1.78379E-01
 -1      3629 2.17487E-01
 -1      3630 2.03106E-01
 -1      3631 2.23030E-01
 -1      3632 2.15894E+00
 -1      3633 1.98019E+00
 -1      3634 2.86706E-01
 -1      3635 9.94023E-01
 -1      3636 2.33683E-01
 -1      3637 2.49908E-01
 -1      3638 2.10257E-01
 -1      3639 3.34434E+00
 -1      3640 3.24335E+00
 -1      3641 4.38177E+00
 -1      3642 2.49972E+00
 -1      3643 2.26380E+00
 -1      3644 2.79918E+00
 -1      3645 3.64766E+00
 -1      3646 3.86135E+00
 -1      3647 6.73192E+00
 -1      3648 2.53343E-01
 -1      3649 2.53343E-01
 -1      3650 4.12879E+00
 -1      3651 3.78596E+00
 -1      3652 2.53343E-01
 -1      3653 2.50000E-01
 -1      3654 2.17836E-01
 -1      3655 3.00783E+00
 -1      3656 7.21948E+00
 -1      3657 7.54173E+00
 -1      3658 7.54173E+00
 -1      3659 4.23473E+00
 -1      3660 2.00437E-01
 -1      3661 1.79398E-01
 -1      3662 1.42096E-01
 -1      3663 1.95083E-01
 -1      3664 8.27551E+00
 -1      3665 7.42795E+00
 -1      3666 1.36297E-01
 -1      3667 1.49718E-01
 -1      3668 1.44112E-01
 -1      3669 1.25134E-01
 -1      3670 1.95550E-01
 -1      3671 2.44711E-01
 -1      3672 2.26740E-01
 -1      3673 8.24364E+00
 -1      3674 7.41380E+00
 -1      3675 7.87018E+00
 -1      3676 5.75140E+00
 -1      3677 1.89064E-01
 -1      3678 1.87696E-01
 -1      3679 1.97009E-01
 -1      3680 1.55110E-01
 -1      3681 1.38049E-01
 -1      3682 1.56771E+00
 -1      3683 1.65236E+00
 -1      3684 2.36649E+00
 -1      3685 1.56201E-01
 -1      3686 1.48144E-01
 -1      3687 1.43489E-01
 -1      3688 1.33260E-01
 -1      3689 1.31334E-01
 -1      3690 1.26197E-01
 -1      3691 1.17895E-01
 -1      3692 1.19615E-01
 -1      3693 1.10586E-01
 -1      3694 1.01745E-01
 -1      3695 1.05243E-01
 -1      3696 9.50699E-02
 -1      3697 8.57746E-02
 -1      3698 9.12599E-02
 -1      3699 7.86112E-02
 -1      3700 6.92618E-02
 -1      3701 7.74219E-02
 -1      3702 6.32469E-02
 -1      3703 5.39420E-02
 -1      3704 6.42436E-02
 -1      3705 5.47268E-02
 -1      3706 5.49792E-02
 -1      3707 5.90135E-02
 -1      3708 5.74510E-02
 -1      3709 6.00874E-02
 -1      3710 6.22702E-02
 -1      3711 6.48746E-02
 -1      3712 7.80342E-02
 -1      3713 6.95292E-02
 -1      3714 9.30371E-02
 -1      3715 1.13853E-01
 -1      3716 8.93193E-02
 -1      3717 1.35390E-01
 -1      3718 1.61636E-01
 -1      3719 1.25859E-01
 -1      3720 1.88919E-01
 -1      3721 2.22058E-01
 -1      3722 1.74679E-01
 -1      3723 2.56669E-01
 -1      3724 2.98438E-01
 -1      3725 2.36573E-01
 -1      3726 3.42493E-01
 -1      3727 3.94986E-01
 -1      3728 3.15239E-01
 -1      3729 4.51520E-01
 -1      3730 5.17318E-01
 -1      3731 4.15827E-01
 -1      3732 5.91003E-01
 -1      3733 6.73332E-01
 -1      3734 5.46046E-01
 -1      3735 7.71775E-01
 -1      3736 8.74562E-01
 -1      3737 7.18175E-01
 -1      3738 1.01040E+00
 -1      3739 1.13783E+00
 -1      3740 9.52457E-01
 -1      3741 1.33234E+00
 -1      3742 1.48628E+00
 -1      3743 1.28281E+00
 -1      3744 1.76179E+00
 -1      3745 2.02836E+00
 -1      3746 1.75284E+00
 -1      3747 2.35301E+00
 -1      3748 2.95909E+00
 -1      3749 2.35301E+00
 -1      3750 3.47447E+00
 -1      3751 4.11843E+00
 -1      3752 4.79577E+00
 -1      3753 3.19304E+00
 -1      3754 7.56664E-02
 -1      3755 8.59073E-02
 -1      3756 1.48707E-01
 -1      3757 1.53842E-01
 -1      3758 4.04526E+00
 -1      3759 2.57403E+00
 -1      3760 2.08739E-01
 -1      3761 2.27148E-01
 -1      3762 1.87502E-01
 -1      3763 6.51115E-02
 -1      3764 5.46202E-02
 -1      3765 5.13186E-02
 -1      3766 4.98603E-02
 -1      3767 6.10586E-02
 -1      3768 1.40842E-01
 -1      3769 1.18197E-01
 -1      3770 1.93717E-01
 -1      3771 1.66159E-01
 -1      3772 1.59416E-01
 -1      3773 2.58093E-01
 -1      3774 2.24999E-01
 -1      3775 2.16015E-01
 -1      3776 3.35353E-01
 -1      3777 2.96450E-01
 -1      3778 2.85654E-01
 -1      3779 4.26246E-01
 -1      3780 3.81930E-01
 -1      3781 3.70588E-01
 -1      3782 5.30258E-01
 -1      3783 4.82129E-01
 -1      3784 4.73049E-01
 -1      3785 6.60834E-01
 -1      3786 5.96209E-01
 -1      3787 5.94883E-01
 -1      3788 8.22202E-01
 -1      3789 7.36497E-01
 -1      3790 7.36497E-01
 -1      3791 1.06272E+00
 -1      3792 9.36996E-01
 -1      3793 9.26954E-01
 -1      3794 1.38758E+00
 -1      3795 1.23505E+00
 -1      3796 1.21408E+00
 -1      3797 1.84971E+00
 -1      3798 1.68706E+00
 -1      3799 1.68588E+00
 -1      3800 2.56842E+00
 -1      3801 2.31913E+00
 -1      3802 2.45477E+00
 -1      3803 3.42592E+00
 -1      3804 3.30563E+00
 -1      3805 9.78010E-02
 -1      3806 7.95852E-02
 -1      3807 1.13703E-01
 -1      3808 4.74044E+00
 -1      3809 5.06132E+00
 -1      3810 5.22234E+00
 -1      3811 2.49898E-01
 -1      3812 2.54440E-01
 -1      3813 2.17632E-01
 -1      3814 2.17734E-01
 -1      3815 4.64715E+00
 -1      3816 3.47609E+00
 -1      3817 3.10355E+00
 -1      3818 4.85193E+00
 -1      3819 3.76851E+00
 -1      3820 3.73772E+00
 -1      3821 4.02740E+00
 -1      3822 4.30326E+00
 -1      3823 4.12672E+00
 -1      3824 1.61754E-01
 -1      3825 1.47906E-01
 -1      3826 2.42400E-01
 -1      3827 2.46696E-01
 -1      3828 2.11189E-01
 -1      3829 1.85173E-01
 -1      3830 7.85237E+00
 -1      3831 7.85237E+00
 -1      3832 5.27827E+00
 -1      3833 1.60388E-01
 -1      3834 1.56691E-01
 -1      3835 1.30421E-01
 -1      3836 1.36478E-01
 -1      3837 8.55582E-02
 -1      3838 9.40747E-02
 -1      3839 1.04409E-01
 -1      3840 1.37828E-01
 -1      3841 1.12996E-01
 -1      3842 1.19399E-01
 -1      3843 6.69814E+00
 -1      3844 5.27321E+00
 -1      3845 5.55268E+00
 -1      3846 1.47005E-01
 -1      3847 1.58959E-01
 -1      3848 4.92560E+00
 -1      3849 5.25258E+00
 -1      3850 5.28390E+00
 -1      3851 1.86107E-01
 -1      3852 1.86107E-01
 -1      3853 6.74025E-02
 -1      3854 6.91270E-02
 -1      3855 5.73145E-02
 -1      3856 5.12811E+00
 -1      3857 6.60030E+00
 -1      3858 4.04076E+00
 -1      3859 3.53077E+00
 -1      3860 7.88338E-02
 -1      3861 3.45932E+00
 -1      3862 1.85625E-01
 -1      3863 1.85480E-01
 -1      3864 1.54100E-01
 -1      3865 2.04581E-01
 -1      3866 4.96387E+00
 -1      3867 4.97340E+00
 -1      3868 4.99227E+00
 -1      3869 4.82426E-02
 -1      3870 5.41437E-02
 -1      3871 5.76923E-02
 -1      3872 1.77766E-01
 -1      3873 1.30122E-01
 -1      3874 1.78625E-01
 -1      3875 1.29707E-01
 -1      3876 1.38644E-01
 -1      3877 1.32599E-01
 -1      3878 1.73182E-01
 -1      3879 1.79829E-01
 -1      3880 6.99828E+00
 -1      3881 5.39644E+00
 -1      3882 5.06800E+00
 -1      3883 1.86472E-01
 -1      3884 1.86472E-01
 -1      3885 1.48465E-01
 -1      3886 5.17281E+00
 -1      3887 4.97693E+00
 -1      3888 4.12672E+00
 -1      3889 5.30906E+00
 -1      3890 4.67482E+00
 -1      3891 4.15751E+00
 -1      3892 5.84422E+00
 -1      3893 7.71666E+00
 -1      3894 6.26864E+00
 -1      3895 5.61393E-02
 -1      3896 4.79524E+00
 -1      3897 1.50045E-01
 -1      3898 1.73753E-01
 -1      3899 1.19810E-01
 -1      3900 1.15155E-01
 -1      3901 1.12274E-01
 -1      3902 1.05211E-01
 -1      3903 1.00750E-01
 -1      3904 1.00237E-01
 -1      3905 9.29279E-02
 -1      3906 9.28955E-02
 -1      3907 8.68649E-02
 -1      3908 8.01903E-02
 -1      3909 8.18583E-02
 -1      3910 7.54969E-02
 -1      3911 6.83335E-02
 -1      3912 7.11019E-02
 -1      3913 6.73104E-02
 -1      3914 6.12956E-02
 -1      3915 6.53855E-02
 -1      3916 6.15917E-02
 -1      3917 6.23765E-02
 -1      3918 6.46585E-02
 -1      3919 6.42863E-02
 -1      3920 6.67581E-02
 -1      3921 6.68645E-02
 -1      3922 7.06656E-02
 -1      3923 7.54528E-02
 -1      3924 7.26817E-02
 -1      3925 8.34180E-02
 -1      3926 9.84210E-02
 -1      3927 8.45544E-02
 -1      3928 1.10888E-01
 -1      3929 1.32426E-01
 -1      3930 1.04987E-01
 -1      3931 1.49847E-01
 -1      3932 1.77130E-01
 -1      3933 1.34876E-01
 -1      3934 2.02524E-01
 -1      3935 2.37135E-01
 -1      3936 1.77692E-01
 -1      3937 2.69423E-01
 -1      3938 3.13478E-01
 -1      3939 2.35374E-01
 -1      3940 3.54912E-01
 -1      3941 4.11445E-01
 -1      3942 3.09096E-01
 -1      3943 4.65686E-01
 -1      3944 5.39371E-01
 -1      3945 4.04771E-01
 -1      3946 6.12866E-01
 -1      3947 7.11310E-01
 -1      3948 5.32506E-01
 -1      3949 8.16144E-01
 -1      3950 9.51981E-01
 -1      3951 7.10835E-01
 -1      3952 1.11129E+00
 -1      3953 1.30580E+00
 -1      3954 9.74975E-01
 -1      3955 1.56071E+00
 -1      3956 1.83623E+00
 -1      3957 1.38920E+00
 -1      3958 2.02493E+00
 -1      3959 2.34958E+00
 -1      3960 1.83281E+00
 -1      3961 1.19643E-01
 -1      3962 1.19153E-01
 -1      3963 1.02975E-01
 -1      3964 4.39482E+00
 -1      3965 1.93122E-01
 -1      3966 1.77340E-01
 -1      3967 1.83875E-01
 -1      3968 1.51383E-01
 -1      3969 6.73899E-02
 -1      3970 6.40884E-02
 -1      3971 1.86370E-01
 -1      3972 1.54845E-01
 -1      3973 1.86472E-01
 -1      3974 1.62065E-01
 -1      3975 1.23103E-01
 -1      3976 1.65024E-01
 -1      3977 1.75569E-01
 -1      3978 1.54862E-01
 -1      3979 1.47025E-01
 -1      3980 4.41573E+00
 -1      3981 4.67482E+00
 -1      3982 4.27793E+00
 -1      3983 4.27440E+00
 -1      3984 4.15751E+00
 -1      3985 2.26890E-01
 -1      3986 1.95608E-01
 -1      3987 1.68896E-01
 -1      3988 1.43578E-01
 -1      3989 1.79770E-01
 -1      3990 3.88696E-01
 -1      3991 3.42119E-01
 -1      3992 4.99508E-01
 -1      3993 4.43625E-01
 -1      3994 4.15155E-01
 -1      3995 6.36290E-01
 -1      3996 5.70338E-01
 -1      3997 5.40915E-01
 -1      3998 8.04469E-01
 -1      3999 7.28806E-01
 -1      4000 7.04261E-01
 -1      4001 1.04175E+00
 -1      4002 9.26954E-01
 -1      4003 9.19263E-01
 -1      4004 1.37491E+00
 -1      4005 1.20258E+00
 -1      4006 1.20258E+00
 -1      4007 1.93336E+00
 -1      4008 1.63388E+00
 -1      4009 1.62239E+00
 -1      4010 2.75517E+00
 -1      4011 2.28575E+00
 -1      4012 2.23375E+00
 -1      4013 8.82074E-02
 -1      4014 7.37337E-02
 -1      4015 7.67635E-02
 -1      4016 3.88060E+00
 -1      4017 1.30204E-01
 -1      4018 1.21735E-01
 -1      4019 1.59326E-01
 -1      4020 3.98164E+00
 -1      4021 4.60082E+00
 -1      4022 4.05736E+00
 -1      4023 3.53077E+00
 -1      4024 6.09854E-02
 -1      4025 5.93677E-02
 -1      4026 6.73167E-02
 -1      4027 1.12029E-01
 -1      4028 1.22070E-01
 -1      4029 1.16602E-01
 -1      4030 1.01346E-01
 -1      4031 1.27966E-01
 -1      4032 1.07037E-01
 -1      4033 1.13583E-01
 -1      4034 9.62584E-02
 -1      4035 1.22509E-01
 -1      4036 1.02113E-01
 -1      4037 9.70130E-02
 -1      4038 2.99109E-01
 -1      4039 2.60752E-01
 -1      4040 2.40345E-01
 -1      4041 1.10299E-01
 -1      4042 1.24155E-01
 -1      4043 1.26310E-01
 -1      4044 7.48530E-02
 -1      4045 8.30203E-02
 -1      4046 2.74345E+00
 -1      4047 3.25883E+00
 -1      4048 3.59116E+00
 -1      4049 2.41537E+00
 -1      4050 5.30546E+00
 -1      4051 4.58980E+00
 -1      4052 1.29325E-01
 -1      4053 1.35391E-01
 -1      4054 1.55108E-01
 -1      4055 3.71158E+00
 -1      4056 1.30138E-01
 -1      4057 1.29875E-01
 -1      4058 6.13290E-02
 -1      4059 6.95929E-02
 -1      4060 6.70550E-02
 -1      4061 4.43356E+00
 -1      4062 1.31988E-01
 -1      4063 1.02657E-01
 -1      4064 1.27364E-01
 -1      4065 1.26882E-01
 -1      4066 3.19971E+00
 -1      4067 1.04453E-01
 -1      4068 1.30798E-01
 -1      4069 1.27868E-01
 -1      4070 5.80352E-02
 -1      4071 6.12060E-02
 -1      4072 6.16719E-02
 -1      4073 1.12010E-01
 -1      4074 9.51718E-02
 -1      4075 1.17299E-01
 -1      4076 1.25660E-01
 -1      4077 1.14025E-01
 -1      4078 3.17216E-01
 -1      4079 4.15751E+00
 -1      4080 6.28813E-02
 -1      4081 3.46437E+00
 -1      4082 9.12695E-02
 -1      4083 9.19260E-02
 -1      4084 1.06488E-01
 -1      4085 1.30798E-01
 -1      4086 8.51677E-02
 -1      4087 8.01935E-02
 -1      4088 8.01124E-02
 -1      4089 7.40494E-02
 -1      4090 7.23845E-02
 -1      4091 8.33411E-02
 -1      4092 7.86477E-02
 -1      4093 8.15951E-02
 -1      4094 6.64086E-02
 -1      4095 6.53855E-02
 -1      4096 7.86477E-02
 -1      4097 6.46585E-02
 -1      4098 6.49547E-02
 -1      4099 6.56816E-02
 -1      4100 6.68645E-02
 -1      4101 6.87742E-02
 -1      4102 6.68645E-02
 -1      4103 7.26817E-02
 -1      4104 7.65892E-02
 -1      4105 7.26817E-02
 -1      4106 8.45544E-02
 -1      4107 9.25197E-02
 -1      4108 8.45544E-02
 -1      4109 1.04142E-01
 -1      4110 1.16610E-01
 -1      4111 1.04142E-01
 -1      4112 1.32133E-01
 -1      4113 1.49555E-01
 -1      4114 1.31288E-01
 -1      4115 1.69775E-01
 -1      4116 1.95169E-01
 -1      4117 1.67032E-01
 -1      4118 2.21128E-01
 -1      4119 2.53416E-01
 -1      4120 2.13210E-01
 -1      4121 2.86618E-01
 -1      4122 3.28052E-01
 -1      4123 2.72371E-01
 -1      4124 3.70871E-01
 -1      4125 4.25111E-01
 -1      4126 3.48392E-01
 -1      4127 4.81588E-01
 -1      4128 5.55083E-01
 -1      4129 4.47688E-01
 -1      4130 6.32501E-01
 -1      4131 7.37335E-01
 -1      4132 5.81584E-01
 -1      4133 8.57682E-01
 -1      4134 1.01699E+00
 -1      4135 7.79348E-01
 -1      4136 1.23723E+00
 -1      4137 1.49215E+00
 -1      4138 1.11994E+00
 -1      4139 1.83486E+00
 -1      4140 2.02356E+00
 -1      4141 1.68290E+00
 -1      4142 1.07111E-01
 -1      4143 9.32055E-02
 -1      4144 3.17185E-01
 -1      4145 2.74176E-01
 -1      4146 1.17442E-01
 -1      4147 1.35142E-01
 -1      4148 1.36913E-01
 -1      4149 1.30798E-01
 -1      4150 8.25899E-02
 -1      4151 7.76167E-02
 -1      4152 8.51017E-02
 -1      4153 7.27451E-01
 -1      4154 6.34935E-01
 -1      4155 1.05828E-01
 -1      4156 1.01131E-01
 -1      4157 1.85976E-01
 -1      4158 1.59264E-01
 -1      4159 5.49652E-01
 -1      4160 4.78821E-01
 -1      4161 5.72842E-01
 -1      4162 4.17466E-01
 -1      4163 3.62537E-01
 -1      4164 3.19496E-01
 -1      4165 4.26203E-01
 -1      4166 9.72422E-01
 -1      4167 8.49937E-01
 -1      4168 7.80611E-01
 -1      4169 1.35180E+00
 -1      4170 1.19097E+00
 -1      4171 1.12164E+00
 -1      4172 1.95349E+00
 -1      4173 1.69451E+00
 -1      4174 1.68290E+00
 -1      4175 2.66358E+00
 -1      4176 2.31119E+00
 -1      4177 2.38332E+00
 -1      4178 8.31073E-02
 -1      4179 7.67635E-02
 -1      4180 9.32055E-02
 -1      4181 2.42084E-01
 -1      4182 2.08222E-01
 -1      4183 2.42053E-01
 -1      4184 2.77513E+00
 -1      4185 3.16560E+00
 -1      4186 2.38126E+00
 -1      4187 7.04197E-02
 -1      4188 6.73167E-02
 -1      4189 7.67635E-02
 -1      4190 6.42138E-02
 -1      4191 6.28813E-02
 -1      4192 6.73167E-02
 -1      4193 1.27394E-01
 -1      4194 1.22144E-01
 -1      4195 1.02322E-01
 -1      4196 1.07674E-01
 -1      4197 3.54448E+00
 -1      4198 4.01166E+00
 -1      4199 3.92069E+00
 -1      4200 3.11990E+00
 -1      4201 3.54181E+00
 -1      4202 1.41711E-01
 -1      4203 1.20642E-01
 -1      4204 1.47918E-01
 -1      4205 9.17416E-02
 -1      4206 1.02447E-01
 -1      4207 1.10067E-01
 -1      4208 7.79205E-02
 -1      4209 8.39803E-02
 -1      4210 7.29317E-02
 -1      4211 6.53386E-02
 -1      4212 9.00518E-02
 -1      4213 8.71712E-02
 -1      4214 7.83468E-02
 -1      4215 7.44692E-02
 -1      4216 6.25137E-02
 -1      4217 6.26367E-02
 -1      4218 6.38461E-02
 -1      4219 2.38332E+00
 -1      4220 1.87716E-01
 -1      4221 1.16834E-01
 -1      4222 3.11990E+00
 -1      4223 8.51017E-02
 -1      4224 6.50348E-02
 -1      4225 6.53386E-02
 -1      4226 8.57613E-02
 -1      4227 7.63409E-02
 -1      4228 8.16010E-02
 -1      4229 7.71827E-02
 -1      4230 1.02532E-01
 -1      4231 1.02283E-01
 -1      4232 1.10067E-01
 -1      4233 1.17703E-01
 -1      4234 1.10764E-01
 -1      4235 1.11168E-01
 -1      4236 1.02322E-01
 -1      4237 1.00038E-01
 -1      4238 1.03703E-01
 -1      4239 8.85446E-02
 -1      4240 8.37758E-02
 -1      4241 1.03202E-01
 -1      4242 9.30616E-02
 -1      4243 8.49680E-02
 -1      4244 8.30939E-02
 -1      4245 8.37699E-02
 -1      4246 9.30616E-02
 -1      4247 9.08869E-02
 -1      4248 7.86477E-02
 -1      4249 6.49435E-02
 -1      4250 6.42166E-02
 -1      4251 6.45842E-02
 -1      4252 6.64940E-02
 -1      4253 6.95970E-02
 -1      4254 7.35044E-02
 -1      4255 7.98482E-02
 -1      4256 8.78135E-02
 -1      4257 9.79117E-02
 -1      4258 1.09534E-01
 -1      4259 1.23065E-01
 -1      4260 1.38589E-01
 -1      4261 1.56141E-01
 -1      4262 1.76361E-01
 -1      4263 1.98607E-01
 -1      4264 2.24566E-01
 -1      4265 2.56657E-01
 -1      4266 2.89859E-01
 -1      4267 3.35211E-01
 -1      4268 3.78030E-01
 -1      4269 4.39385E-01
 -1      4270 4.95862E-01
 -1      4271 5.81146E-01
 -1      4272 6.58563E-01
 -1      4273 7.81049E-01
 -1      4274 9.01396E-01
 -1      4275 1.11994E+00
 -1      4276 1.34019E+00
 -1      4277 1.68290E+00
 -1      4278 2.02561E+00
 -1      4279 8.72025E-02
 -1      4280 9.13685E-02
 -1      4281 7.06421E-02
 -1      4282 9.67211E-02
 -1      4283 8.18117E-02
 -1      4284 2.38332E+00
 -1      4285 9.18169E-02
 -1      4286 9.17358E-02
 -1      4287 1.03202E-01
 -1      4288 2.74102E+00
 -1      4289 9.74058E-02
 -1      4290 9.07846E-02
 -1      4291 8.87811E-02
 -1      4292 1.07728E-01
 -1      4293 1.08132E-01
 -1      4294 1.11168E-01
 -1      4295 1.11168E-01
 -1      4296 1.08132E-01
 -1      4297 9.30616E-02
 -1      4298 8.37975E-02
 -1      4299 7.29317E-02
 -1      4300 7.65082E-02
 -1      4301 7.09459E-02
 -1      4302 1.03202E-01
 -1      4303 6.56424E-02
 -1      4304 6.53386E-02
 -1      4305 9.52364E-02
 -3
 9999
