    1C
    1UUSER                                                              
    1UDATE              27.october.2022                                 
    1UTIME              00:42:19                                        
    1UHOST                                                              
    1UPGM               CalculiX                                        
    1UVERSION           Version 2.17                             
    1UCOMPILETIME       Thu Jul 23 21:43:50 CEST 2020                    
    1UDIR                                                               
    1UDBN                                                               
    1UMAT    1SOLIDMATERIAL                                             
    2C                          4361                                     1
 -1         1 4.25703E+01 2.63636E+01 0.00000E+00
 -1         2 5.65458E+01 2.57786E+01 0.00000E+00
 -1         3 1.50000E+02 0.00000E+00 0.00000E+00
 -1         4 1.50000E+02 5.00000E+01 0.00000E+00
 -1         5 0.00000E+00 0.00000E+00 0.00000E+00
 -1         6 0.00000E+00 5.00000E+01 0.00000E+00
 -1         7 0.00000E+00 4.70500E+01 0.00000E+00
 -1         8 0.00000E+00 4.41000E+01 0.00000E+00
 -1         9 0.00000E+00 4.11500E+01 0.00000E+00
 -1        10 0.00000E+00 3.82000E+01 0.00000E+00
 -1        11 0.00000E+00 3.52500E+01 0.00000E+00
 -1        12 0.00000E+00 3.23500E+01 0.00000E+00
 -1        13 0.00000E+00 2.94000E+01 0.00000E+00
 -1        14 0.00000E+00 2.64500E+01 0.00000E+00
 -1        15 0.00000E+00 2.35000E+01 0.00000E+00
 -1        16 0.00000E+00 2.05500E+01 0.00000E+00
 -1        17 0.00000E+00 1.76000E+01 0.00000E+00
 -1        18 0.00000E+00 1.47000E+01 0.00000E+00
 -1        19 0.00000E+00 1.17500E+01 0.00000E+00
 -1        20 0.00000E+00 8.80000E+00 0.00000E+00
 -1        21 0.00000E+00 5.85000E+00 0.00000E+00
 -1        22 0.00000E+00 2.90000E+00 0.00000E+00
 -1        23 3.15000E+00 5.00000E+01 0.00000E+00
 -1        24 6.15000E+00 5.00000E+01 0.00000E+00
 -1        25 9.15000E+00 5.00000E+01 0.00000E+00
 -1        26 1.21500E+01 5.00000E+01 0.00000E+00
 -1        27 1.51500E+01 5.00000E+01 0.00000E+00
 -1        28 1.81500E+01 5.00000E+01 0.00000E+00
 -1        29 2.11500E+01 5.00000E+01 0.00000E+00
 -1        30 2.41500E+01 5.00000E+01 0.00000E+00
 -1        31 2.71500E+01 5.00000E+01 0.00000E+00
 -1        32 3.01500E+01 5.00000E+01 0.00000E+00
 -1        33 3.31500E+01 5.00000E+01 0.00000E+00
 -1        34 3.61500E+01 5.00000E+01 0.00000E+00
 -1        35 3.91500E+01 5.00000E+01 0.00000E+00
 -1        36 4.21500E+01 5.00000E+01 0.00000E+00
 -1        37 4.51500E+01 5.00000E+01 0.00000E+00
 -1        38 4.81500E+01 5.00000E+01 0.00000E+00
 -1        39 5.11500E+01 5.00000E+01 0.00000E+00
 -1        40 5.41500E+01 5.00000E+01 0.00000E+00
 -1        41 5.71500E+01 5.00000E+01 0.00000E+00
 -1        42 6.01500E+01 5.00000E+01 0.00000E+00
 -1        43 6.31500E+01 5.00000E+01 0.00000E+00
 -1        44 6.61500E+01 5.00000E+01 0.00000E+00
 -1        45 6.91500E+01 5.00000E+01 0.00000E+00
 -1        46 7.21500E+01 5.00000E+01 0.00000E+00
 -1        47 7.51500E+01 5.00000E+01 0.00000E+00
 -1        48 7.81500E+01 5.00000E+01 0.00000E+00
 -1        49 8.11500E+01 5.00000E+01 0.00000E+00
 -1        50 8.41500E+01 5.00000E+01 0.00000E+00
 -1        51 8.71500E+01 5.00000E+01 0.00000E+00
 -1        52 9.01500E+01 5.00000E+01 0.00000E+00
 -1        53 9.31500E+01 5.00000E+01 0.00000E+00
 -1        54 9.61500E+01 5.00000E+01 0.00000E+00
 -1        55 9.91500E+01 5.00000E+01 0.00000E+00
 -1        56 1.02150E+02 5.00000E+01 0.00000E+00
 -1        57 1.05150E+02 5.00000E+01 0.00000E+00
 -1        58 1.08150E+02 5.00000E+01 0.00000E+00
 -1        59 1.11150E+02 5.00000E+01 0.00000E+00
 -1        60 1.14150E+02 5.00000E+01 0.00000E+00
 -1        61 1.17150E+02 5.00000E+01 0.00000E+00
 -1        62 1.20150E+02 5.00000E+01 0.00000E+00
 -1        63 1.23150E+02 5.00000E+01 0.00000E+00
 -1        64 1.26150E+02 5.00000E+01 0.00000E+00
 -1        65 1.29150E+02 5.00000E+01 0.00000E+00
 -1        66 1.32150E+02 5.00000E+01 0.00000E+00
 -1        67 1.35150E+02 5.00000E+01 0.00000E+00
 -1        68 1.38150E+02 5.00000E+01 0.00000E+00
 -1        69 1.41150E+02 5.00000E+01 0.00000E+00
 -1        70 1.44150E+02 5.00000E+01 0.00000E+00
 -1        71 1.47150E+02 5.00000E+01 0.00000E+00
 -1        72 3.15000E+00 0.00000E+00 0.00000E+00
 -1        73 6.15000E+00 0.00000E+00 0.00000E+00
 -1        74 9.15000E+00 0.00000E+00 0.00000E+00
 -1        75 1.21500E+01 0.00000E+00 0.00000E+00
 -1        76 1.51500E+01 0.00000E+00 0.00000E+00
 -1        77 1.81500E+01 0.00000E+00 0.00000E+00
 -1        78 2.11500E+01 0.00000E+00 0.00000E+00
 -1        79 2.41500E+01 0.00000E+00 0.00000E+00
 -1        80 2.71500E+01 0.00000E+00 0.00000E+00
 -1        81 3.01500E+01 0.00000E+00 0.00000E+00
 -1        82 3.31500E+01 0.00000E+00 0.00000E+00
 -1        83 3.61500E+01 0.00000E+00 0.00000E+00
 -1        84 3.91500E+01 0.00000E+00 0.00000E+00
 -1        85 4.21500E+01 0.00000E+00 0.00000E+00
 -1        86 4.51500E+01 0.00000E+00 0.00000E+00
 -1        87 4.81500E+01 0.00000E+00 0.00000E+00
 -1        88 5.11500E+01 0.00000E+00 0.00000E+00
 -1        89 5.41500E+01 0.00000E+00 0.00000E+00
 -1        90 5.71500E+01 0.00000E+00 0.00000E+00
 -1        91 6.01500E+01 0.00000E+00 0.00000E+00
 -1        92 6.31500E+01 0.00000E+00 0.00000E+00
 -1        93 6.61500E+01 0.00000E+00 0.00000E+00
 -1        94 6.91500E+01 0.00000E+00 0.00000E+00
 -1        95 7.21500E+01 0.00000E+00 0.00000E+00
 -1        96 7.51500E+01 0.00000E+00 0.00000E+00
 -1        97 7.81500E+01 0.00000E+00 0.00000E+00
 -1        98 8.11500E+01 0.00000E+00 0.00000E+00
 -1        99 8.41500E+01 0.00000E+00 0.00000E+00
 -1       100 8.71500E+01 0.00000E+00 0.00000E+00
 -1       101 9.01500E+01 0.00000E+00 0.00000E+00
 -1       102 9.31500E+01 0.00000E+00 0.00000E+00
 -1       103 9.61500E+01 0.00000E+00 0.00000E+00
 -1       104 9.91500E+01 0.00000E+00 0.00000E+00
 -1       105 1.02150E+02 0.00000E+00 0.00000E+00
 -1       106 1.05150E+02 0.00000E+00 0.00000E+00
 -1       107 1.08150E+02 0.00000E+00 0.00000E+00
 -1       108 1.11150E+02 0.00000E+00 0.00000E+00
 -1       109 1.14150E+02 0.00000E+00 0.00000E+00
 -1       110 1.17150E+02 0.00000E+00 0.00000E+00
 -1       111 1.20150E+02 0.00000E+00 0.00000E+00
 -1       112 1.23150E+02 0.00000E+00 0.00000E+00
 -1       113 1.26150E+02 0.00000E+00 0.00000E+00
 -1       114 1.29150E+02 0.00000E+00 0.00000E+00
 -1       115 1.32150E+02 0.00000E+00 0.00000E+00
 -1       116 1.35150E+02 0.00000E+00 0.00000E+00
 -1       117 1.38150E+02 0.00000E+00 0.00000E+00
 -1       118 1.41150E+02 0.00000E+00 0.00000E+00
 -1       119 1.44150E+02 0.00000E+00 0.00000E+00
 -1       120 1.47150E+02 0.00000E+00 0.00000E+00
 -1       121 1.50000E+02 2.95000E+00 0.00000E+00
 -1       122 1.50000E+02 5.90000E+00 0.00000E+00
 -1       123 1.50000E+02 8.85000E+00 0.00000E+00
 -1       124 1.50000E+02 1.18000E+01 0.00000E+00
 -1       125 1.50000E+02 1.47500E+01 0.00000E+00
 -1       126 1.50000E+02 1.76500E+01 0.00000E+00
 -1       127 1.50000E+02 2.06000E+01 0.00000E+00
 -1       128 1.50000E+02 2.35500E+01 0.00000E+00
 -1       129 1.50000E+02 2.65000E+01 0.00000E+00
 -1       130 1.50000E+02 2.94500E+01 0.00000E+00
 -1       131 1.50000E+02 3.24000E+01 0.00000E+00
 -1       132 1.50000E+02 3.53000E+01 0.00000E+00
 -1       133 1.50000E+02 3.82500E+01 0.00000E+00
 -1       134 1.50000E+02 4.12000E+01 0.00000E+00
 -1       135 1.50000E+02 4.41500E+01 0.00000E+00
 -1       136 1.50000E+02 4.71000E+01 0.00000E+00
 -1       137 5.63880E+01 2.43003E+01 0.00000E+00
 -1       138 5.58728E+01 2.27838E+01 0.00000E+00
 -1       139 5.50569E+01 2.14626E+01 0.00000E+00
 -1       140 5.40118E+01 2.03883E+01 0.00000E+00
 -1       141 5.27462E+01 1.95531E+01 0.00000E+00
 -1       142 5.13747E+01 1.90218E+01 0.00000E+00
 -1       143 4.97944E+01 1.87830E+01 0.00000E+00
 -1       144 4.83485E+01 1.88818E+01 0.00000E+00
 -1       145 4.69245E+01 1.92880E+01 0.00000E+00
 -1       146 4.56096E+01 1.99902E+01 0.00000E+00
 -1       147 4.44509E+01 2.09785E+01 0.00000E+00
 -1       148 4.35629E+01 2.21447E+01 0.00000E+00
 -1       149 4.29419E+01 2.34575E+01 0.00000E+00
 -1       150 4.25987E+01 2.49199E+01 0.00000E+00
 -1       151 4.28657E+01 2.78704E+01 0.00000E+00
 -1       152 4.34498E+01 2.92194E+01 0.00000E+00
 -1       153 4.42995E+01 3.04129E+01 0.00000E+00
 -1       154 4.53905E+01 3.14118E+01 0.00000E+00
 -1       155 4.67731E+01 3.22061E+01 0.00000E+00
 -1       156 4.83141E+01 3.26694E+01 0.00000E+00
 -1       157 4.97752E+01 3.27749E+01 0.00000E+00
 -1       158 5.13628E+01 3.25387E+01 0.00000E+00
 -1       159 5.28062E+01 3.19730E+01 0.00000E+00
 -1       160 5.40598E+01 3.11287E+01 0.00000E+00
 -1       161 5.51509E+01 2.99718E+01 0.00000E+00
 -1       162 5.59046E+01 2.87053E+01 0.00000E+00
 -1       163 5.63950E+01 2.72237E+01 0.00000E+00
 -1       164 2.59800E+00 4.55750E+01 0.00000E+00
 -1       165 2.59800E+00 4.26250E+01 0.00000E+00
 -1       166 2.59800E+00 3.96750E+01 0.00000E+00
 -1       167 2.59800E+00 3.67250E+01 0.00000E+00
 -1       168 2.59800E+00 3.38250E+01 0.00000E+00
 -1       169 2.59800E+00 3.08750E+01 0.00000E+00
 -1       170 2.59800E+00 2.79250E+01 0.00000E+00
 -1       171 2.59800E+00 2.49750E+01 0.00000E+00
 -1       172 2.59800E+00 2.20250E+01 0.00000E+00
 -1       173 2.59800E+00 1.90750E+01 0.00000E+00
 -1       174 2.59800E+00 1.61750E+01 0.00000E+00
 -1       175 2.59800E+00 1.32250E+01 0.00000E+00
 -1       176 2.59800E+00 1.02750E+01 0.00000E+00
 -1       177 2.59800E+00 7.32500E+00 0.00000E+00
 -1       178 2.59800E+00 4.37500E+00 0.00000E+00
 -1       179 2.87400E+00 2.18750E+00 0.00000E+00
 -1       180 4.65000E+00 4.74020E+01 0.00000E+00
 -1       181 7.65000E+00 4.74020E+01 0.00000E+00
 -1       182 1.06500E+01 4.74020E+01 0.00000E+00
 -1       183 1.36500E+01 4.74020E+01 0.00000E+00
 -1       184 1.66500E+01 4.74020E+01 0.00000E+00
 -1       185 1.96500E+01 4.74020E+01 0.00000E+00
 -1       186 2.26500E+01 4.74020E+01 0.00000E+00
 -1       187 2.56500E+01 4.74020E+01 0.00000E+00
 -1       188 2.86500E+01 4.74020E+01 0.00000E+00
 -1       189 3.16500E+01 4.74020E+01 0.00000E+00
 -1       190 3.46500E+01 4.74020E+01 0.00000E+00
 -1       191 3.76500E+01 4.74020E+01 0.00000E+00
 -1       192 4.06500E+01 4.74020E+01 0.00000E+00
 -1       193 4.36500E+01 4.74020E+01 0.00000E+00
 -1       194 4.66500E+01 4.74020E+01 0.00000E+00
 -1       195 4.96500E+01 4.74020E+01 0.00000E+00
 -1       196 5.26500E+01 4.74020E+01 0.00000E+00
 -1       197 5.56500E+01 4.74020E+01 0.00000E+00
 -1       198 5.86500E+01 4.74020E+01 0.00000E+00
 -1       199 6.16500E+01 4.74020E+01 0.00000E+00
 -1       200 6.46500E+01 4.74020E+01 0.00000E+00
 -1       201 6.76500E+01 4.74020E+01 0.00000E+00
 -1       202 7.06500E+01 4.74020E+01 0.00000E+00
 -1       203 7.36500E+01 4.74020E+01 0.00000E+00
 -1       204 7.66500E+01 4.74020E+01 0.00000E+00
 -1       205 7.96500E+01 4.74020E+01 0.00000E+00
 -1       206 8.26500E+01 4.74020E+01 0.00000E+00
 -1       207 8.56500E+01 4.74020E+01 0.00000E+00
 -1       208 8.86500E+01 4.74020E+01 0.00000E+00
 -1       209 9.16500E+01 4.74020E+01 0.00000E+00
 -1       210 9.46500E+01 4.74020E+01 0.00000E+00
 -1       211 9.76500E+01 4.74020E+01 0.00000E+00
 -1       212 1.00650E+02 4.74020E+01 0.00000E+00
 -1       213 1.03650E+02 4.74020E+01 0.00000E+00
 -1       214 1.06650E+02 4.74020E+01 0.00000E+00
 -1       215 1.09650E+02 4.74020E+01 0.00000E+00
 -1       216 1.12650E+02 4.74020E+01 0.00000E+00
 -1       217 1.15650E+02 4.74020E+01 0.00000E+00
 -1       218 1.18650E+02 4.74020E+01 0.00000E+00
 -1       219 1.21650E+02 4.74020E+01 0.00000E+00
 -1       220 1.24650E+02 4.74020E+01 0.00000E+00
 -1       221 1.27650E+02 4.74020E+01 0.00000E+00
 -1       222 1.30650E+02 4.74020E+01 0.00000E+00
 -1       223 1.33650E+02 4.74020E+01 0.00000E+00
 -1       224 1.36650E+02 4.74020E+01 0.00000E+00
 -1       225 1.39650E+02 4.74020E+01 0.00000E+00
 -1       226 1.42650E+02 4.74020E+01 0.00000E+00
 -1       227 1.45650E+02 4.74020E+01 0.00000E+00
 -1       228 5.87400E+00 2.18750E+00 0.00000E+00
 -1       229 8.87400E+00 2.18750E+00 0.00000E+00
 -1       230 1.18740E+01 2.18750E+00 0.00000E+00
 -1       231 1.48740E+01 2.18750E+00 0.00000E+00
 -1       232 1.78740E+01 2.18750E+00 0.00000E+00
 -1       233 2.08740E+01 2.18750E+00 0.00000E+00
 -1       234 2.38740E+01 2.18750E+00 0.00000E+00
 -1       235 2.68740E+01 2.18750E+00 0.00000E+00
 -1       236 2.98740E+01 2.18750E+00 0.00000E+00
 -1       237 3.28740E+01 2.18750E+00 0.00000E+00
 -1       238 3.58740E+01 2.18750E+00 0.00000E+00
 -1       239 3.88740E+01 2.18750E+00 0.00000E+00
 -1       240 4.18740E+01 2.18750E+00 0.00000E+00
 -1       241 4.48740E+01 2.18750E+00 0.00000E+00
 -1       242 4.78740E+01 2.18750E+00 0.00000E+00
 -1       243 5.08740E+01 2.18750E+00 0.00000E+00
 -1       244 5.38740E+01 2.18750E+00 0.00000E+00
 -1       245 5.68740E+01 2.18750E+00 0.00000E+00
 -1       246 5.98740E+01 2.18750E+00 0.00000E+00
 -1       247 6.28740E+01 2.18750E+00 0.00000E+00
 -1       248 6.58740E+01 2.18750E+00 0.00000E+00
 -1       249 6.88740E+01 2.18750E+00 0.00000E+00
 -1       250 7.18740E+01 2.18750E+00 0.00000E+00
 -1       251 7.48740E+01 2.18750E+00 0.00000E+00
 -1       252 7.78740E+01 2.18750E+00 0.00000E+00
 -1       253 8.08740E+01 2.18750E+00 0.00000E+00
 -1       254 8.38740E+01 2.18750E+00 0.00000E+00
 -1       255 8.68740E+01 2.18750E+00 0.00000E+00
 -1       256 8.98740E+01 2.18750E+00 0.00000E+00
 -1       257 9.28740E+01 2.18750E+00 0.00000E+00
 -1       258 9.58740E+01 2.18750E+00 0.00000E+00
 -1       259 9.88740E+01 2.18750E+00 0.00000E+00
 -1       260 1.01874E+02 2.18750E+00 0.00000E+00
 -1       261 1.04874E+02 2.18750E+00 0.00000E+00
 -1       262 1.07874E+02 2.18750E+00 0.00000E+00
 -1       263 1.10874E+02 2.18750E+00 0.00000E+00
 -1       264 1.13874E+02 2.18750E+00 0.00000E+00
 -1       265 1.16874E+02 2.18750E+00 0.00000E+00
 -1       266 1.19874E+02 2.18750E+00 0.00000E+00
 -1       267 1.22874E+02 2.18750E+00 0.00000E+00
 -1       268 1.25874E+02 2.18750E+00 0.00000E+00
 -1       269 1.28874E+02 2.18750E+00 0.00000E+00
 -1       270 1.31874E+02 2.18750E+00 0.00000E+00
 -1       271 1.34874E+02 2.18750E+00 0.00000E+00
 -1       272 1.37874E+02 2.18750E+00 0.00000E+00
 -1       273 1.40874E+02 2.18750E+00 0.00000E+00
 -1       274 1.43874E+02 2.18750E+00 0.00000E+00
 -1       275 1.46874E+02 2.18750E+00 0.00000E+00
 -1       276 1.47402E+02 4.42500E+00 0.00000E+00
 -1       277 1.47402E+02 7.37500E+00 0.00000E+00
 -1       278 1.47402E+02 1.03250E+01 0.00000E+00
 -1       279 1.47402E+02 1.32750E+01 0.00000E+00
 -1       280 1.47402E+02 1.61750E+01 0.00000E+00
 -1       281 1.47402E+02 1.91250E+01 0.00000E+00
 -1       282 1.47402E+02 2.20750E+01 0.00000E+00
 -1       283 1.47402E+02 2.50250E+01 0.00000E+00
 -1       284 1.47402E+02 2.79750E+01 0.00000E+00
 -1       285 1.47402E+02 3.09250E+01 0.00000E+00
 -1       286 1.47402E+02 3.38250E+01 0.00000E+00
 -1       287 1.47402E+02 3.67750E+01 0.00000E+00
 -1       288 1.47402E+02 3.97250E+01 0.00000E+00
 -1       289 1.47402E+02 4.26750E+01 0.00000E+00
 -1       290 1.46526E+02 4.50385E+01 0.00000E+00
 -1       291 5.76724E+01 2.49107E+01 0.00000E+00
 -1       292 5.75957E+01 2.30443E+01 0.00000E+00
 -1       293 5.65677E+01 2.14421E+01 0.00000E+00
 -1       294 5.54034E+01 2.00800E+01 0.00000E+00
 -1       295 5.41391E+01 1.88189E+01 0.00000E+00
 -1       296 5.24984E+01 1.81569E+01 0.00000E+00
 -1       297 5.07781E+01 1.76208E+01 0.00000E+00
 -1       298 4.89888E+01 1.76228E+01 0.00000E+00
 -1       299 4.73039E+01 1.79190E+01 0.00000E+00
 -1       300 4.56959E+01 1.85696E+01 0.00000E+00
 -1       301 4.41891E+01 1.94981E+01 0.00000E+00
 -1       302 4.30423E+01 2.08272E+01 0.00000E+00
 -1       303 4.21565E+01 2.22826E+01 0.00000E+00
 -1       304 4.14268E+01 2.38734E+01 0.00000E+00
 -1       305 4.13723E+01 2.56180E+01 0.00000E+00
 -1       306 4.15282E+01 2.73502E+01 0.00000E+00
 -1       307 4.20452E+01 2.90267E+01 0.00000E+00
 -1       308 4.28870E+01 3.05193E+01 0.00000E+00
 -1       309 4.37999E+01 3.20537E+01 0.00000E+00
 -1       310 4.51825E+01 3.28479E+01 0.00000E+00
 -1       311 4.71704E+01 3.36790E+01 0.00000E+00
 -1       312 4.89573E+01 3.39314E+01 0.00000E+00
 -1       313 5.07720E+01 3.40217E+01 0.00000E+00
 -1       314 5.25269E+01 3.33846E+01 0.00000E+00
 -1       315 5.41102E+01 3.25565E+01 0.00000E+00
 -1       316 5.56093E+01 3.14971E+01 0.00000E+00
 -1       317 5.65696E+01 2.99586E+01 0.00000E+00
 -1       318 5.76190E+01 2.84508E+01 0.00000E+00
 -1       319 5.76763E+01 2.66270E+01 0.00000E+00
 -1       320 5.19600E+00 4.11500E+01 0.00000E+00
 -1       321 5.19600E+00 4.41000E+01 0.00000E+00
 -1       322 5.19600E+00 3.52750E+01 0.00000E+00
 -1       323 5.19600E+00 3.23250E+01 0.00000E+00
 -1       324 5.19600E+00 2.93750E+01 0.00000E+00
 -1       325 5.19600E+00 2.64250E+01 0.00000E+00
 -1       326 5.19600E+00 2.34750E+01 0.00000E+00
 -1       327 5.19600E+00 2.05250E+01 0.00000E+00
 -1       328 5.19600E+00 1.76250E+01 0.00000E+00
 -1       329 5.19600E+00 1.46750E+01 0.00000E+00
 -1       330 5.19600E+00 1.17250E+01 0.00000E+00
 -1       331 5.19600E+00 8.77500E+00 0.00000E+00
 -1       332 5.19600E+00 5.82500E+00 0.00000E+00
 -1       333 5.53500E+00 4.00625E+00 0.00000E+00
 -1       334 8.53500E+00 4.00625E+00 0.00000E+00
 -1       335 4.56118E+01 3.46140E+01 0.00000E+00
 -1       336 9.15000E+00 4.48040E+01 0.00000E+00
 -1       337 1.21500E+01 4.48040E+01 0.00000E+00
 -1       338 1.51500E+01 4.48040E+01 0.00000E+00
 -1       339 1.81500E+01 4.48040E+01 0.00000E+00
 -1       340 2.11500E+01 4.48040E+01 0.00000E+00
 -1       341 2.41500E+01 4.48040E+01 0.00000E+00
 -1       342 2.71500E+01 4.48040E+01 0.00000E+00
 -1       343 3.01500E+01 4.48040E+01 0.00000E+00
 -1       344 3.31500E+01 4.48040E+01 0.00000E+00
 -1       345 3.61500E+01 4.48040E+01 0.00000E+00
 -1       346 3.91500E+01 4.48040E+01 0.00000E+00
 -1       347 4.21500E+01 4.48040E+01 0.00000E+00
 -1       348 4.51500E+01 4.48040E+01 0.00000E+00
 -1       349 4.81500E+01 4.48040E+01 0.00000E+00
 -1       350 5.11500E+01 4.48040E+01 0.00000E+00
 -1       351 5.41500E+01 4.48040E+01 0.00000E+00
 -1       352 5.71500E+01 4.48040E+01 0.00000E+00
 -1       353 6.01500E+01 4.48040E+01 0.00000E+00
 -1       354 6.31500E+01 4.48040E+01 0.00000E+00
 -1       355 6.61500E+01 4.48040E+01 0.00000E+00
 -1       356 6.91500E+01 4.48040E+01 0.00000E+00
 -1       357 7.21500E+01 4.48040E+01 0.00000E+00
 -1       358 7.51500E+01 4.48040E+01 0.00000E+00
 -1       359 7.81500E+01 4.48040E+01 0.00000E+00
 -1       360 8.11500E+01 4.48040E+01 0.00000E+00
 -1       361 8.41500E+01 4.48040E+01 0.00000E+00
 -1       362 8.71500E+01 4.48040E+01 0.00000E+00
 -1       363 9.01500E+01 4.48040E+01 0.00000E+00
 -1       364 9.31500E+01 4.48040E+01 0.00000E+00
 -1       365 9.61500E+01 4.48040E+01 0.00000E+00
 -1       366 9.91500E+01 4.48040E+01 0.00000E+00
 -1       367 1.02150E+02 4.48040E+01 0.00000E+00
 -1       368 1.05150E+02 4.48040E+01 0.00000E+00
 -1       369 1.08150E+02 4.48040E+01 0.00000E+00
 -1       370 1.11150E+02 4.48040E+01 0.00000E+00
 -1       371 1.14150E+02 4.48040E+01 0.00000E+00
 -1       372 1.17150E+02 4.48040E+01 0.00000E+00
 -1       373 1.20150E+02 4.48040E+01 0.00000E+00
 -1       374 1.23150E+02 4.48040E+01 0.00000E+00
 -1       375 1.26150E+02 4.48040E+01 0.00000E+00
 -1       376 1.29150E+02 4.48040E+01 0.00000E+00
 -1       377 1.32150E+02 4.48040E+01 0.00000E+00
 -1       378 1.35150E+02 4.48040E+01 0.00000E+00
 -1       379 1.38150E+02 4.48040E+01 0.00000E+00
 -1       380 1.41150E+02 4.48040E+01 0.00000E+00
 -1       381 1.43838E+02 4.49212E+01 0.00000E+00
 -1       382 1.15350E+01 4.00625E+00 0.00000E+00
 -1       383 1.45350E+01 4.00625E+00 0.00000E+00
 -1       384 1.75350E+01 4.00625E+00 0.00000E+00
 -1       385 2.05350E+01 4.00625E+00 0.00000E+00
 -1       386 2.35350E+01 4.00625E+00 0.00000E+00
 -1       387 2.65350E+01 4.00625E+00 0.00000E+00
 -1       388 2.95350E+01 4.00625E+00 0.00000E+00
 -1       389 3.25350E+01 4.00625E+00 0.00000E+00
 -1       390 3.55350E+01 4.00625E+00 0.00000E+00
 -1       391 3.85350E+01 4.00625E+00 0.00000E+00
 -1       392 4.15350E+01 4.00625E+00 0.00000E+00
 -1       393 4.45350E+01 4.00625E+00 0.00000E+00
 -1       394 4.75350E+01 4.00625E+00 0.00000E+00
 -1       395 5.05350E+01 4.00625E+00 0.00000E+00
 -1       396 5.35350E+01 4.00625E+00 0.00000E+00
 -1       397 5.65350E+01 4.00625E+00 0.00000E+00
 -1       398 5.95350E+01 4.00625E+00 0.00000E+00
 -1       399 6.25350E+01 4.00625E+00 0.00000E+00
 -1       400 6.55350E+01 4.00625E+00 0.00000E+00
 -1       401 6.85350E+01 4.00625E+00 0.00000E+00
 -1       402 7.15350E+01 4.00625E+00 0.00000E+00
 -1       403 7.45350E+01 4.00625E+00 0.00000E+00
 -1       404 7.75350E+01 4.00625E+00 0.00000E+00
 -1       405 8.05350E+01 4.00625E+00 0.00000E+00
 -1       406 8.35350E+01 4.00625E+00 0.00000E+00
 -1       407 8.65350E+01 4.00625E+00 0.00000E+00
 -1       408 8.95350E+01 4.00625E+00 0.00000E+00
 -1       409 9.25350E+01 4.00625E+00 0.00000E+00
 -1       410 9.55350E+01 4.00625E+00 0.00000E+00
 -1       411 9.85350E+01 4.00625E+00 0.00000E+00
 -1       412 1.01535E+02 4.00625E+00 0.00000E+00
 -1       413 1.04535E+02 4.00625E+00 0.00000E+00
 -1       414 1.07535E+02 4.00625E+00 0.00000E+00
 -1       415 1.10535E+02 4.00625E+00 0.00000E+00
 -1       416 1.13535E+02 4.00625E+00 0.00000E+00
 -1       417 1.16535E+02 4.00625E+00 0.00000E+00
 -1       418 1.19535E+02 4.00625E+00 0.00000E+00
 -1       419 1.22535E+02 4.00625E+00 0.00000E+00
 -1       420 1.25535E+02 4.00625E+00 0.00000E+00
 -1       421 1.28535E+02 4.00625E+00 0.00000E+00
 -1       422 1.31535E+02 4.00625E+00 0.00000E+00
 -1       423 1.34535E+02 4.00625E+00 0.00000E+00
 -1       424 1.37535E+02 4.00625E+00 0.00000E+00
 -1       425 1.40535E+02 4.00625E+00 0.00000E+00
 -1       426 1.43535E+02 4.00625E+00 0.00000E+00
 -1       427 1.45469E+02 4.21562E+00 0.00000E+00
 -1       428 1.44804E+02 1.18000E+01 0.00000E+00
 -1       429 1.44804E+02 8.85000E+00 0.00000E+00
 -1       430 1.45136E+02 6.53281E+00 0.00000E+00
 -1       431 1.44804E+02 1.47000E+01 0.00000E+00
 -1       432 1.44804E+02 1.76500E+01 0.00000E+00
 -1       433 1.44804E+02 2.06000E+01 0.00000E+00
 -1       434 1.44804E+02 2.35500E+01 0.00000E+00
 -1       435 1.44804E+02 2.65000E+01 0.00000E+00
 -1       436 1.44804E+02 2.94500E+01 0.00000E+00
 -1       437 1.44804E+02 3.23500E+01 0.00000E+00
 -1       438 1.44804E+02 3.53000E+01 0.00000E+00
 -1       439 1.44804E+02 3.82500E+01 0.00000E+00
 -1       440 1.44804E+02 4.12000E+01 0.00000E+00
 -1       441 5.82432E+01 2.14980E+01 0.00000E+00
 -1       442 5.90543E+01 2.57658E+01 0.00000E+00
 -1       443 5.89776E+01 2.38994E+01 0.00000E+00
 -1       444 5.70345E+01 1.98644E+01 0.00000E+00
 -1       445 4.36787E+01 3.38654E+01 0.00000E+00
 -1       446 4.97836E+01 3.56059E+01 0.00000E+00
 -1       447 5.56866E+01 1.85318E+01 0.00000E+00
 -1       448 5.19600E+00 3.82125E+01 0.00000E+00
 -1       449 5.20239E+01 1.66513E+01 0.00000E+00
 -1       450 4.98818E+01 1.61580E+01 0.00000E+00
 -1       451 4.79220E+01 1.64943E+01 0.00000E+00
 -1       452 4.59509E+01 1.68874E+01 0.00000E+00
 -1       453 4.41746E+01 1.77877E+01 0.00000E+00
 -1       454 4.25709E+01 1.92611E+01 0.00000E+00
 -1       455 4.14206E+01 2.08374E+01 0.00000E+00
 -1       456 4.06135E+01 2.25376E+01 0.00000E+00
 -1       457 4.01040E+01 2.47053E+01 0.00000E+00
 -1       458 3.99090E+01 2.66228E+01 0.00000E+00
 -1       459 4.05481E+01 2.85704E+01 0.00000E+00
 -1       460 4.12641E+01 3.04509E+01 0.00000E+00
 -1       461 4.21770E+01 3.19853E+01 0.00000E+00
 -1       462 4.79966E+01 3.53535E+01 0.00000E+00
 -1       463 5.21776E+01 3.51578E+01 0.00000E+00
 -1       464 5.40747E+01 3.44161E+01 0.00000E+00
 -1       465 5.56562E+01 3.31537E+01 0.00000E+00
 -1       466 5.71890E+01 3.14142E+01 0.00000E+00
 -1       467 5.82384E+01 2.99064E+01 0.00000E+00
 -1       468 5.89970E+01 2.75896E+01 0.00000E+00
 -1       469 5.38979E+01 1.70528E+01 0.00000E+00
 -1       470 5.96250E+01 2.23530E+01 0.00000E+00
 -1       471 5.96164E+01 2.90452E+01 0.00000E+00
 -1       472 5.72359E+01 3.30708E+01 0.00000E+00
 -1       473 3.92907E+01 2.33694E+01 0.00000E+00
 -1       474 1.00350E+01 6.60425E+00 0.00000E+00
 -1       475 7.79400E+00 3.08500E+01 0.00000E+00
 -1       476 7.79400E+00 3.38000E+01 0.00000E+00
 -1       477 7.79400E+00 2.49500E+01 0.00000E+00
 -1       478 7.79400E+00 2.20000E+01 0.00000E+00
 -1       479 7.79400E+00 1.91000E+01 0.00000E+00
 -1       480 7.79400E+00 1.61500E+01 0.00000E+00
 -1       481 7.79400E+00 1.32000E+01 0.00000E+00
 -1       482 7.79400E+00 1.02500E+01 0.00000E+00
 -1       483 1.06500E+01 4.22060E+01 0.00000E+00
 -1       484 4.63210E+01 3.65419E+01 0.00000E+00
 -1       485 1.30350E+01 6.60425E+00 0.00000E+00
 -1       486 7.92300E+00 4.16780E+01 0.00000E+00
 -1       487 1.36500E+01 4.22060E+01 0.00000E+00
 -1       488 1.66500E+01 4.22060E+01 0.00000E+00
 -1       489 1.96500E+01 4.22060E+01 0.00000E+00
 -1       490 2.26500E+01 4.22060E+01 0.00000E+00
 -1       491 2.56500E+01 4.22060E+01 0.00000E+00
 -1       492 2.86500E+01 4.22060E+01 0.00000E+00
 -1       493 3.16500E+01 4.22060E+01 0.00000E+00
 -1       494 3.46500E+01 4.22060E+01 0.00000E+00
 -1       495 3.76500E+01 4.22060E+01 0.00000E+00
 -1       496 4.06500E+01 4.22060E+01 0.00000E+00
 -1       497 4.36500E+01 4.22060E+01 0.00000E+00
 -1       498 4.66500E+01 4.22060E+01 0.00000E+00
 -1       499 4.96500E+01 4.22060E+01 0.00000E+00
 -1       500 5.26500E+01 4.22060E+01 0.00000E+00
 -1       501 5.56500E+01 4.22060E+01 0.00000E+00
 -1       502 5.86500E+01 4.22060E+01 0.00000E+00
 -1       503 6.16500E+01 4.22060E+01 0.00000E+00
 -1       504 6.46500E+01 4.22060E+01 0.00000E+00
 -1       505 6.76500E+01 4.22060E+01 0.00000E+00
 -1       506 7.06500E+01 4.22060E+01 0.00000E+00
 -1       507 7.36500E+01 4.22060E+01 0.00000E+00
 -1       508 7.66500E+01 4.22060E+01 0.00000E+00
 -1       509 7.96500E+01 4.22060E+01 0.00000E+00
 -1       510 8.26500E+01 4.22060E+01 0.00000E+00
 -1       511 8.56500E+01 4.22060E+01 0.00000E+00
 -1       512 8.86500E+01 4.22060E+01 0.00000E+00
 -1       513 9.16500E+01 4.22060E+01 0.00000E+00
 -1       514 9.46500E+01 4.22060E+01 0.00000E+00
 -1       515 9.76500E+01 4.22060E+01 0.00000E+00
 -1       516 1.00650E+02 4.22060E+01 0.00000E+00
 -1       517 1.03650E+02 4.22060E+01 0.00000E+00
 -1       518 1.06650E+02 4.22060E+01 0.00000E+00
 -1       519 1.09650E+02 4.22060E+01 0.00000E+00
 -1       520 1.12650E+02 4.22060E+01 0.00000E+00
 -1       521 1.15650E+02 4.22060E+01 0.00000E+00
 -1       522 1.18650E+02 4.22060E+01 0.00000E+00
 -1       523 1.21650E+02 4.22060E+01 0.00000E+00
 -1       524 1.24650E+02 4.22060E+01 0.00000E+00
 -1       525 1.27650E+02 4.22060E+01 0.00000E+00
 -1       526 1.30650E+02 4.22060E+01 0.00000E+00
 -1       527 1.33650E+02 4.22060E+01 0.00000E+00
 -1       528 1.36650E+02 4.22060E+01 0.00000E+00
 -1       529 1.39650E+02 4.22060E+01 0.00000E+00
 -1       530 1.90350E+01 6.60425E+00 0.00000E+00
 -1       531 2.20350E+01 6.60425E+00 0.00000E+00
 -1       532 2.50350E+01 6.60425E+00 0.00000E+00
 -1       533 2.80350E+01 6.60425E+00 0.00000E+00
 -1       534 3.10350E+01 6.60425E+00 0.00000E+00
 -1       535 3.40350E+01 6.60425E+00 0.00000E+00
 -1       536 3.70350E+01 6.60425E+00 0.00000E+00
 -1       537 4.00350E+01 6.60425E+00 0.00000E+00
 -1       538 4.30350E+01 6.60425E+00 0.00000E+00
 -1       539 4.60350E+01 6.60425E+00 0.00000E+00
 -1       540 4.90350E+01 6.60425E+00 0.00000E+00
 -1       541 5.20350E+01 6.60425E+00 0.00000E+00
 -1       542 5.50350E+01 6.60425E+00 0.00000E+00
 -1       543 5.80350E+01 6.60425E+00 0.00000E+00
 -1       544 6.10350E+01 6.60425E+00 0.00000E+00
 -1       545 6.40350E+01 6.60425E+00 0.00000E+00
 -1       546 6.70350E+01 6.60425E+00 0.00000E+00
 -1       547 7.00350E+01 6.60425E+00 0.00000E+00
 -1       548 7.30350E+01 6.60425E+00 0.00000E+00
 -1       549 7.60350E+01 6.60425E+00 0.00000E+00
 -1       550 7.90350E+01 6.60425E+00 0.00000E+00
 -1       551 8.20350E+01 6.60425E+00 0.00000E+00
 -1       552 8.50350E+01 6.60425E+00 0.00000E+00
 -1       553 8.80350E+01 6.60425E+00 0.00000E+00
 -1       554 9.10350E+01 6.60425E+00 0.00000E+00
 -1       555 9.40350E+01 6.60425E+00 0.00000E+00
 -1       556 9.70350E+01 6.60425E+00 0.00000E+00
 -1       557 1.00035E+02 6.60425E+00 0.00000E+00
 -1       558 1.03035E+02 6.60425E+00 0.00000E+00
 -1       559 1.06035E+02 6.60425E+00 0.00000E+00
 -1       560 1.09035E+02 6.60425E+00 0.00000E+00
 -1       561 1.12035E+02 6.60425E+00 0.00000E+00
 -1       562 1.15035E+02 6.60425E+00 0.00000E+00
 -1       563 1.18035E+02 6.60425E+00 0.00000E+00
 -1       564 1.21035E+02 6.60425E+00 0.00000E+00
 -1       565 1.24035E+02 6.60425E+00 0.00000E+00
 -1       566 1.27035E+02 6.60425E+00 0.00000E+00
 -1       567 1.30035E+02 6.60425E+00 0.00000E+00
 -1       568 1.33035E+02 6.60425E+00 0.00000E+00
 -1       569 1.36035E+02 6.60425E+00 0.00000E+00
 -1       570 1.39035E+02 6.60425E+00 0.00000E+00
 -1       571 1.42035E+02 6.60425E+00 0.00000E+00
 -1       572 1.42206E+02 1.61750E+01 0.00000E+00
 -1       573 1.42206E+02 1.91250E+01 0.00000E+00
 -1       574 1.42206E+02 1.03250E+01 0.00000E+00
 -1       575 1.42206E+02 1.32500E+01 0.00000E+00
 -1       576 1.42206E+02 2.20750E+01 0.00000E+00
 -1       577 1.42206E+02 2.50250E+01 0.00000E+00
 -1       578 1.42206E+02 2.79750E+01 0.00000E+00
 -1       579 1.42206E+02 3.08750E+01 0.00000E+00
 -1       580 1.42206E+02 3.38250E+01 0.00000E+00
 -1       581 1.42206E+02 3.67750E+01 0.00000E+00
 -1       582 1.42206E+02 3.97250E+01 0.00000E+00
 -1       583 5.89502E+01 1.97109E+01 0.00000E+00
 -1       584 5.58852E+01 1.64705E+01 0.00000E+00
 -1       585 1.60350E+01 6.60425E+00 0.00000E+00
 -1       586 6.03948E+01 2.47759E+01 0.00000E+00
 -1       587 4.17187E+01 3.38911E+01 0.00000E+00
 -1       588 5.75664E+01 1.79785E+01 0.00000E+00
 -1       589 4.06103E+01 1.90382E+01 0.00000E+00
 -1       590 7.79400E+00 2.79000E+01 0.00000E+00
 -1       591 5.13377E+01 1.47333E+01 0.00000E+00
 -1       592 4.86544E+01 1.48835E+01 0.00000E+00
 -1       593 4.66501E+01 1.52554E+01 0.00000E+00
 -1       594 4.42116E+01 1.56583E+01 0.00000E+00
 -1       595 4.22691E+01 1.73231E+01 0.00000E+00
 -1       596 5.12807E+01 3.69853E+01 0.00000E+00
 -1       597 3.96190E+01 2.10239E+01 0.00000E+00
 -1       598 3.84669E+01 2.55074E+01 0.00000E+00
 -1       599 3.89174E+01 2.80269E+01 0.00000E+00
 -1       600 4.02466E+01 3.20950E+01 0.00000E+00
 -1       601 4.86854E+01 3.69291E+01 0.00000E+00
 -1       602 5.37507E+01 3.63843E+01 0.00000E+00
 -1       603 5.32675E+01 1.54208E+01 0.00000E+00
 -1       604 3.93033E+01 3.01210E+01 0.00000E+00
 -1       605 5.59354E+01 3.51254E+01 0.00000E+00
 -1       606 5.91214E+01 3.16400E+01 0.00000E+00
 -1       607 6.06562E+01 2.67289E+01 0.00000E+00
 -1       608 7.61550E+00 6.21462E+00 0.00000E+00
 -1       609 4.40259E+01 3.58391E+01 0.00000E+00
 -1       610 7.79400E+00 3.67375E+01 0.00000E+00
 -1       611 6.03321E+01 2.05660E+01 0.00000E+00
 -1       612 1.41678E+02 4.22645E+01 0.00000E+00
 -1       613 5.52548E+01 1.48385E+01 0.00000E+00
 -1       614 6.10422E+01 2.32296E+01 0.00000E+00
 -1       615 3.74753E+01 2.69115E+01 0.00000E+00
 -1       616 6.12756E+01 2.81845E+01 0.00000E+00
 -1       617 6.04995E+01 3.07788E+01 0.00000E+00
 -1       618 4.20659E+01 3.58648E+01 0.00000E+00
 -1       619 1.03920E+01 2.05500E+01 0.00000E+00
 -1       620 1.03920E+01 2.35000E+01 0.00000E+00
 -1       621 1.03920E+01 1.46750E+01 0.00000E+00
 -1       622 1.03920E+01 1.17250E+01 0.00000E+00
 -1       623 1.21500E+01 3.96080E+01 0.00000E+00
 -1       624 3.79250E+01 3.19920E+01 0.00000E+00
 -1       625 1.15350E+01 9.20225E+00 0.00000E+00
 -1       626 2.65350E+01 9.20225E+00 0.00000E+00
 -1       627 1.51500E+01 3.96080E+01 0.00000E+00
 -1       628 1.81500E+01 3.96080E+01 0.00000E+00
 -1       629 2.11500E+01 3.96080E+01 0.00000E+00
 -1       630 2.41500E+01 3.96080E+01 0.00000E+00
 -1       631 2.71500E+01 3.96080E+01 0.00000E+00
 -1       632 3.01500E+01 3.96080E+01 0.00000E+00
 -1       633 3.31500E+01 3.96080E+01 0.00000E+00
 -1       634 3.61500E+01 3.96080E+01 0.00000E+00
 -1       635 3.91500E+01 3.96080E+01 0.00000E+00
 -1       636 4.21500E+01 3.96080E+01 0.00000E+00
 -1       637 4.51500E+01 3.96080E+01 0.00000E+00
 -1       638 4.81500E+01 3.96080E+01 0.00000E+00
 -1       639 5.11500E+01 3.96080E+01 0.00000E+00
 -1       640 5.41500E+01 3.96080E+01 0.00000E+00
 -1       641 5.71500E+01 3.96080E+01 0.00000E+00
 -1       642 6.01500E+01 3.96080E+01 0.00000E+00
 -1       643 6.31500E+01 3.96080E+01 0.00000E+00
 -1       644 6.61500E+01 3.96080E+01 0.00000E+00
 -1       645 6.91500E+01 3.96080E+01 0.00000E+00
 -1       646 7.21500E+01 3.96080E+01 0.00000E+00
 -1       647 7.51500E+01 3.96080E+01 0.00000E+00
 -1       648 7.81500E+01 3.96080E+01 0.00000E+00
 -1       649 8.11500E+01 3.96080E+01 0.00000E+00
 -1       650 8.41500E+01 3.96080E+01 0.00000E+00
 -1       651 8.71500E+01 3.96080E+01 0.00000E+00
 -1       652 9.01500E+01 3.96080E+01 0.00000E+00
 -1       653 9.31500E+01 3.96080E+01 0.00000E+00
 -1       654 9.61500E+01 3.96080E+01 0.00000E+00
 -1       655 9.91500E+01 3.96080E+01 0.00000E+00
 -1       656 1.02150E+02 3.96080E+01 0.00000E+00
 -1       657 1.05150E+02 3.96080E+01 0.00000E+00
 -1       658 1.08150E+02 3.96080E+01 0.00000E+00
 -1       659 1.11150E+02 3.96080E+01 0.00000E+00
 -1       660 1.14150E+02 3.96080E+01 0.00000E+00
 -1       661 1.17150E+02 3.96080E+01 0.00000E+00
 -1       662 1.20150E+02 3.96080E+01 0.00000E+00
 -1       663 1.23150E+02 3.96080E+01 0.00000E+00
 -1       664 1.26150E+02 3.96080E+01 0.00000E+00
 -1       665 1.29150E+02 3.96080E+01 0.00000E+00
 -1       666 1.32150E+02 3.96080E+01 0.00000E+00
 -1       667 1.35150E+02 3.96080E+01 0.00000E+00
 -1       668 1.38150E+02 3.96080E+01 0.00000E+00
 -1       669 2.35350E+01 9.20225E+00 0.00000E+00
 -1       670 3.72588E+01 2.94151E+01 0.00000E+00
 -1       671 2.05350E+01 9.20225E+00 0.00000E+00
 -1       672 2.95350E+01 9.20225E+00 0.00000E+00
 -1       673 3.25350E+01 9.20225E+00 0.00000E+00
 -1       674 3.55350E+01 9.20225E+00 0.00000E+00
 -1       675 3.85350E+01 9.20225E+00 0.00000E+00
 -1       676 4.15350E+01 9.20225E+00 0.00000E+00
 -1       677 4.45350E+01 9.20225E+00 0.00000E+00
 -1       678 4.75350E+01 9.20225E+00 0.00000E+00
 -1       679 5.05350E+01 9.20225E+00 0.00000E+00
 -1       680 5.35350E+01 9.20225E+00 0.00000E+00
 -1       681 5.65350E+01 9.20225E+00 0.00000E+00
 -1       682 5.95350E+01 9.20225E+00 0.00000E+00
 -1       683 6.25350E+01 9.20225E+00 0.00000E+00
 -1       684 6.55350E+01 9.20225E+00 0.00000E+00
 -1       685 6.85350E+01 9.20225E+00 0.00000E+00
 -1       686 7.15350E+01 9.20225E+00 0.00000E+00
 -1       687 7.45350E+01 9.20225E+00 0.00000E+00
 -1       688 7.75350E+01 9.20225E+00 0.00000E+00
 -1       689 8.05350E+01 9.20225E+00 0.00000E+00
 -1       690 8.35350E+01 9.20225E+00 0.00000E+00
 -1       691 8.65350E+01 9.20225E+00 0.00000E+00
 -1       692 8.95350E+01 9.20225E+00 0.00000E+00
 -1       693 9.25350E+01 9.20225E+00 0.00000E+00
 -1       694 9.55350E+01 9.20225E+00 0.00000E+00
 -1       695 9.85350E+01 9.20225E+00 0.00000E+00
 -1       696 1.01535E+02 9.20225E+00 0.00000E+00
 -1       697 1.04535E+02 9.20225E+00 0.00000E+00
 -1       698 1.07535E+02 9.20225E+00 0.00000E+00
 -1       699 1.10535E+02 9.20225E+00 0.00000E+00
 -1       700 1.13535E+02 9.20225E+00 0.00000E+00
 -1       701 1.16535E+02 9.20225E+00 0.00000E+00
 -1       702 1.19535E+02 9.20225E+00 0.00000E+00
 -1       703 1.22535E+02 9.20225E+00 0.00000E+00
 -1       704 1.25535E+02 9.20225E+00 0.00000E+00
 -1       705 1.28535E+02 9.20225E+00 0.00000E+00
 -1       706 1.31535E+02 9.20225E+00 0.00000E+00
 -1       707 1.34535E+02 9.20225E+00 0.00000E+00
 -1       708 1.37535E+02 9.20225E+00 0.00000E+00
 -1       709 1.39870E+02 9.76363E+00 0.00000E+00
 -1       710 1.39608E+02 2.35500E+01 0.00000E+00
 -1       711 1.39608E+02 1.76500E+01 0.00000E+00
 -1       712 1.39608E+02 2.65000E+01 0.00000E+00
 -1       713 1.39608E+02 2.06000E+01 0.00000E+00
 -1       714 1.75350E+01 9.20225E+00 0.00000E+00
 -1       715 1.39608E+02 2.94000E+01 0.00000E+00
 -1       716 1.39608E+02 3.23500E+01 0.00000E+00
 -1       717 1.39608E+02 3.53000E+01 0.00000E+00
 -1       718 5.80947E+01 1.56982E+01 0.00000E+00
 -1       719 4.99002E+01 1.30960E+01 0.00000E+00
 -1       720 5.95984E+01 1.77743E+01 0.00000E+00
 -1       721 5.91648E+01 3.36549E+01 0.00000E+00
 -1       722 5.78643E+01 3.57095E+01 0.00000E+00
 -1       723 1.40178E+02 3.96665E+01 0.00000E+00
 -1       724 6.22254E+01 2.55248E+01 0.00000E+00
 -1       725 4.20152E+01 1.50612E+01 0.00000E+00
 -1       726 5.57830E+01 3.73861E+01 0.00000E+00
 -1       727 1.03920E+01 1.76125E+01 0.00000E+00
 -1       728 1.03920E+01 3.23250E+01 0.00000E+00
 -1       729 3.72784E+01 2.38218E+01 0.00000E+00
 -1       730 4.51513E+01 1.37646E+01 0.00000E+00
 -1       731 3.93969E+01 3.42927E+01 0.00000E+00
 -1       732 3.86551E+01 1.93024E+01 0.00000E+00
 -1       733 3.76067E+01 2.14762E+01 0.00000E+00
 -1       734 4.71555E+01 1.33928E+01 0.00000E+00
 -1       735 4.02068E+01 1.69883E+01 0.00000E+00
 -1       736 1.45350E+01 9.20225E+00 0.00000E+00
 -1       737 5.33130E+01 3.79871E+01 0.00000E+00
 -1       738 4.46222E+01 3.79906E+01 0.00000E+00
 -1       739 5.28782E+01 1.34614E+01 0.00000E+00
 -1       740 1.03920E+01 3.52625E+01 0.00000E+00
 -1       741 1.03920E+01 2.64500E+01 0.00000E+00
 -1       742 6.05429E+01 3.27937E+01 0.00000E+00
 -1       743 6.09803E+01 1.86293E+01 0.00000E+00
 -1       744 1.39870E+02 1.26886E+01 0.00000E+00
 -1       745 5.74644E+01 1.40662E+01 0.00000E+00
 -1       746 6.17493E+01 2.14425E+01 0.00000E+00
 -1       747 3.97442E+01 3.62664E+01 0.00000E+00
 -1       748 6.28448E+01 2.69804E+01 0.00000E+00
 -1       749 4.29549E+01 1.31676E+01 0.00000E+00
 -1       750 6.21586E+01 2.99181E+01 0.00000E+00
 -1       751 3.62867E+01 2.52258E+01 0.00000E+00
 -1       752 4.99459E+01 3.86719E+01 0.00000E+00
 -1       753 1.39739E+02 1.51693E+01 0.00000E+00
 -1       754 1.03920E+01 2.93875E+01 0.00000E+00
 -1       755 1.05210E+01 3.87342E+01 0.00000E+00
 -1       756 1.38879E+02 3.74540E+01 0.00000E+00
 -1       757 4.72260E+01 3.84280E+01 0.00000E+00
 -1       758 1.29900E+01 1.32000E+01 0.00000E+00
 -1       759 5.51784E+01 1.22310E+01 0.00000E+00
 -1       760 2.80350E+01 1.18003E+01 0.00000E+00
 -1       761 1.66500E+01 3.70100E+01 0.00000E+00
 -1       762 1.96500E+01 3.70100E+01 0.00000E+00
 -1       763 2.26500E+01 3.70100E+01 0.00000E+00
 -1       764 2.56500E+01 3.70100E+01 0.00000E+00
 -1       765 2.86500E+01 3.70100E+01 0.00000E+00
 -1       766 3.16500E+01 3.70100E+01 0.00000E+00
 -1       767 3.46500E+01 3.70100E+01 0.00000E+00
 -1       768 5.86500E+01 3.73902E+01 0.00000E+00
 -1       769 6.16500E+01 3.73902E+01 0.00000E+00
 -1       770 6.46500E+01 3.73902E+01 0.00000E+00
 -1       771 6.76500E+01 3.73902E+01 0.00000E+00
 -1       772 7.06500E+01 3.73902E+01 0.00000E+00
 -1       773 7.36500E+01 3.73902E+01 0.00000E+00
 -1       774 7.66500E+01 3.73902E+01 0.00000E+00
 -1       775 7.96500E+01 3.73902E+01 0.00000E+00
 -1       776 8.26500E+01 3.73902E+01 0.00000E+00
 -1       777 8.56500E+01 3.73902E+01 0.00000E+00
 -1       778 8.86500E+01 3.73902E+01 0.00000E+00
 -1       779 9.16500E+01 3.73902E+01 0.00000E+00
 -1       780 9.46500E+01 3.73902E+01 0.00000E+00
 -1       781 9.76500E+01 3.73902E+01 0.00000E+00
 -1       782 1.00650E+02 3.73902E+01 0.00000E+00
 -1       783 1.03650E+02 3.73902E+01 0.00000E+00
 -1       784 1.06650E+02 3.73902E+01 0.00000E+00
 -1       785 1.09650E+02 3.73902E+01 0.00000E+00
 -1       786 1.12650E+02 3.73902E+01 0.00000E+00
 -1       787 1.15650E+02 3.73902E+01 0.00000E+00
 -1       788 1.18650E+02 3.73902E+01 0.00000E+00
 -1       789 1.21650E+02 3.73902E+01 0.00000E+00
 -1       790 1.24650E+02 3.73902E+01 0.00000E+00
 -1       791 1.27650E+02 3.73902E+01 0.00000E+00
 -1       792 1.30650E+02 3.73902E+01 0.00000E+00
 -1       793 1.33650E+02 3.73902E+01 0.00000E+00
 -1       794 1.36264E+02 3.74221E+01 0.00000E+00
 -1       795 2.50350E+01 1.18003E+01 0.00000E+00
 -1       796 3.53244E+01 2.79867E+01 0.00000E+00
 -1       797 1.37010E+02 2.79500E+01 0.00000E+00
 -1       798 3.40350E+01 1.18003E+01 0.00000E+00
 -1       799 3.70350E+01 1.18003E+01 0.00000E+00
 -1       800 4.00350E+01 1.18003E+01 0.00000E+00
 -1       801 6.40350E+01 1.18003E+01 0.00000E+00
 -1       802 6.70350E+01 1.18003E+01 0.00000E+00
 -1       803 7.00350E+01 1.18003E+01 0.00000E+00
 -1       804 7.30350E+01 1.18003E+01 0.00000E+00
 -1       805 7.60350E+01 1.18003E+01 0.00000E+00
 -1       806 7.90350E+01 1.18003E+01 0.00000E+00
 -1       807 8.20350E+01 1.18003E+01 0.00000E+00
 -1       808 8.50350E+01 1.18003E+01 0.00000E+00
 -1       809 8.80350E+01 1.18003E+01 0.00000E+00
 -1       810 9.10350E+01 1.18003E+01 0.00000E+00
 -1       811 9.40350E+01 1.18003E+01 0.00000E+00
 -1       812 9.70350E+01 1.18003E+01 0.00000E+00
 -1       813 1.00035E+02 1.18003E+01 0.00000E+00
 -1       814 1.03035E+02 1.18003E+01 0.00000E+00
 -1       815 1.06035E+02 1.18003E+01 0.00000E+00
 -1       816 1.09035E+02 1.18003E+01 0.00000E+00
 -1       817 1.12035E+02 1.18003E+01 0.00000E+00
 -1       818 1.15035E+02 1.18003E+01 0.00000E+00
 -1       819 1.18035E+02 1.18003E+01 0.00000E+00
 -1       820 1.21035E+02 1.18003E+01 0.00000E+00
 -1       821 1.24035E+02 1.18003E+01 0.00000E+00
 -1       822 1.27035E+02 1.18003E+01 0.00000E+00
 -1       823 1.30035E+02 1.18003E+01 0.00000E+00
 -1       824 1.33035E+02 1.18003E+01 0.00000E+00
 -1       825 1.36035E+02 1.18003E+01 0.00000E+00
 -1       826 1.37953E+02 1.22444E+01 0.00000E+00
 -1       827 1.90350E+01 1.18003E+01 0.00000E+00
 -1       828 3.67928E+01 3.43375E+01 0.00000E+00
 -1       829 1.37010E+02 2.50000E+01 0.00000E+00
 -1       830 6.03713E+01 1.56319E+01 0.00000E+00
 -1       831 1.37010E+02 3.38250E+01 0.00000E+00
 -1       832 3.54121E+01 2.23648E+01 0.00000E+00
 -1       833 3.97381E+01 1.47365E+01 0.00000E+00
 -1       834 3.54447E+01 3.12587E+01 0.00000E+00
 -1       835 1.37010E+02 3.08875E+01 0.00000E+00
 -1       836 2.20350E+01 1.18003E+01 0.00000E+00
 -1       837 1.36500E+01 3.70100E+01 0.00000E+00
 -1       838 4.30751E+01 3.80696E+01 0.00000E+00
 -1       839 6.33072E+01 2.35145E+01 0.00000E+00
 -1       840 3.10350E+01 1.18003E+01 0.00000E+00
 -1       841 1.29900E+01 2.20250E+01 0.00000E+00
 -1       842 1.37625E+01 1.12011E+01 0.00000E+00
 -1       843 1.20210E+01 3.61362E+01 0.00000E+00
 -1       844 3.62842E+01 1.94987E+01 0.00000E+00
 -1       845 3.75890E+01 1.69102E+01 0.00000E+00
 -1       846 1.29900E+01 2.49750E+01 0.00000E+00
 -1       847 6.22020E+01 3.19330E+01 0.00000E+00
 -1       848 1.36637E+02 3.56235E+01 0.00000E+00
 -1       849 3.44205E+01 2.37689E+01 0.00000E+00
 -1       850 6.17532E+01 1.64869E+01 0.00000E+00
 -1       851 3.77735E+01 3.69504E+01 0.00000E+00
 -1       852 6.10350E+01 1.18003E+01 0.00000E+00
 -1       853 1.37010E+02 1.91250E+01 0.00000E+00
 -1       854 1.29900E+01 3.08563E+01 0.00000E+00
 -1       855 5.97410E+01 1.39999E+01 0.00000E+00
 -1       856 1.37010E+02 2.20625E+01 0.00000E+00
 -1       857 6.23975E+01 1.95058E+01 0.00000E+00
 -1       858 1.25055E+01 3.34963E+01 0.00000E+00
 -1       859 6.39266E+01 2.49701E+01 0.00000E+00
 -1       860 6.37279E+01 2.87140E+01 0.00000E+00
 -1       861 1.29900E+01 1.61375E+01 0.00000E+00
 -1       862 6.02469E+01 3.57788E+01 0.00000E+00
 -1       863 6.16249E+01 3.49176E+01 0.00000E+00
 -1       864 1.37141E+02 1.66443E+01 0.00000E+00
 -1       865 1.29900E+01 1.90812E+01 0.00000E+00
 -1       866 1.63988E+01 1.15007E+01 0.00000E+00
 -1       867 1.29900E+01 2.79188E+01 0.00000E+00
 -1       868 2.11500E+01 3.44120E+01 0.00000E+00
 -1       869 2.41500E+01 3.44120E+01 0.00000E+00
 -1       870 2.71500E+01 3.44120E+01 0.00000E+00
 -1       871 3.01500E+01 3.44120E+01 0.00000E+00
 -1       872 3.31500E+01 3.44120E+01 0.00000E+00
 -1       873 3.51058E+01 1.72816E+01 0.00000E+00
 -1       874 6.61500E+01 3.47922E+01 0.00000E+00
 -1       875 6.91500E+01 3.47922E+01 0.00000E+00
 -1       876 7.21500E+01 3.47922E+01 0.00000E+00
 -1       877 7.51500E+01 3.47922E+01 0.00000E+00
 -1       878 7.81500E+01 3.47922E+01 0.00000E+00
 -1       879 8.11500E+01 3.47922E+01 0.00000E+00
 -1       880 8.41500E+01 3.47922E+01 0.00000E+00
 -1       881 8.71500E+01 3.47922E+01 0.00000E+00
 -1       882 9.01500E+01 3.47922E+01 0.00000E+00
 -1       883 9.31500E+01 3.47922E+01 0.00000E+00
 -1       884 9.61500E+01 3.47922E+01 0.00000E+00
 -1       885 9.91500E+01 3.47922E+01 0.00000E+00
 -1       886 1.02150E+02 3.47922E+01 0.00000E+00
 -1       887 1.05150E+02 3.47922E+01 0.00000E+00
 -1       888 1.08150E+02 3.47922E+01 0.00000E+00
 -1       889 1.11150E+02 3.47922E+01 0.00000E+00
 -1       890 1.14150E+02 3.47922E+01 0.00000E+00
 -1       891 1.17150E+02 3.47922E+01 0.00000E+00
 -1       892 1.20150E+02 3.47922E+01 0.00000E+00
 -1       893 1.23150E+02 3.47922E+01 0.00000E+00
 -1       894 1.26150E+02 3.47922E+01 0.00000E+00
 -1       895 1.29150E+02 3.47922E+01 0.00000E+00
 -1       896 1.32150E+02 3.47922E+01 0.00000E+00
 -1       897 3.55350E+01 1.43982E+01 0.00000E+00
 -1       898 6.55350E+01 1.43982E+01 0.00000E+00
 -1       899 7.45350E+01 1.43982E+01 0.00000E+00
 -1       900 7.75350E+01 1.43982E+01 0.00000E+00
 -1       901 8.05350E+01 1.43982E+01 0.00000E+00
 -1       902 8.35350E+01 1.43982E+01 0.00000E+00
 -1       903 8.65350E+01 1.43982E+01 0.00000E+00
 -1       904 8.95350E+01 1.43982E+01 0.00000E+00
 -1       905 9.25350E+01 1.43982E+01 0.00000E+00
 -1       906 9.55350E+01 1.43982E+01 0.00000E+00
 -1       907 9.85350E+01 1.43982E+01 0.00000E+00
 -1       908 1.01535E+02 1.43982E+01 0.00000E+00
 -1       909 1.04535E+02 1.43982E+01 0.00000E+00
 -1       910 1.07535E+02 1.43982E+01 0.00000E+00
 -1       911 1.10535E+02 1.43982E+01 0.00000E+00
 -1       912 1.13535E+02 1.43982E+01 0.00000E+00
 -1       913 1.16535E+02 1.43982E+01 0.00000E+00
 -1       914 1.19535E+02 1.43982E+01 0.00000E+00
 -1       915 1.22535E+02 1.43982E+01 0.00000E+00
 -1       916 1.25535E+02 1.43982E+01 0.00000E+00
 -1       917 1.28535E+02 1.43982E+01 0.00000E+00
 -1       918 1.31535E+02 1.43982E+01 0.00000E+00
 -1       919 1.34535E+02 1.43982E+01 0.00000E+00
 -1       920 3.25350E+01 1.43982E+01 0.00000E+00
 -1       921 1.34412E+02 2.64750E+01 0.00000E+00
 -1       922 2.05350E+01 1.43982E+01 0.00000E+00
 -1       923 7.15350E+01 1.43982E+01 0.00000E+00
 -1       924 6.85350E+01 1.43982E+01 0.00000E+00
 -1       925 3.35661E+01 2.02373E+01 0.00000E+00
 -1       926 3.31682E+01 2.97042E+01 0.00000E+00
 -1       927 6.41670E+01 2.12464E+01 0.00000E+00
 -1       928 2.95350E+01 1.43982E+01 0.00000E+00
 -1       929 1.37547E+02 1.44444E+01 0.00000E+00
 -1       930 3.34581E+01 2.65297E+01 0.00000E+00
 -1       931 1.41345E+01 3.43700E+01 0.00000E+00
 -1       932 2.35350E+01 1.43982E+01 0.00000E+00
 -1       933 2.65350E+01 1.43982E+01 0.00000E+00
 -1       934 1.81500E+01 3.44120E+01 0.00000E+00
 -1       935 6.37712E+01 3.07290E+01 0.00000E+00
 -1       936 3.25744E+01 2.16414E+01 0.00000E+00
 -1       937 1.34394E+02 3.52079E+01 0.00000E+00
 -1       938 6.31704E+01 1.73635E+01 0.00000E+00
 -1       939 1.78988E+01 1.40987E+01 0.00000E+00
 -1       940 1.55880E+01 2.35000E+01 0.00000E+00
 -1       941 1.55880E+01 2.05562E+01 0.00000E+00
 -1       942 1.34412E+02 2.35375E+01 0.00000E+00
 -1       943 1.46190E+01 3.17300E+01 0.00000E+00
 -1       944 1.34766E+02 3.34093E+01 0.00000E+00
 -1       945 6.58119E+01 2.33084E+01 0.00000E+00
 -1       946 6.48097E+01 2.67038E+01 0.00000E+00
 -1       947 1.34412E+02 2.06000E+01 0.00000E+00
 -1       948 1.55880E+01 1.46687E+01 0.00000E+00
 -1       949 1.34543E+02 1.81193E+01 0.00000E+00
 -1       950 3.16591E+01 3.20581E+01 0.00000E+00
 -1       951 1.46190E+01 2.87925E+01 0.00000E+00
 -1       952 1.34412E+02 2.94125E+01 0.00000E+00
 -1       953 6.25350E+01 1.43982E+01 0.00000E+00
 -1       954 2.26500E+01 3.18140E+01 0.00000E+00
 -1       955 2.56500E+01 3.18140E+01 0.00000E+00
 -1       956 2.86500E+01 3.18140E+01 0.00000E+00
 -1       957 2.50350E+01 1.69963E+01 0.00000E+00
 -1       958 6.76500E+01 3.21942E+01 0.00000E+00
 -1       959 3.10350E+01 1.69963E+01 0.00000E+00
 -1       960 7.06500E+01 3.21942E+01 0.00000E+00
 -1       961 7.36500E+01 3.21942E+01 0.00000E+00
 -1       962 7.66500E+01 3.21942E+01 0.00000E+00
 -1       963 7.96500E+01 3.21942E+01 0.00000E+00
 -1       964 8.26500E+01 3.21942E+01 0.00000E+00
 -1       965 8.56500E+01 3.21942E+01 0.00000E+00
 -1       966 8.86500E+01 3.21942E+01 0.00000E+00
 -1       967 9.16500E+01 3.21942E+01 0.00000E+00
 -1       968 9.46500E+01 3.21942E+01 0.00000E+00
 -1       969 9.76500E+01 3.21942E+01 0.00000E+00
 -1       970 1.00650E+02 3.21942E+01 0.00000E+00
 -1       971 1.03650E+02 3.21942E+01 0.00000E+00
 -1       972 1.06650E+02 3.21942E+01 0.00000E+00
 -1       973 1.09650E+02 3.21942E+01 0.00000E+00
 -1       974 1.12650E+02 3.21942E+01 0.00000E+00
 -1       975 1.15650E+02 3.21942E+01 0.00000E+00
 -1       976 1.18650E+02 3.21942E+01 0.00000E+00
 -1       977 1.21650E+02 3.21942E+01 0.00000E+00
 -1       978 1.24650E+02 3.21942E+01 0.00000E+00
 -1       979 1.27650E+02 3.21942E+01 0.00000E+00
 -1       980 1.30650E+02 3.21942E+01 0.00000E+00
 -1       981 8.20350E+01 1.69963E+01 0.00000E+00
 -1       982 7.90350E+01 1.69963E+01 0.00000E+00
 -1       983 7.60350E+01 1.69963E+01 0.00000E+00
 -1       984 8.50350E+01 1.69963E+01 0.00000E+00
 -1       985 8.80350E+01 1.69963E+01 0.00000E+00
 -1       986 9.10350E+01 1.69963E+01 0.00000E+00
 -1       987 9.40350E+01 1.69963E+01 0.00000E+00
 -1       988 9.70350E+01 1.69963E+01 0.00000E+00
 -1       989 1.00035E+02 1.69963E+01 0.00000E+00
 -1       990 1.03035E+02 1.69963E+01 0.00000E+00
 -1       991 1.06035E+02 1.69963E+01 0.00000E+00
 -1       992 1.09035E+02 1.69963E+01 0.00000E+00
 -1       993 1.12035E+02 1.69963E+01 0.00000E+00
 -1       994 1.15035E+02 1.69963E+01 0.00000E+00
 -1       995 1.18035E+02 1.69963E+01 0.00000E+00
 -1       996 1.21035E+02 1.69963E+01 0.00000E+00
 -1       997 1.24035E+02 1.69963E+01 0.00000E+00
 -1       998 1.27035E+02 1.69963E+01 0.00000E+00
 -1       999 1.30035E+02 1.69963E+01 0.00000E+00
 -1      1000 7.30350E+01 1.69963E+01 0.00000E+00
 -1      1001 6.49399E+01 1.91040E+01 0.00000E+00
 -1      1002 1.51035E+01 2.61462E+01 0.00000E+00
 -1      1003 6.43527E+01 1.58809E+01 0.00000E+00
 -1      1004 3.11046E+01 2.79153E+01 0.00000E+00
 -1      1005 1.96500E+01 3.18140E+01 0.00000E+00
 -1      1006 1.55880E+01 1.76125E+01 0.00000E+00
 -1      1007 6.66949E+01 2.50420E+01 0.00000E+00
 -1      1008 6.65848E+01 2.11660E+01 0.00000E+00
 -1      1009 3.16121E+01 2.44022E+01 0.00000E+00
 -1      1010 2.80350E+01 1.69963E+01 0.00000E+00
 -1      1011 2.20350E+01 1.69963E+01 0.00000E+00
 -1      1012 1.71345E+01 3.03032E+01 0.00000E+00
 -1      1013 1.78988E+01 1.70424E+01 0.00000E+00
 -1      1014 6.73527E+01 1.58809E+01 0.00000E+00
 -1      1015 1.81860E+01 2.20281E+01 0.00000E+00
 -1      1016 1.81676E+01 2.50245E+01 0.00000E+00
 -1      1017 3.05526E+01 1.99818E+01 0.00000E+00
 -1      1018 1.33035E+02 1.69963E+01 0.00000E+00
 -1      1019 1.31814E+02 2.50063E+01 0.00000E+00
 -1      1020 7.00350E+01 1.69963E+01 0.00000E+00
 -1      1021 6.59266E+01 2.86011E+01 0.00000E+00
 -1      1022 6.84422E+01 2.30467E+01 0.00000E+00
 -1      1023 1.31814E+02 2.20688E+01 0.00000E+00
 -1      1024 1.31945E+02 1.95881E+01 0.00000E+00
 -1      1025 1.31814E+02 2.79438E+01 0.00000E+00
 -1      1026 1.80424E+01 1.95353E+01 0.00000E+00
 -1      1027 2.71500E+01 2.92160E+01 0.00000E+00
 -1      1028 2.07748E+01 2.35422E+01 0.00000E+00
 -1      1029 6.91500E+01 2.95962E+01 0.00000E+00
 -1      1030 7.21500E+01 2.95962E+01 0.00000E+00
 -1      1031 7.51500E+01 2.95962E+01 0.00000E+00
 -1      1032 7.81500E+01 2.95962E+01 0.00000E+00
 -1      1033 8.11500E+01 2.95962E+01 0.00000E+00
 -1      1034 8.41500E+01 2.95962E+01 0.00000E+00
 -1      1035 8.71500E+01 2.95962E+01 0.00000E+00
 -1      1036 9.01500E+01 2.95962E+01 0.00000E+00
 -1      1037 9.31500E+01 2.95962E+01 0.00000E+00
 -1      1038 9.61500E+01 2.95962E+01 0.00000E+00
 -1      1039 9.91500E+01 2.95962E+01 0.00000E+00
 -1      1040 1.02150E+02 2.95962E+01 0.00000E+00
 -1      1041 1.05150E+02 2.95962E+01 0.00000E+00
 -1      1042 1.08150E+02 2.95962E+01 0.00000E+00
 -1      1043 1.11150E+02 2.95962E+01 0.00000E+00
 -1      1044 1.14150E+02 2.95962E+01 0.00000E+00
 -1      1045 1.17150E+02 2.95962E+01 0.00000E+00
 -1      1046 1.20150E+02 2.95962E+01 0.00000E+00
 -1      1047 1.23150E+02 2.95962E+01 0.00000E+00
 -1      1048 1.26150E+02 2.95962E+01 0.00000E+00
 -1      1049 1.29150E+02 2.95962E+01 0.00000E+00
 -1      1050 8.65350E+01 1.95942E+01 0.00000E+00
 -1      1051 8.35350E+01 1.95942E+01 0.00000E+00
 -1      1052 2.91633E+01 2.58416E+01 0.00000E+00
 -1      1053 7.75350E+01 1.95942E+01 0.00000E+00
 -1      1054 8.95350E+01 1.95942E+01 0.00000E+00
 -1      1055 9.25350E+01 1.95942E+01 0.00000E+00
 -1      1056 9.55350E+01 1.95942E+01 0.00000E+00
 -1      1057 9.85350E+01 1.95942E+01 0.00000E+00
 -1      1058 1.01535E+02 1.95942E+01 0.00000E+00
 -1      1059 1.04535E+02 1.95942E+01 0.00000E+00
 -1      1060 1.07535E+02 1.95942E+01 0.00000E+00
 -1      1061 1.10535E+02 1.95942E+01 0.00000E+00
 -1      1062 1.13535E+02 1.95942E+01 0.00000E+00
 -1      1063 1.16535E+02 1.95942E+01 0.00000E+00
 -1      1064 1.19535E+02 1.95942E+01 0.00000E+00
 -1      1065 1.22535E+02 1.95942E+01 0.00000E+00
 -1      1066 1.25535E+02 1.95942E+01 0.00000E+00
 -1      1067 1.28535E+02 1.95942E+01 0.00000E+00
 -1      1068 1.29216E+02 2.35375E+01 0.00000E+00
 -1      1069 6.61222E+01 1.76214E+01 0.00000E+00
 -1      1070 6.78119E+01 2.69393E+01 0.00000E+00
 -1      1071 1.76831E+01 2.76708E+01 0.00000E+00
 -1      1072 6.93620E+01 2.02808E+01 0.00000E+00
 -1      1073 2.95902E+01 2.27427E+01 0.00000E+00
 -1      1074 2.11500E+01 2.92160E+01 0.00000E+00
 -1      1075 2.65350E+01 1.95942E+01 0.00000E+00
 -1      1076 6.95591E+01 2.49440E+01 0.00000E+00
 -1      1077 7.45350E+01 1.95942E+01 0.00000E+00
 -1      1078 8.05350E+01 1.95942E+01 0.00000E+00
 -1      1079 6.77421E+01 1.89511E+01 0.00000E+00
 -1      1080 2.41500E+01 2.92160E+01 0.00000E+00
 -1      1081 2.35350E+01 1.95942E+01 0.00000E+00
 -1      1082 7.13673E+01 2.24836E+01 0.00000E+00
 -1      1083 2.06311E+01 2.10494E+01 0.00000E+00
 -1      1084 2.07552E+01 2.65419E+01 0.00000E+00
 -1      1085 6.62894E+01 3.11240E+01 0.00000E+00
 -1      1086 1.29216E+02 2.64750E+01 0.00000E+00
 -1      1087 2.36786E+01 2.20871E+01 0.00000E+00
 -1      1088 2.36591E+01 2.50867E+01 0.00000E+00
 -1      1089 7.36500E+01 2.69982E+01 0.00000E+00
 -1      1090 7.66500E+01 2.69982E+01 0.00000E+00
 -1      1091 7.96500E+01 2.69982E+01 0.00000E+00
 -1      1092 8.26500E+01 2.69982E+01 0.00000E+00
 -1      1093 8.56500E+01 2.69982E+01 0.00000E+00
 -1      1094 8.86500E+01 2.69982E+01 0.00000E+00
 -1      1095 9.16500E+01 2.69982E+01 0.00000E+00
 -1      1096 9.46500E+01 2.69982E+01 0.00000E+00
 -1      1097 9.76500E+01 2.69982E+01 0.00000E+00
 -1      1098 1.00650E+02 2.69982E+01 0.00000E+00
 -1      1099 1.03650E+02 2.69982E+01 0.00000E+00
 -1      1100 1.06650E+02 2.69982E+01 0.00000E+00
 -1      1101 1.09650E+02 2.69982E+01 0.00000E+00
 -1      1102 1.12650E+02 2.69982E+01 0.00000E+00
 -1      1103 1.15650E+02 2.69982E+01 0.00000E+00
 -1      1104 1.18650E+02 2.69982E+01 0.00000E+00
 -1      1105 1.21650E+02 2.69982E+01 0.00000E+00
 -1      1106 1.24650E+02 2.69982E+01 0.00000E+00
 -1      1107 1.26933E+02 2.67366E+01 0.00000E+00
 -1      1108 9.10350E+01 2.21922E+01 0.00000E+00
 -1      1109 9.40350E+01 2.21922E+01 0.00000E+00
 -1      1110 9.70350E+01 2.21922E+01 0.00000E+00
 -1      1111 1.00035E+02 2.21922E+01 0.00000E+00
 -1      1112 1.03035E+02 2.21922E+01 0.00000E+00
 -1      1113 1.06035E+02 2.21922E+01 0.00000E+00
 -1      1114 1.09035E+02 2.21922E+01 0.00000E+00
 -1      1115 1.12035E+02 2.21922E+01 0.00000E+00
 -1      1116 1.15035E+02 2.21922E+01 0.00000E+00
 -1      1117 1.18035E+02 2.21922E+01 0.00000E+00
 -1      1118 1.21035E+02 2.21922E+01 0.00000E+00
 -1      1119 1.24035E+02 2.21922E+01 0.00000E+00
 -1      1120 1.26626E+02 2.28649E+01 0.00000E+00
 -1      1121 2.68477E+01 2.39437E+01 0.00000E+00
 -1      1122 7.90350E+01 2.21922E+01 0.00000E+00
 -1      1123 7.08546E+01 2.72701E+01 0.00000E+00
 -1      1124 2.39046E+01 2.71514E+01 0.00000E+00
 -1      1125 7.60350E+01 2.21922E+01 0.00000E+00
 -1      1126 8.20350E+01 2.21922E+01 0.00000E+00
 -1      1127 8.80350E+01 2.21922E+01 0.00000E+00
 -1      1128 8.50350E+01 2.21922E+01 0.00000E+00
 -1      1129 2.59256E+01 2.61977E+01 0.00000E+00
 -1      1130 9.25350E+01 2.47903E+01 0.00000E+00
 -1      1131 9.61500E+01 2.44002E+01 0.00000E+00
 -1      1132 0.00000E+00 4.85250E+01 0.00000E+00
 -1      1133 0.00000E+00 4.55750E+01 0.00000E+00
 -1      1134 0.00000E+00 4.26250E+01 0.00000E+00
 -1      1135 0.00000E+00 3.96750E+01 0.00000E+00
 -1      1136 0.00000E+00 3.67250E+01 0.00000E+00
 -1      1137 0.00000E+00 3.38000E+01 0.00000E+00
 -1      1138 0.00000E+00 3.08750E+01 0.00000E+00
 -1      1139 0.00000E+00 2.79250E+01 0.00000E+00
 -1      1140 0.00000E+00 2.49750E+01 0.00000E+00
 -1      1141 0.00000E+00 2.20250E+01 0.00000E+00
 -1      1142 0.00000E+00 1.90750E+01 0.00000E+00
 -1      1143 0.00000E+00 1.61500E+01 0.00000E+00
 -1      1144 0.00000E+00 1.32250E+01 0.00000E+00
 -1      1145 0.00000E+00 1.02750E+01 0.00000E+00
 -1      1146 0.00000E+00 7.32500E+00 0.00000E+00
 -1      1147 0.00000E+00 4.37500E+00 0.00000E+00
 -1      1148 0.00000E+00 1.45000E+00 0.00000E+00
 -1      1149 1.57500E+00 5.00000E+01 0.00000E+00
 -1      1150 4.65000E+00 5.00000E+01 0.00000E+00
 -1      1151 7.65000E+00 5.00000E+01 0.00000E+00
 -1      1152 1.06500E+01 5.00000E+01 0.00000E+00
 -1      1153 1.36500E+01 5.00000E+01 0.00000E+00
 -1      1154 1.66500E+01 5.00000E+01 0.00000E+00
 -1      1155 1.96500E+01 5.00000E+01 0.00000E+00
 -1      1156 2.26500E+01 5.00000E+01 0.00000E+00
 -1      1157 2.56500E+01 5.00000E+01 0.00000E+00
 -1      1158 2.86500E+01 5.00000E+01 0.00000E+00
 -1      1159 3.16500E+01 5.00000E+01 0.00000E+00
 -1      1160 3.46500E+01 5.00000E+01 0.00000E+00
 -1      1161 3.76500E+01 5.00000E+01 0.00000E+00
 -1      1162 4.06500E+01 5.00000E+01 0.00000E+00
 -1      1163 4.36500E+01 5.00000E+01 0.00000E+00
 -1      1164 4.66500E+01 5.00000E+01 0.00000E+00
 -1      1165 4.96500E+01 5.00000E+01 0.00000E+00
 -1      1166 5.26500E+01 5.00000E+01 0.00000E+00
 -1      1167 5.56500E+01 5.00000E+01 0.00000E+00
 -1      1168 5.86500E+01 5.00000E+01 0.00000E+00
 -1      1169 6.16500E+01 5.00000E+01 0.00000E+00
 -1      1170 6.46500E+01 5.00000E+01 0.00000E+00
 -1      1171 6.76500E+01 5.00000E+01 0.00000E+00
 -1      1172 7.06500E+01 5.00000E+01 0.00000E+00
 -1      1173 7.36500E+01 5.00000E+01 0.00000E+00
 -1      1174 7.66500E+01 5.00000E+01 0.00000E+00
 -1      1175 7.96500E+01 5.00000E+01 0.00000E+00
 -1      1176 8.26500E+01 5.00000E+01 0.00000E+00
 -1      1177 8.56500E+01 5.00000E+01 0.00000E+00
 -1      1178 8.86500E+01 5.00000E+01 0.00000E+00
 -1      1179 9.16500E+01 5.00000E+01 0.00000E+00
 -1      1180 9.46500E+01 5.00000E+01 0.00000E+00
 -1      1181 9.76500E+01 5.00000E+01 0.00000E+00
 -1      1182 1.00650E+02 5.00000E+01 0.00000E+00
 -1      1183 1.03650E+02 5.00000E+01 0.00000E+00
 -1      1184 1.06650E+02 5.00000E+01 0.00000E+00
 -1      1185 1.09650E+02 5.00000E+01 0.00000E+00
 -1      1186 1.12650E+02 5.00000E+01 0.00000E+00
 -1      1187 1.15650E+02 5.00000E+01 0.00000E+00
 -1      1188 1.18650E+02 5.00000E+01 0.00000E+00
 -1      1189 1.21650E+02 5.00000E+01 0.00000E+00
 -1      1190 1.24650E+02 5.00000E+01 0.00000E+00
 -1      1191 1.27650E+02 5.00000E+01 0.00000E+00
 -1      1192 1.30650E+02 5.00000E+01 0.00000E+00
 -1      1193 1.33650E+02 5.00000E+01 0.00000E+00
 -1      1194 1.36650E+02 5.00000E+01 0.00000E+00
 -1      1195 1.39650E+02 5.00000E+01 0.00000E+00
 -1      1196 1.42650E+02 5.00000E+01 0.00000E+00
 -1      1197 1.45650E+02 5.00000E+01 0.00000E+00
 -1      1198 1.48575E+02 5.00000E+01 0.00000E+00
 -1      1199 1.57500E+00 0.00000E+00 0.00000E+00
 -1      1200 4.65000E+00 0.00000E+00 0.00000E+00
 -1      1201 7.65000E+00 0.00000E+00 0.00000E+00
 -1      1202 1.06500E+01 0.00000E+00 0.00000E+00
 -1      1203 1.36500E+01 0.00000E+00 0.00000E+00
 -1      1204 1.66500E+01 0.00000E+00 0.00000E+00
 -1      1205 1.96500E+01 0.00000E+00 0.00000E+00
 -1      1206 2.26500E+01 0.00000E+00 0.00000E+00
 -1      1207 2.56500E+01 0.00000E+00 0.00000E+00
 -1      1208 2.86500E+01 0.00000E+00 0.00000E+00
 -1      1209 3.16500E+01 0.00000E+00 0.00000E+00
 -1      1210 3.46500E+01 0.00000E+00 0.00000E+00
 -1      1211 3.76500E+01 0.00000E+00 0.00000E+00
 -1      1212 4.06500E+01 0.00000E+00 0.00000E+00
 -1      1213 4.36500E+01 0.00000E+00 0.00000E+00
 -1      1214 4.66500E+01 0.00000E+00 0.00000E+00
 -1      1215 4.96500E+01 0.00000E+00 0.00000E+00
 -1      1216 5.26500E+01 0.00000E+00 0.00000E+00
 -1      1217 5.56500E+01 0.00000E+00 0.00000E+00
 -1      1218 5.86500E+01 0.00000E+00 0.00000E+00
 -1      1219 6.16500E+01 0.00000E+00 0.00000E+00
 -1      1220 6.46500E+01 0.00000E+00 0.00000E+00
 -1      1221 6.76500E+01 0.00000E+00 0.00000E+00
 -1      1222 7.06500E+01 0.00000E+00 0.00000E+00
 -1      1223 7.36500E+01 0.00000E+00 0.00000E+00
 -1      1224 7.66500E+01 0.00000E+00 0.00000E+00
 -1      1225 7.96500E+01 0.00000E+00 0.00000E+00
 -1      1226 8.26500E+01 0.00000E+00 0.00000E+00
 -1      1227 8.56500E+01 0.00000E+00 0.00000E+00
 -1      1228 8.86500E+01 0.00000E+00 0.00000E+00
 -1      1229 9.16500E+01 0.00000E+00 0.00000E+00
 -1      1230 9.46500E+01 0.00000E+00 0.00000E+00
 -1      1231 9.76500E+01 0.00000E+00 0.00000E+00
 -1      1232 1.00650E+02 0.00000E+00 0.00000E+00
 -1      1233 1.03650E+02 0.00000E+00 0.00000E+00
 -1      1234 1.06650E+02 0.00000E+00 0.00000E+00
 -1      1235 1.09650E+02 0.00000E+00 0.00000E+00
 -1      1236 1.12650E+02 0.00000E+00 0.00000E+00
 -1      1237 1.15650E+02 0.00000E+00 0.00000E+00
 -1      1238 1.18650E+02 0.00000E+00 0.00000E+00
 -1      1239 1.21650E+02 0.00000E+00 0.00000E+00
 -1      1240 1.24650E+02 0.00000E+00 0.00000E+00
 -1      1241 1.27650E+02 0.00000E+00 0.00000E+00
 -1      1242 1.30650E+02 0.00000E+00 0.00000E+00
 -1      1243 1.33650E+02 0.00000E+00 0.00000E+00
 -1      1244 1.36650E+02 0.00000E+00 0.00000E+00
 -1      1245 1.39650E+02 0.00000E+00 0.00000E+00
 -1      1246 1.42650E+02 0.00000E+00 0.00000E+00
 -1      1247 1.45650E+02 0.00000E+00 0.00000E+00
 -1      1248 1.48575E+02 0.00000E+00 0.00000E+00
 -1      1249 1.50000E+02 1.47500E+00 0.00000E+00
 -1      1250 1.50000E+02 4.42500E+00 0.00000E+00
 -1      1251 1.50000E+02 7.37500E+00 0.00000E+00
 -1      1252 1.50000E+02 1.03250E+01 0.00000E+00
 -1      1253 1.50000E+02 1.32750E+01 0.00000E+00
 -1      1254 1.50000E+02 1.62000E+01 0.00000E+00
 -1      1255 1.50000E+02 1.91250E+01 0.00000E+00
 -1      1256 1.50000E+02 2.20750E+01 0.00000E+00
 -1      1257 1.50000E+02 2.50250E+01 0.00000E+00
 -1      1258 1.50000E+02 2.79750E+01 0.00000E+00
 -1      1259 1.50000E+02 3.09250E+01 0.00000E+00
 -1      1260 1.50000E+02 3.38500E+01 0.00000E+00
 -1      1261 1.50000E+02 3.67750E+01 0.00000E+00
 -1      1262 1.50000E+02 3.97250E+01 0.00000E+00
 -1      1263 1.50000E+02 4.26750E+01 0.00000E+00
 -1      1264 1.50000E+02 4.56250E+01 0.00000E+00
 -1      1265 1.50000E+02 4.85500E+01 0.00000E+00
 -1      1266 5.65062E+01 2.50353E+01 0.00000E+00
 -1      1267 5.61739E+01 2.35273E+01 0.00000E+00
 -1      1268 5.55016E+01 2.21005E+01 0.00000E+00
 -1      1269 5.45632E+01 2.08974E+01 0.00000E+00
 -1      1270 5.34017E+01 1.99363E+01 0.00000E+00
 -1      1271 5.20744E+01 1.92513E+01 0.00000E+00
 -1      1272 5.05914E+01 1.88571E+01 0.00000E+00
 -1      1273 4.90689E+01 1.87949E+01 0.00000E+00
 -1      1274 4.76257E+01 1.90471E+01 0.00000E+00
 -1      1275 4.62483E+01 1.96040E+01 0.00000E+00
 -1      1276 4.50033E+01 2.04527E+01 0.00000E+00
 -1      1277 4.39763E+01 2.15383E+01 0.00000E+00
 -1      1278 4.32183E+01 2.27850E+01 0.00000E+00
 -1      1279 4.27309E+01 2.41795E+01 0.00000E+00
 -1      1280 4.25472E+01 2.56411E+01 0.00000E+00
 -1      1281 4.26766E+01 2.71251E+01 0.00000E+00
 -1      1282 4.31222E+01 2.85603E+01 0.00000E+00
 -1      1283 4.38434E+01 2.98384E+01 0.00000E+00
 -1      1284 4.48186E+01 3.09413E+01 0.00000E+00
 -1      1285 4.60591E+01 3.18484E+01 0.00000E+00
 -1      1286 4.75302E+01 3.24822E+01 0.00000E+00
 -1      1287 4.90419E+01 3.27605E+01 0.00000E+00
 -1      1288 5.05758E+01 3.27024E+01 0.00000E+00
 -1      1289 5.21002E+01 3.22959E+01 0.00000E+00
 -1      1290 5.34559E+01 3.15848E+01 0.00000E+00
 -1      1291 5.46383E+01 3.05814E+01 0.00000E+00
 -1      1292 5.55612E+01 2.93585E+01 0.00000E+00
 -1      1293 5.61913E+01 2.79782E+01 0.00000E+00
 -1      1294 5.65080E+01 2.65051E+01 0.00000E+00
 -1      1295 1.57500E+00 4.85250E+01 0.00000E+00
 -1      1296 1.29900E+00 4.48375E+01 0.00000E+00
 -1      1297 1.29900E+00 4.63125E+01 0.00000E+00
 -1      1298 1.29900E+00 4.18875E+01 0.00000E+00
 -1      1299 1.29900E+00 4.33625E+01 0.00000E+00
 -1      1300 2.59800E+00 4.41000E+01 0.00000E+00
 -1      1301 1.29900E+00 3.89375E+01 0.00000E+00
 -1      1302 1.29900E+00 4.04125E+01 0.00000E+00
 -1      1303 2.59800E+00 4.11500E+01 0.00000E+00
 -1      1304 1.29900E+00 3.59875E+01 0.00000E+00
 -1      1305 1.29900E+00 3.74625E+01 0.00000E+00
 -1      1306 2.59800E+00 3.82000E+01 0.00000E+00
 -1      1307 1.29900E+00 3.30875E+01 0.00000E+00
 -1      1308 1.29900E+00 3.45375E+01 0.00000E+00
 -1      1309 2.59800E+00 3.52750E+01 0.00000E+00
 -1      1310 1.29900E+00 3.01375E+01 0.00000E+00
 -1      1311 1.29900E+00 3.16125E+01 0.00000E+00
 -1      1312 2.59800E+00 3.23500E+01 0.00000E+00
 -1      1313 1.29900E+00 2.71875E+01 0.00000E+00
 -1      1314 1.29900E+00 2.86625E+01 0.00000E+00
 -1      1315 2.59800E+00 2.94000E+01 0.00000E+00
 -1      1316 1.29900E+00 2.42375E+01 0.00000E+00
 -1      1317 1.29900E+00 2.57125E+01 0.00000E+00
 -1      1318 2.59800E+00 2.64500E+01 0.00000E+00
 -1      1319 1.29900E+00 2.12875E+01 0.00000E+00
 -1      1320 1.29900E+00 2.27625E+01 0.00000E+00
 -1      1321 2.59800E+00 2.35000E+01 0.00000E+00
 -1      1322 1.29900E+00 1.83375E+01 0.00000E+00
 -1      1323 1.29900E+00 1.98125E+01 0.00000E+00
 -1      1324 2.59800E+00 2.05500E+01 0.00000E+00
 -1      1325 1.29900E+00 1.54375E+01 0.00000E+00
 -1      1326 1.29900E+00 1.68875E+01 0.00000E+00
 -1      1327 2.59800E+00 1.76250E+01 0.00000E+00
 -1      1328 1.29900E+00 1.24875E+01 0.00000E+00
 -1      1329 1.29900E+00 1.39625E+01 0.00000E+00
 -1      1330 2.59800E+00 1.47000E+01 0.00000E+00
 -1      1331 1.29900E+00 9.53750E+00 0.00000E+00
 -1      1332 1.29900E+00 1.10125E+01 0.00000E+00
 -1      1333 2.59800E+00 1.17500E+01 0.00000E+00
 -1      1334 1.29900E+00 6.58750E+00 0.00000E+00
 -1      1335 1.29900E+00 8.06250E+00 0.00000E+00
 -1      1336 2.59800E+00 8.80000E+00 0.00000E+00
 -1      1337 1.29900E+00 3.63750E+00 0.00000E+00
 -1      1338 1.29900E+00 5.11250E+00 0.00000E+00
 -1      1339 2.59800E+00 5.85000E+00 0.00000E+00
 -1      1340 1.43700E+00 1.09375E+00 0.00000E+00
 -1      1341 1.43700E+00 2.54375E+00 0.00000E+00
 -1      1342 2.73600E+00 3.28125E+00 0.00000E+00
 -1      1343 3.01200E+00 1.09375E+00 0.00000E+00
 -1      1344 3.90000E+00 4.87010E+01 0.00000E+00
 -1      1345 5.40000E+00 4.87010E+01 0.00000E+00
 -1      1346 6.90000E+00 4.87010E+01 0.00000E+00
 -1      1347 8.40000E+00 4.87010E+01 0.00000E+00
 -1      1348 6.15000E+00 4.74020E+01 0.00000E+00
 -1      1349 9.90000E+00 4.87010E+01 0.00000E+00
 -1      1350 1.14000E+01 4.87010E+01 0.00000E+00
 -1      1351 9.15000E+00 4.74020E+01 0.00000E+00
 -1      1352 1.29000E+01 4.87010E+01 0.00000E+00
 -1      1353 1.44000E+01 4.87010E+01 0.00000E+00
 -1      1354 1.21500E+01 4.74020E+01 0.00000E+00
 -1      1355 1.59000E+01 4.87010E+01 0.00000E+00
 -1      1356 1.74000E+01 4.87010E+01 0.00000E+00
 -1      1357 1.51500E+01 4.74020E+01 0.00000E+00
 -1      1358 1.89000E+01 4.87010E+01 0.00000E+00
 -1      1359 2.04000E+01 4.87010E+01 0.00000E+00
 -1      1360 1.81500E+01 4.74020E+01 0.00000E+00
 -1      1361 2.19000E+01 4.87010E+01 0.00000E+00
 -1      1362 2.34000E+01 4.87010E+01 0.00000E+00
 -1      1363 2.11500E+01 4.74020E+01 0.00000E+00
 -1      1364 2.49000E+01 4.87010E+01 0.00000E+00
 -1      1365 2.64000E+01 4.87010E+01 0.00000E+00
 -1      1366 2.41500E+01 4.74020E+01 0.00000E+00
 -1      1367 2.79000E+01 4.87010E+01 0.00000E+00
 -1      1368 2.94000E+01 4.87010E+01 0.00000E+00
 -1      1369 2.71500E+01 4.74020E+01 0.00000E+00
 -1      1370 3.09000E+01 4.87010E+01 0.00000E+00
 -1      1371 3.24000E+01 4.87010E+01 0.00000E+00
 -1      1372 3.01500E+01 4.74020E+01 0.00000E+00
 -1      1373 3.39000E+01 4.87010E+01 0.00000E+00
 -1      1374 3.54000E+01 4.87010E+01 0.00000E+00
 -1      1375 3.31500E+01 4.74020E+01 0.00000E+00
 -1      1376 3.69000E+01 4.87010E+01 0.00000E+00
 -1      1377 3.84000E+01 4.87010E+01 0.00000E+00
 -1      1378 3.61500E+01 4.74020E+01 0.00000E+00
 -1      1379 3.99000E+01 4.87010E+01 0.00000E+00
 -1      1380 4.14000E+01 4.87010E+01 0.00000E+00
 -1      1381 3.91500E+01 4.74020E+01 0.00000E+00
 -1      1382 4.29000E+01 4.87010E+01 0.00000E+00
 -1      1383 4.44000E+01 4.87010E+01 0.00000E+00
 -1      1384 4.21500E+01 4.74020E+01 0.00000E+00
 -1      1385 4.59000E+01 4.87010E+01 0.00000E+00
 -1      1386 4.74000E+01 4.87010E+01 0.00000E+00
 -1      1387 4.51500E+01 4.74020E+01 0.00000E+00
 -1      1388 4.89000E+01 4.87010E+01 0.00000E+00
 -1      1389 5.04000E+01 4.87010E+01 0.00000E+00
 -1      1390 4.81500E+01 4.74020E+01 0.00000E+00
 -1      1391 5.19000E+01 4.87010E+01 0.00000E+00
 -1      1392 5.34000E+01 4.87010E+01 0.00000E+00
 -1      1393 5.11500E+01 4.74020E+01 0.00000E+00
 -1      1394 5.49000E+01 4.87010E+01 0.00000E+00
 -1      1395 5.64000E+01 4.87010E+01 0.00000E+00
 -1      1396 5.41500E+01 4.74020E+01 0.00000E+00
 -1      1397 5.79000E+01 4.87010E+01 0.00000E+00
 -1      1398 5.94000E+01 4.87010E+01 0.00000E+00
 -1      1399 5.71500E+01 4.74020E+01 0.00000E+00
 -1      1400 6.09000E+01 4.87010E+01 0.00000E+00
 -1      1401 6.24000E+01 4.87010E+01 0.00000E+00
 -1      1402 6.01500E+01 4.74020E+01 0.00000E+00
 -1      1403 6.39000E+01 4.87010E+01 0.00000E+00
 -1      1404 6.54000E+01 4.87010E+01 0.00000E+00
 -1      1405 6.31500E+01 4.74020E+01 0.00000E+00
 -1      1406 6.69000E+01 4.87010E+01 0.00000E+00
 -1      1407 6.84000E+01 4.87010E+01 0.00000E+00
 -1      1408 6.61500E+01 4.74020E+01 0.00000E+00
 -1      1409 6.99000E+01 4.87010E+01 0.00000E+00
 -1      1410 7.14000E+01 4.87010E+01 0.00000E+00
 -1      1411 6.91500E+01 4.74020E+01 0.00000E+00
 -1      1412 7.29000E+01 4.87010E+01 0.00000E+00
 -1      1413 7.44000E+01 4.87010E+01 0.00000E+00
 -1      1414 7.21500E+01 4.74020E+01 0.00000E+00
 -1      1415 7.59000E+01 4.87010E+01 0.00000E+00
 -1      1416 7.74000E+01 4.87010E+01 0.00000E+00
 -1      1417 7.51500E+01 4.74020E+01 0.00000E+00
 -1      1418 7.89000E+01 4.87010E+01 0.00000E+00
 -1      1419 8.04000E+01 4.87010E+01 0.00000E+00
 -1      1420 7.81500E+01 4.74020E+01 0.00000E+00
 -1      1421 8.19000E+01 4.87010E+01 0.00000E+00
 -1      1422 8.34000E+01 4.87010E+01 0.00000E+00
 -1      1423 8.11500E+01 4.74020E+01 0.00000E+00
 -1      1424 8.49000E+01 4.87010E+01 0.00000E+00
 -1      1425 8.64000E+01 4.87010E+01 0.00000E+00
 -1      1426 8.41500E+01 4.74020E+01 0.00000E+00
 -1      1427 8.79000E+01 4.87010E+01 0.00000E+00
 -1      1428 8.94000E+01 4.87010E+01 0.00000E+00
 -1      1429 8.71500E+01 4.74020E+01 0.00000E+00
 -1      1430 9.09000E+01 4.87010E+01 0.00000E+00
 -1      1431 9.24000E+01 4.87010E+01 0.00000E+00
 -1      1432 9.01500E+01 4.74020E+01 0.00000E+00
 -1      1433 9.39000E+01 4.87010E+01 0.00000E+00
 -1      1434 9.54000E+01 4.87010E+01 0.00000E+00
 -1      1435 9.31500E+01 4.74020E+01 0.00000E+00
 -1      1436 9.69000E+01 4.87010E+01 0.00000E+00
 -1      1437 9.84000E+01 4.87010E+01 0.00000E+00
 -1      1438 9.61500E+01 4.74020E+01 0.00000E+00
 -1      1439 9.99000E+01 4.87010E+01 0.00000E+00
 -1      1440 1.01400E+02 4.87010E+01 0.00000E+00
 -1      1441 9.91500E+01 4.74020E+01 0.00000E+00
 -1      1442 1.02900E+02 4.87010E+01 0.00000E+00
 -1      1443 1.04400E+02 4.87010E+01 0.00000E+00
 -1      1444 1.02150E+02 4.74020E+01 0.00000E+00
 -1      1445 1.05900E+02 4.87010E+01 0.00000E+00
 -1      1446 1.07400E+02 4.87010E+01 0.00000E+00
 -1      1447 1.05150E+02 4.74020E+01 0.00000E+00
 -1      1448 1.08900E+02 4.87010E+01 0.00000E+00
 -1      1449 1.10400E+02 4.87010E+01 0.00000E+00
 -1      1450 1.08150E+02 4.74020E+01 0.00000E+00
 -1      1451 1.11900E+02 4.87010E+01 0.00000E+00
 -1      1452 1.13400E+02 4.87010E+01 0.00000E+00
 -1      1453 1.11150E+02 4.74020E+01 0.00000E+00
 -1      1454 1.14900E+02 4.87010E+01 0.00000E+00
 -1      1455 1.16400E+02 4.87010E+01 0.00000E+00
 -1      1456 1.14150E+02 4.74020E+01 0.00000E+00
 -1      1457 1.17900E+02 4.87010E+01 0.00000E+00
 -1      1458 1.19400E+02 4.87010E+01 0.00000E+00
 -1      1459 1.17150E+02 4.74020E+01 0.00000E+00
 -1      1460 1.20900E+02 4.87010E+01 0.00000E+00
 -1      1461 1.22400E+02 4.87010E+01 0.00000E+00
 -1      1462 1.20150E+02 4.74020E+01 0.00000E+00
 -1      1463 1.23900E+02 4.87010E+01 0.00000E+00
 -1      1464 1.25400E+02 4.87010E+01 0.00000E+00
 -1      1465 1.23150E+02 4.74020E+01 0.00000E+00
 -1      1466 1.26900E+02 4.87010E+01 0.00000E+00
 -1      1467 1.28400E+02 4.87010E+01 0.00000E+00
 -1      1468 1.26150E+02 4.74020E+01 0.00000E+00
 -1      1469 1.29900E+02 4.87010E+01 0.00000E+00
 -1      1470 1.31400E+02 4.87010E+01 0.00000E+00
 -1      1471 1.29150E+02 4.74020E+01 0.00000E+00
 -1      1472 1.32900E+02 4.87010E+01 0.00000E+00
 -1      1473 1.34400E+02 4.87010E+01 0.00000E+00
 -1      1474 1.32150E+02 4.74020E+01 0.00000E+00
 -1      1475 1.35900E+02 4.87010E+01 0.00000E+00
 -1      1476 1.37400E+02 4.87010E+01 0.00000E+00
 -1      1477 1.35150E+02 4.74020E+01 0.00000E+00
 -1      1478 1.38900E+02 4.87010E+01 0.00000E+00
 -1      1479 1.40400E+02 4.87010E+01 0.00000E+00
 -1      1480 1.38150E+02 4.74020E+01 0.00000E+00
 -1      1481 1.41900E+02 4.87010E+01 0.00000E+00
 -1      1482 1.43400E+02 4.87010E+01 0.00000E+00
 -1      1483 1.41150E+02 4.74020E+01 0.00000E+00
 -1      1484 1.44900E+02 4.87010E+01 0.00000E+00
 -1      1485 1.46400E+02 4.87010E+01 0.00000E+00
 -1      1486 1.44150E+02 4.74020E+01 0.00000E+00
 -1      1487 1.48575E+02 4.85500E+01 0.00000E+00
 -1      1488 1.47825E+02 4.72510E+01 0.00000E+00
 -1      1489 6.01200E+00 1.09375E+00 0.00000E+00
 -1      1490 4.51200E+00 1.09375E+00 0.00000E+00
 -1      1491 4.37400E+00 2.18750E+00 0.00000E+00
 -1      1492 9.01200E+00 1.09375E+00 0.00000E+00
 -1      1493 7.51200E+00 1.09375E+00 0.00000E+00
 -1      1494 7.37400E+00 2.18750E+00 0.00000E+00
 -1      1495 1.20120E+01 1.09375E+00 0.00000E+00
 -1      1496 1.05120E+01 1.09375E+00 0.00000E+00
 -1      1497 1.03740E+01 2.18750E+00 0.00000E+00
 -1      1498 1.50120E+01 1.09375E+00 0.00000E+00
 -1      1499 1.35120E+01 1.09375E+00 0.00000E+00
 -1      1500 1.33740E+01 2.18750E+00 0.00000E+00
 -1      1501 1.80120E+01 1.09375E+00 0.00000E+00
 -1      1502 1.65120E+01 1.09375E+00 0.00000E+00
 -1      1503 1.63740E+01 2.18750E+00 0.00000E+00
 -1      1504 2.10120E+01 1.09375E+00 0.00000E+00
 -1      1505 1.95120E+01 1.09375E+00 0.00000E+00
 -1      1506 1.93740E+01 2.18750E+00 0.00000E+00
 -1      1507 2.40120E+01 1.09375E+00 0.00000E+00
 -1      1508 2.25120E+01 1.09375E+00 0.00000E+00
 -1      1509 2.23740E+01 2.18750E+00 0.00000E+00
 -1      1510 2.70120E+01 1.09375E+00 0.00000E+00
 -1      1511 2.55120E+01 1.09375E+00 0.00000E+00
 -1      1512 2.53740E+01 2.18750E+00 0.00000E+00
 -1      1513 3.00120E+01 1.09375E+00 0.00000E+00
 -1      1514 2.85120E+01 1.09375E+00 0.00000E+00
 -1      1515 2.83740E+01 2.18750E+00 0.00000E+00
 -1      1516 3.30120E+01 1.09375E+00 0.00000E+00
 -1      1517 3.15120E+01 1.09375E+00 0.00000E+00
 -1      1518 3.13740E+01 2.18750E+00 0.00000E+00
 -1      1519 3.60120E+01 1.09375E+00 0.00000E+00
 -1      1520 3.45120E+01 1.09375E+00 0.00000E+00
 -1      1521 3.43740E+01 2.18750E+00 0.00000E+00
 -1      1522 3.90120E+01 1.09375E+00 0.00000E+00
 -1      1523 3.75120E+01 1.09375E+00 0.00000E+00
 -1      1524 3.73740E+01 2.18750E+00 0.00000E+00
 -1      1525 4.20120E+01 1.09375E+00 0.00000E+00
 -1      1526 4.05120E+01 1.09375E+00 0.00000E+00
 -1      1527 4.03740E+01 2.18750E+00 0.00000E+00
 -1      1528 4.50120E+01 1.09375E+00 0.00000E+00
 -1      1529 4.35120E+01 1.09375E+00 0.00000E+00
 -1      1530 4.33740E+01 2.18750E+00 0.00000E+00
 -1      1531 4.80120E+01 1.09375E+00 0.00000E+00
 -1      1532 4.65120E+01 1.09375E+00 0.00000E+00
 -1      1533 4.63740E+01 2.18750E+00 0.00000E+00
 -1      1534 5.10120E+01 1.09375E+00 0.00000E+00
 -1      1535 4.95120E+01 1.09375E+00 0.00000E+00
 -1      1536 4.93740E+01 2.18750E+00 0.00000E+00
 -1      1537 5.40120E+01 1.09375E+00 0.00000E+00
 -1      1538 5.25120E+01 1.09375E+00 0.00000E+00
 -1      1539 5.23740E+01 2.18750E+00 0.00000E+00
 -1      1540 5.70120E+01 1.09375E+00 0.00000E+00
 -1      1541 5.55120E+01 1.09375E+00 0.00000E+00
 -1      1542 5.53740E+01 2.18750E+00 0.00000E+00
 -1      1543 6.00120E+01 1.09375E+00 0.00000E+00
 -1      1544 5.85120E+01 1.09375E+00 0.00000E+00
 -1      1545 5.83740E+01 2.18750E+00 0.00000E+00
 -1      1546 6.30120E+01 1.09375E+00 0.00000E+00
 -1      1547 6.15120E+01 1.09375E+00 0.00000E+00
 -1      1548 6.13740E+01 2.18750E+00 0.00000E+00
 -1      1549 6.60120E+01 1.09375E+00 0.00000E+00
 -1      1550 6.45120E+01 1.09375E+00 0.00000E+00
 -1      1551 6.43740E+01 2.18750E+00 0.00000E+00
 -1      1552 6.90120E+01 1.09375E+00 0.00000E+00
 -1      1553 6.75120E+01 1.09375E+00 0.00000E+00
 -1      1554 6.73740E+01 2.18750E+00 0.00000E+00
 -1      1555 7.20120E+01 1.09375E+00 0.00000E+00
 -1      1556 7.05120E+01 1.09375E+00 0.00000E+00
 -1      1557 7.03740E+01 2.18750E+00 0.00000E+00
 -1      1558 7.50120E+01 1.09375E+00 0.00000E+00
 -1      1559 7.35120E+01 1.09375E+00 0.00000E+00
 -1      1560 7.33740E+01 2.18750E+00 0.00000E+00
 -1      1561 7.80120E+01 1.09375E+00 0.00000E+00
 -1      1562 7.65120E+01 1.09375E+00 0.00000E+00
 -1      1563 7.63740E+01 2.18750E+00 0.00000E+00
 -1      1564 8.10120E+01 1.09375E+00 0.00000E+00
 -1      1565 7.95120E+01 1.09375E+00 0.00000E+00
 -1      1566 7.93740E+01 2.18750E+00 0.00000E+00
 -1      1567 8.40120E+01 1.09375E+00 0.00000E+00
 -1      1568 8.25120E+01 1.09375E+00 0.00000E+00
 -1      1569 8.23740E+01 2.18750E+00 0.00000E+00
 -1      1570 8.70120E+01 1.09375E+00 0.00000E+00
 -1      1571 8.55120E+01 1.09375E+00 0.00000E+00
 -1      1572 8.53740E+01 2.18750E+00 0.00000E+00
 -1      1573 9.00120E+01 1.09375E+00 0.00000E+00
 -1      1574 8.85120E+01 1.09375E+00 0.00000E+00
 -1      1575 8.83740E+01 2.18750E+00 0.00000E+00
 -1      1576 9.30120E+01 1.09375E+00 0.00000E+00
 -1      1577 9.15120E+01 1.09375E+00 0.00000E+00
 -1      1578 9.13740E+01 2.18750E+00 0.00000E+00
 -1      1579 9.60120E+01 1.09375E+00 0.00000E+00
 -1      1580 9.45120E+01 1.09375E+00 0.00000E+00
 -1      1581 9.43740E+01 2.18750E+00 0.00000E+00
 -1      1582 9.90120E+01 1.09375E+00 0.00000E+00
 -1      1583 9.75120E+01 1.09375E+00 0.00000E+00
 -1      1584 9.73740E+01 2.18750E+00 0.00000E+00
 -1      1585 1.02012E+02 1.09375E+00 0.00000E+00
 -1      1586 1.00512E+02 1.09375E+00 0.00000E+00
 -1      1587 1.00374E+02 2.18750E+00 0.00000E+00
 -1      1588 1.05012E+02 1.09375E+00 0.00000E+00
 -1      1589 1.03512E+02 1.09375E+00 0.00000E+00
 -1      1590 1.03374E+02 2.18750E+00 0.00000E+00
 -1      1591 1.08012E+02 1.09375E+00 0.00000E+00
 -1      1592 1.06512E+02 1.09375E+00 0.00000E+00
 -1      1593 1.06374E+02 2.18750E+00 0.00000E+00
 -1      1594 1.11012E+02 1.09375E+00 0.00000E+00
 -1      1595 1.09512E+02 1.09375E+00 0.00000E+00
 -1      1596 1.09374E+02 2.18750E+00 0.00000E+00
 -1      1597 1.14012E+02 1.09375E+00 0.00000E+00
 -1      1598 1.12512E+02 1.09375E+00 0.00000E+00
 -1      1599 1.12374E+02 2.18750E+00 0.00000E+00
 -1      1600 1.17012E+02 1.09375E+00 0.00000E+00
 -1      1601 1.15512E+02 1.09375E+00 0.00000E+00
 -1      1602 1.15374E+02 2.18750E+00 0.00000E+00
 -1      1603 1.20012E+02 1.09375E+00 0.00000E+00
 -1      1604 1.18512E+02 1.09375E+00 0.00000E+00
 -1      1605 1.18374E+02 2.18750E+00 0.00000E+00
 -1      1606 1.23012E+02 1.09375E+00 0.00000E+00
 -1      1607 1.21512E+02 1.09375E+00 0.00000E+00
 -1      1608 1.21374E+02 2.18750E+00 0.00000E+00
 -1      1609 1.26012E+02 1.09375E+00 0.00000E+00
 -1      1610 1.24512E+02 1.09375E+00 0.00000E+00
 -1      1611 1.24374E+02 2.18750E+00 0.00000E+00
 -1      1612 1.29012E+02 1.09375E+00 0.00000E+00
 -1      1613 1.27512E+02 1.09375E+00 0.00000E+00
 -1      1614 1.27374E+02 2.18750E+00 0.00000E+00
 -1      1615 1.32012E+02 1.09375E+00 0.00000E+00
 -1      1616 1.30512E+02 1.09375E+00 0.00000E+00
 -1      1617 1.30374E+02 2.18750E+00 0.00000E+00
 -1      1618 1.35012E+02 1.09375E+00 0.00000E+00
 -1      1619 1.33512E+02 1.09375E+00 0.00000E+00
 -1      1620 1.33374E+02 2.18750E+00 0.00000E+00
 -1      1621 1.38012E+02 1.09375E+00 0.00000E+00
 -1      1622 1.36512E+02 1.09375E+00 0.00000E+00
 -1      1623 1.36374E+02 2.18750E+00 0.00000E+00
 -1      1624 1.41012E+02 1.09375E+00 0.00000E+00
 -1      1625 1.39512E+02 1.09375E+00 0.00000E+00
 -1      1626 1.39374E+02 2.18750E+00 0.00000E+00
 -1      1627 1.44012E+02 1.09375E+00 0.00000E+00
 -1      1628 1.42512E+02 1.09375E+00 0.00000E+00
 -1      1629 1.42374E+02 2.18750E+00 0.00000E+00
 -1      1630 1.47012E+02 1.09375E+00 0.00000E+00
 -1      1631 1.45512E+02 1.09375E+00 0.00000E+00
 -1      1632 1.45374E+02 2.18750E+00 0.00000E+00
 -1      1633 1.48575E+02 1.47500E+00 0.00000E+00
 -1      1634 1.48701E+02 5.16250E+00 0.00000E+00
 -1      1635 1.48701E+02 3.68750E+00 0.00000E+00
 -1      1636 1.48701E+02 8.11250E+00 0.00000E+00
 -1      1637 1.48701E+02 6.63750E+00 0.00000E+00
 -1      1638 1.47402E+02 5.90000E+00 0.00000E+00
 -1      1639 1.48701E+02 1.10625E+01 0.00000E+00
 -1      1640 1.48701E+02 9.58750E+00 0.00000E+00
 -1      1641 1.47402E+02 8.85000E+00 0.00000E+00
 -1      1642 1.48701E+02 1.40125E+01 0.00000E+00
 -1      1643 1.48701E+02 1.25375E+01 0.00000E+00
 -1      1644 1.47402E+02 1.18000E+01 0.00000E+00
 -1      1645 1.48701E+02 1.69125E+01 0.00000E+00
 -1      1646 1.48701E+02 1.54625E+01 0.00000E+00
 -1      1647 1.47402E+02 1.47250E+01 0.00000E+00
 -1      1648 1.48701E+02 1.98625E+01 0.00000E+00
 -1      1649 1.48701E+02 1.83875E+01 0.00000E+00
 -1      1650 1.47402E+02 1.76500E+01 0.00000E+00
 -1      1651 1.48701E+02 2.28125E+01 0.00000E+00
 -1      1652 1.48701E+02 2.13375E+01 0.00000E+00
 -1      1653 1.47402E+02 2.06000E+01 0.00000E+00
 -1      1654 1.48701E+02 2.57625E+01 0.00000E+00
 -1      1655 1.48701E+02 2.42875E+01 0.00000E+00
 -1      1656 1.47402E+02 2.35500E+01 0.00000E+00
 -1      1657 1.48701E+02 2.87125E+01 0.00000E+00
 -1      1658 1.48701E+02 2.72375E+01 0.00000E+00
 -1      1659 1.47402E+02 2.65000E+01 0.00000E+00
 -1      1660 1.48701E+02 3.16625E+01 0.00000E+00
 -1      1661 1.48701E+02 3.01875E+01 0.00000E+00
 -1      1662 1.47402E+02 2.94500E+01 0.00000E+00
 -1      1663 1.48701E+02 3.45625E+01 0.00000E+00
 -1      1664 1.48701E+02 3.31125E+01 0.00000E+00
 -1      1665 1.47402E+02 3.23750E+01 0.00000E+00
 -1      1666 1.48701E+02 3.75125E+01 0.00000E+00
 -1      1667 1.48701E+02 3.60375E+01 0.00000E+00
 -1      1668 1.47402E+02 3.53000E+01 0.00000E+00
 -1      1669 1.48701E+02 4.04625E+01 0.00000E+00
 -1      1670 1.48701E+02 3.89875E+01 0.00000E+00
 -1      1671 1.47402E+02 3.82500E+01 0.00000E+00
 -1      1672 1.48701E+02 4.34125E+01 0.00000E+00
 -1      1673 1.48701E+02 4.19375E+01 0.00000E+00
 -1      1674 1.47402E+02 4.12000E+01 0.00000E+00
 -1      1675 1.48263E+02 4.60692E+01 0.00000E+00
 -1      1676 1.48263E+02 4.45942E+01 0.00000E+00
 -1      1677 1.46964E+02 4.38568E+01 0.00000E+00
 -1      1678 1.46088E+02 4.62202E+01 0.00000E+00
 -1      1679 5.70302E+01 2.46055E+01 0.00000E+00
 -1      1680 5.71091E+01 2.53447E+01 0.00000E+00
 -1      1681 5.67343E+01 2.29141E+01 0.00000E+00
 -1      1682 5.69918E+01 2.36723E+01 0.00000E+00
 -1      1683 5.58123E+01 2.14524E+01 0.00000E+00
 -1      1684 5.62203E+01 2.21129E+01 0.00000E+00
 -1      1685 5.47076E+01 2.02342E+01 0.00000E+00
 -1      1686 5.52301E+01 2.07713E+01 0.00000E+00
 -1      1687 5.34426E+01 1.91860E+01 0.00000E+00
 -1      1688 5.40755E+01 1.96036E+01 0.00000E+00
 -1      1689 5.19365E+01 1.85893E+01 0.00000E+00
 -1      1690 5.26223E+01 1.88550E+01 0.00000E+00
 -1      1691 5.02863E+01 1.82019E+01 0.00000E+00
 -1      1692 5.10764E+01 1.83213E+01 0.00000E+00
 -1      1693 4.86687E+01 1.82523E+01 0.00000E+00
 -1      1694 4.93916E+01 1.82029E+01 0.00000E+00
 -1      1695 4.71142E+01 1.86035E+01 0.00000E+00
 -1      1696 4.78262E+01 1.84004E+01 0.00000E+00
 -1      1697 4.56527E+01 1.92799E+01 0.00000E+00
 -1      1698 4.63102E+01 1.89288E+01 0.00000E+00
 -1      1699 4.43200E+01 2.02383E+01 0.00000E+00
 -1      1700 4.48993E+01 1.97442E+01 0.00000E+00
 -1      1701 4.33026E+01 2.14860E+01 0.00000E+00
 -1      1702 4.37466E+01 2.09028E+01 0.00000E+00
 -1      1703 4.25492E+01 2.28700E+01 0.00000E+00
 -1      1704 4.28597E+01 2.22137E+01 0.00000E+00
 -1      1705 4.20127E+01 2.43967E+01 0.00000E+00
 -1      1706 4.21843E+01 2.36655E+01 0.00000E+00
 -1      1707 4.19713E+01 2.59908E+01 0.00000E+00
 -1      1708 4.19855E+01 2.52689E+01 0.00000E+00
 -1      1709 4.21970E+01 2.76103E+01 0.00000E+00
 -1      1710 4.20493E+01 2.68569E+01 0.00000E+00
 -1      1711 4.27475E+01 2.91230E+01 0.00000E+00
 -1      1712 4.24554E+01 2.84485E+01 0.00000E+00
 -1      1713 4.35933E+01 3.04661E+01 0.00000E+00
 -1      1714 4.31684E+01 2.98693E+01 0.00000E+00
 -1      1715 4.45952E+01 3.17328E+01 0.00000E+00
 -1      1716 4.40497E+01 3.12333E+01 0.00000E+00
 -1      1717 4.59778E+01 3.25270E+01 0.00000E+00
 -1      1718 4.52865E+01 3.21299E+01 0.00000E+00
 -1      1719 4.44912E+01 3.24508E+01 0.00000E+00
 -1      1720 4.77422E+01 3.31742E+01 0.00000E+00
 -1      1721 4.69717E+01 3.29425E+01 0.00000E+00
 -1      1722 4.93662E+01 3.33531E+01 0.00000E+00
 -1      1723 4.86357E+01 3.33004E+01 0.00000E+00
 -1      1724 5.10674E+01 3.32802E+01 0.00000E+00
 -1      1725 5.02736E+01 3.33983E+01 0.00000E+00
 -1      1726 5.26666E+01 3.26788E+01 0.00000E+00
 -1      1727 5.19449E+01 3.29617E+01 0.00000E+00
 -1      1728 5.40850E+01 3.18426E+01 0.00000E+00
 -1      1729 5.34582E+01 3.22647E+01 0.00000E+00
 -1      1730 5.53801E+01 3.07345E+01 0.00000E+00
 -1      1731 5.48346E+01 3.13129E+01 0.00000E+00
 -1      1732 5.62371E+01 2.93319E+01 0.00000E+00
 -1      1733 5.58603E+01 2.99652E+01 0.00000E+00
 -1      1734 5.70070E+01 2.78372E+01 0.00000E+00
 -1      1735 5.67618E+01 2.85780E+01 0.00000E+00
 -1      1736 5.71111E+01 2.62028E+01 0.00000E+00
 -1      1737 5.70357E+01 2.69254E+01 0.00000E+00
 -1      1738 5.47712E+01 1.94495E+01 0.00000E+00
 -1      1739 5.59855E+01 2.07611E+01 0.00000E+00
 -1      1740 1.48437E+02 2.56875E+00 0.00000E+00
 -1      1741 1.47138E+02 3.30625E+00 0.00000E+00
 -1      1742 5.76341E+01 2.39775E+01 0.00000E+00
 -1      1743 5.70817E+01 2.22432E+01 0.00000E+00
 -1      1744 5.76744E+01 2.57689E+01 0.00000E+00
 -1      1745 5.33188E+01 1.84879E+01 0.00000E+00
 -1      1746 5.16383E+01 1.78888E+01 0.00000E+00
 -1      1747 4.98835E+01 1.76218E+01 0.00000E+00
 -1      1748 4.81464E+01 1.77709E+01 0.00000E+00
 -1      1749 4.64999E+01 1.82443E+01 0.00000E+00
 -1      1750 4.49425E+01 1.90339E+01 0.00000E+00
 -1      1751 4.36157E+01 2.01627E+01 0.00000E+00
 -1      1752 4.25994E+01 2.15549E+01 0.00000E+00
 -1      1753 4.17916E+01 2.30780E+01 0.00000E+00
 -1      1754 4.13996E+01 2.47457E+01 0.00000E+00
 -1      1755 4.14503E+01 2.64841E+01 0.00000E+00
 -1      1756 4.17867E+01 2.81884E+01 0.00000E+00
 -1      1757 4.24661E+01 2.97730E+01 0.00000E+00
 -1      1758 4.33435E+01 3.12865E+01 0.00000E+00
 -1      1759 4.80639E+01 3.38052E+01 0.00000E+00
 -1      1760 4.98647E+01 3.39766E+01 0.00000E+00
 -1      1761 5.16495E+01 3.37032E+01 0.00000E+00
 -1      1762 5.33186E+01 3.29706E+01 0.00000E+00
 -1      1763 5.48598E+01 3.20268E+01 0.00000E+00
 -1      1764 5.60895E+01 3.07278E+01 0.00000E+00
 -1      1765 5.70943E+01 2.92047E+01 0.00000E+00
 -1      1766 5.76476E+01 2.75389E+01 0.00000E+00
 -1      1767 2.87400E+00 4.77875E+01 0.00000E+00
 -1      1768 4.61764E+01 3.32635E+01 0.00000E+00
 -1      1769 3.89700E+00 4.04125E+01 0.00000E+00
 -1      1770 3.89700E+00 4.18875E+01 0.00000E+00
 -1      1771 3.89700E+00 4.33625E+01 0.00000E+00
 -1      1772 3.89700E+00 4.48375E+01 0.00000E+00
 -1      1773 5.19600E+00 4.26250E+01 0.00000E+00
 -1      1774 3.89700E+00 3.45500E+01 0.00000E+00
 -1      1775 3.89700E+00 3.60000E+01 0.00000E+00
 -1      1776 3.89700E+00 3.16000E+01 0.00000E+00
 -1      1777 3.89700E+00 3.30750E+01 0.00000E+00
 -1      1778 5.19600E+00 3.38000E+01 0.00000E+00
 -1      1779 3.89700E+00 2.86500E+01 0.00000E+00
 -1      1780 3.89700E+00 3.01250E+01 0.00000E+00
 -1      1781 5.19600E+00 3.08500E+01 0.00000E+00
 -1      1782 3.89700E+00 2.57000E+01 0.00000E+00
 -1      1783 3.89700E+00 2.71750E+01 0.00000E+00
 -1      1784 5.19600E+00 2.79000E+01 0.00000E+00
 -1      1785 3.89700E+00 2.27500E+01 0.00000E+00
 -1      1786 3.89700E+00 2.42250E+01 0.00000E+00
 -1      1787 5.19600E+00 2.49500E+01 0.00000E+00
 -1      1788 3.89700E+00 1.98000E+01 0.00000E+00
 -1      1789 3.89700E+00 2.12750E+01 0.00000E+00
 -1      1790 5.19600E+00 2.20000E+01 0.00000E+00
 -1      1791 3.89700E+00 1.69000E+01 0.00000E+00
 -1      1792 3.89700E+00 1.83500E+01 0.00000E+00
 -1      1793 5.19600E+00 1.90750E+01 0.00000E+00
 -1      1794 3.89700E+00 1.39500E+01 0.00000E+00
 -1      1795 3.89700E+00 1.54250E+01 0.00000E+00
 -1      1796 5.19600E+00 1.61500E+01 0.00000E+00
 -1      1797 3.89700E+00 1.10000E+01 0.00000E+00
 -1      1798 3.89700E+00 1.24750E+01 0.00000E+00
 -1      1799 5.19600E+00 1.32000E+01 0.00000E+00
 -1      1800 3.89700E+00 8.05000E+00 0.00000E+00
 -1      1801 3.89700E+00 9.52500E+00 0.00000E+00
 -1      1802 5.19600E+00 1.02500E+01 0.00000E+00
 -1      1803 3.89700E+00 5.10000E+00 0.00000E+00
 -1      1804 3.89700E+00 6.57500E+00 0.00000E+00
 -1      1805 5.19600E+00 7.30000E+00 0.00000E+00
 -1      1806 4.20450E+00 3.09687E+00 0.00000E+00
 -1      1807 4.06650E+00 4.19063E+00 0.00000E+00
 -1      1808 5.36550E+00 4.91563E+00 0.00000E+00
 -1      1809 5.70450E+00 3.09687E+00 0.00000E+00
 -1      1810 3.62400E+00 4.64885E+01 0.00000E+00
 -1      1811 8.70450E+00 3.09687E+00 0.00000E+00
 -1      1812 7.20450E+00 3.09687E+00 0.00000E+00
 -1      1813 7.03500E+00 4.00625E+00 0.00000E+00
 -1      1814 4.63911E+01 3.41465E+01 0.00000E+00
 -1      1815 4.53972E+01 3.37309E+01 0.00000E+00
 -1      1816 4.92300E+00 4.57510E+01 0.00000E+00
 -1      1817 8.40000E+00 4.61030E+01 0.00000E+00
 -1      1818 9.90000E+00 4.61030E+01 0.00000E+00
 -1      1819 1.14000E+01 4.61030E+01 0.00000E+00
 -1      1820 1.29000E+01 4.61030E+01 0.00000E+00
 -1      1821 1.06500E+01 4.48040E+01 0.00000E+00
 -1      1822 1.44000E+01 4.61030E+01 0.00000E+00
 -1      1823 1.59000E+01 4.61030E+01 0.00000E+00
 -1      1824 1.36500E+01 4.48040E+01 0.00000E+00
 -1      1825 1.74000E+01 4.61030E+01 0.00000E+00
 -1      1826 1.89000E+01 4.61030E+01 0.00000E+00
 -1      1827 1.66500E+01 4.48040E+01 0.00000E+00
 -1      1828 2.04000E+01 4.61030E+01 0.00000E+00
 -1      1829 2.19000E+01 4.61030E+01 0.00000E+00
 -1      1830 1.96500E+01 4.48040E+01 0.00000E+00
 -1      1831 2.34000E+01 4.61030E+01 0.00000E+00
 -1      1832 2.49000E+01 4.61030E+01 0.00000E+00
 -1      1833 2.26500E+01 4.48040E+01 0.00000E+00
 -1      1834 2.64000E+01 4.61030E+01 0.00000E+00
 -1      1835 2.79000E+01 4.61030E+01 0.00000E+00
 -1      1836 2.56500E+01 4.48040E+01 0.00000E+00
 -1      1837 2.94000E+01 4.61030E+01 0.00000E+00
 -1      1838 3.09000E+01 4.61030E+01 0.00000E+00
 -1      1839 2.86500E+01 4.48040E+01 0.00000E+00
 -1      1840 3.24000E+01 4.61030E+01 0.00000E+00
 -1      1841 3.39000E+01 4.61030E+01 0.00000E+00
 -1      1842 3.16500E+01 4.48040E+01 0.00000E+00
 -1      1843 3.54000E+01 4.61030E+01 0.00000E+00
 -1      1844 3.69000E+01 4.61030E+01 0.00000E+00
 -1      1845 3.46500E+01 4.48040E+01 0.00000E+00
 -1      1846 3.84000E+01 4.61030E+01 0.00000E+00
 -1      1847 3.99000E+01 4.61030E+01 0.00000E+00
 -1      1848 3.76500E+01 4.48040E+01 0.00000E+00
 -1      1849 4.14000E+01 4.61030E+01 0.00000E+00
 -1      1850 4.29000E+01 4.61030E+01 0.00000E+00
 -1      1851 4.06500E+01 4.48040E+01 0.00000E+00
 -1      1852 4.44000E+01 4.61030E+01 0.00000E+00
 -1      1853 4.59000E+01 4.61030E+01 0.00000E+00
 -1      1854 4.36500E+01 4.48040E+01 0.00000E+00
 -1      1855 4.74000E+01 4.61030E+01 0.00000E+00
 -1      1856 4.89000E+01 4.61030E+01 0.00000E+00
 -1      1857 4.66500E+01 4.48040E+01 0.00000E+00
 -1      1858 5.04000E+01 4.61030E+01 0.00000E+00
 -1      1859 5.19000E+01 4.61030E+01 0.00000E+00
 -1      1860 4.96500E+01 4.48040E+01 0.00000E+00
 -1      1861 5.34000E+01 4.61030E+01 0.00000E+00
 -1      1862 5.49000E+01 4.61030E+01 0.00000E+00
 -1      1863 5.26500E+01 4.48040E+01 0.00000E+00
 -1      1864 5.64000E+01 4.61030E+01 0.00000E+00
 -1      1865 5.79000E+01 4.61030E+01 0.00000E+00
 -1      1866 5.56500E+01 4.48040E+01 0.00000E+00
 -1      1867 5.94000E+01 4.61030E+01 0.00000E+00
 -1      1868 6.09000E+01 4.61030E+01 0.00000E+00
 -1      1869 5.86500E+01 4.48040E+01 0.00000E+00
 -1      1870 6.24000E+01 4.61030E+01 0.00000E+00
 -1      1871 6.39000E+01 4.61030E+01 0.00000E+00
 -1      1872 6.16500E+01 4.48040E+01 0.00000E+00
 -1      1873 6.54000E+01 4.61030E+01 0.00000E+00
 -1      1874 6.69000E+01 4.61030E+01 0.00000E+00
 -1      1875 6.46500E+01 4.48040E+01 0.00000E+00
 -1      1876 6.84000E+01 4.61030E+01 0.00000E+00
 -1      1877 6.99000E+01 4.61030E+01 0.00000E+00
 -1      1878 6.76500E+01 4.48040E+01 0.00000E+00
 -1      1879 7.14000E+01 4.61030E+01 0.00000E+00
 -1      1880 7.29000E+01 4.61030E+01 0.00000E+00
 -1      1881 7.06500E+01 4.48040E+01 0.00000E+00
 -1      1882 7.44000E+01 4.61030E+01 0.00000E+00
 -1      1883 7.59000E+01 4.61030E+01 0.00000E+00
 -1      1884 7.36500E+01 4.48040E+01 0.00000E+00
 -1      1885 7.74000E+01 4.61030E+01 0.00000E+00
 -1      1886 7.89000E+01 4.61030E+01 0.00000E+00
 -1      1887 7.66500E+01 4.48040E+01 0.00000E+00
 -1      1888 8.04000E+01 4.61030E+01 0.00000E+00
 -1      1889 8.19000E+01 4.61030E+01 0.00000E+00
 -1      1890 7.96500E+01 4.48040E+01 0.00000E+00
 -1      1891 8.34000E+01 4.61030E+01 0.00000E+00
 -1      1892 8.49000E+01 4.61030E+01 0.00000E+00
 -1      1893 8.26500E+01 4.48040E+01 0.00000E+00
 -1      1894 8.64000E+01 4.61030E+01 0.00000E+00
 -1      1895 8.79000E+01 4.61030E+01 0.00000E+00
 -1      1896 8.56500E+01 4.48040E+01 0.00000E+00
 -1      1897 8.94000E+01 4.61030E+01 0.00000E+00
 -1      1898 9.09000E+01 4.61030E+01 0.00000E+00
 -1      1899 8.86500E+01 4.48040E+01 0.00000E+00
 -1      1900 9.24000E+01 4.61030E+01 0.00000E+00
 -1      1901 9.39000E+01 4.61030E+01 0.00000E+00
 -1      1902 9.16500E+01 4.48040E+01 0.00000E+00
 -1      1903 9.54000E+01 4.61030E+01 0.00000E+00
 -1      1904 9.69000E+01 4.61030E+01 0.00000E+00
 -1      1905 9.46500E+01 4.48040E+01 0.00000E+00
 -1      1906 9.84000E+01 4.61030E+01 0.00000E+00
 -1      1907 9.99000E+01 4.61030E+01 0.00000E+00
 -1      1908 9.76500E+01 4.48040E+01 0.00000E+00
 -1      1909 1.01400E+02 4.61030E+01 0.00000E+00
 -1      1910 1.02900E+02 4.61030E+01 0.00000E+00
 -1      1911 1.00650E+02 4.48040E+01 0.00000E+00
 -1      1912 1.04400E+02 4.61030E+01 0.00000E+00
 -1      1913 1.05900E+02 4.61030E+01 0.00000E+00
 -1      1914 1.03650E+02 4.48040E+01 0.00000E+00
 -1      1915 1.07400E+02 4.61030E+01 0.00000E+00
 -1      1916 1.08900E+02 4.61030E+01 0.00000E+00
 -1      1917 1.06650E+02 4.48040E+01 0.00000E+00
 -1      1918 1.10400E+02 4.61030E+01 0.00000E+00
 -1      1919 1.11900E+02 4.61030E+01 0.00000E+00
 -1      1920 1.09650E+02 4.48040E+01 0.00000E+00
 -1      1921 1.13400E+02 4.61030E+01 0.00000E+00
 -1      1922 1.14900E+02 4.61030E+01 0.00000E+00
 -1      1923 1.12650E+02 4.48040E+01 0.00000E+00
 -1      1924 1.16400E+02 4.61030E+01 0.00000E+00
 -1      1925 1.17900E+02 4.61030E+01 0.00000E+00
 -1      1926 1.15650E+02 4.48040E+01 0.00000E+00
 -1      1927 1.19400E+02 4.61030E+01 0.00000E+00
 -1      1928 1.20900E+02 4.61030E+01 0.00000E+00
 -1      1929 1.18650E+02 4.48040E+01 0.00000E+00
 -1      1930 1.22400E+02 4.61030E+01 0.00000E+00
 -1      1931 1.23900E+02 4.61030E+01 0.00000E+00
 -1      1932 1.21650E+02 4.48040E+01 0.00000E+00
 -1      1933 1.25400E+02 4.61030E+01 0.00000E+00
 -1      1934 1.26900E+02 4.61030E+01 0.00000E+00
 -1      1935 1.24650E+02 4.48040E+01 0.00000E+00
 -1      1936 1.28400E+02 4.61030E+01 0.00000E+00
 -1      1937 1.29900E+02 4.61030E+01 0.00000E+00
 -1      1938 1.27650E+02 4.48040E+01 0.00000E+00
 -1      1939 1.31400E+02 4.61030E+01 0.00000E+00
 -1      1940 1.32900E+02 4.61030E+01 0.00000E+00
 -1      1941 1.30650E+02 4.48040E+01 0.00000E+00
 -1      1942 1.34400E+02 4.61030E+01 0.00000E+00
 -1      1943 1.35900E+02 4.61030E+01 0.00000E+00
 -1      1944 1.33650E+02 4.48040E+01 0.00000E+00
 -1      1945 1.37400E+02 4.61030E+01 0.00000E+00
 -1      1946 1.38900E+02 4.61030E+01 0.00000E+00
 -1      1947 1.36650E+02 4.48040E+01 0.00000E+00
 -1      1948 1.40400E+02 4.61030E+01 0.00000E+00
 -1      1949 1.41900E+02 4.61030E+01 0.00000E+00
 -1      1950 1.39650E+02 4.48040E+01 0.00000E+00
 -1      1951 1.43244E+02 4.61616E+01 0.00000E+00
 -1      1952 1.44744E+02 4.61616E+01 0.00000E+00
 -1      1953 1.45182E+02 4.49799E+01 0.00000E+00
 -1      1954 1.42494E+02 4.48626E+01 0.00000E+00
 -1      1955 1.17045E+01 3.09687E+00 0.00000E+00
 -1      1956 1.02045E+01 3.09687E+00 0.00000E+00
 -1      1957 1.00350E+01 4.00625E+00 0.00000E+00
 -1      1958 1.47045E+01 3.09687E+00 0.00000E+00
 -1      1959 1.32045E+01 3.09687E+00 0.00000E+00
 -1      1960 1.30350E+01 4.00625E+00 0.00000E+00
 -1      1961 1.77045E+01 3.09687E+00 0.00000E+00
 -1      1962 1.62045E+01 3.09687E+00 0.00000E+00
 -1      1963 1.60350E+01 4.00625E+00 0.00000E+00
 -1      1964 2.07045E+01 3.09687E+00 0.00000E+00
 -1      1965 1.92045E+01 3.09687E+00 0.00000E+00
 -1      1966 1.90350E+01 4.00625E+00 0.00000E+00
 -1      1967 2.37045E+01 3.09687E+00 0.00000E+00
 -1      1968 2.22045E+01 3.09687E+00 0.00000E+00
 -1      1969 2.20350E+01 4.00625E+00 0.00000E+00
 -1      1970 2.67045E+01 3.09687E+00 0.00000E+00
 -1      1971 2.52045E+01 3.09687E+00 0.00000E+00
 -1      1972 2.50350E+01 4.00625E+00 0.00000E+00
 -1      1973 2.97045E+01 3.09687E+00 0.00000E+00
 -1      1974 2.82045E+01 3.09687E+00 0.00000E+00
 -1      1975 2.80350E+01 4.00625E+00 0.00000E+00
 -1      1976 3.27045E+01 3.09687E+00 0.00000E+00
 -1      1977 3.12045E+01 3.09687E+00 0.00000E+00
 -1      1978 3.10350E+01 4.00625E+00 0.00000E+00
 -1      1979 3.57045E+01 3.09687E+00 0.00000E+00
 -1      1980 3.42045E+01 3.09687E+00 0.00000E+00
 -1      1981 3.40350E+01 4.00625E+00 0.00000E+00
 -1      1982 3.87045E+01 3.09687E+00 0.00000E+00
 -1      1983 3.72045E+01 3.09687E+00 0.00000E+00
 -1      1984 3.70350E+01 4.00625E+00 0.00000E+00
 -1      1985 4.17045E+01 3.09687E+00 0.00000E+00
 -1      1986 4.02045E+01 3.09687E+00 0.00000E+00
 -1      1987 4.00350E+01 4.00625E+00 0.00000E+00
 -1      1988 4.47045E+01 3.09687E+00 0.00000E+00
 -1      1989 4.32045E+01 3.09687E+00 0.00000E+00
 -1      1990 4.30350E+01 4.00625E+00 0.00000E+00
 -1      1991 4.77045E+01 3.09687E+00 0.00000E+00
 -1      1992 4.62045E+01 3.09687E+00 0.00000E+00
 -1      1993 4.60350E+01 4.00625E+00 0.00000E+00
 -1      1994 5.07045E+01 3.09687E+00 0.00000E+00
 -1      1995 4.92045E+01 3.09687E+00 0.00000E+00
 -1      1996 4.90350E+01 4.00625E+00 0.00000E+00
 -1      1997 5.37045E+01 3.09687E+00 0.00000E+00
 -1      1998 5.22045E+01 3.09687E+00 0.00000E+00
 -1      1999 5.20350E+01 4.00625E+00 0.00000E+00
 -1      2000 5.67045E+01 3.09687E+00 0.00000E+00
 -1      2001 5.52045E+01 3.09687E+00 0.00000E+00
 -1      2002 5.50350E+01 4.00625E+00 0.00000E+00
 -1      2003 5.97045E+01 3.09687E+00 0.00000E+00
 -1      2004 5.82045E+01 3.09687E+00 0.00000E+00
 -1      2005 5.80350E+01 4.00625E+00 0.00000E+00
 -1      2006 6.27045E+01 3.09687E+00 0.00000E+00
 -1      2007 6.12045E+01 3.09687E+00 0.00000E+00
 -1      2008 6.10350E+01 4.00625E+00 0.00000E+00
 -1      2009 6.57045E+01 3.09687E+00 0.00000E+00
 -1      2010 6.42045E+01 3.09687E+00 0.00000E+00
 -1      2011 6.40350E+01 4.00625E+00 0.00000E+00
 -1      2012 6.87045E+01 3.09687E+00 0.00000E+00
 -1      2013 6.72045E+01 3.09687E+00 0.00000E+00
 -1      2014 6.70350E+01 4.00625E+00 0.00000E+00
 -1      2015 7.17045E+01 3.09687E+00 0.00000E+00
 -1      2016 7.02045E+01 3.09687E+00 0.00000E+00
 -1      2017 7.00350E+01 4.00625E+00 0.00000E+00
 -1      2018 7.47045E+01 3.09687E+00 0.00000E+00
 -1      2019 7.32045E+01 3.09687E+00 0.00000E+00
 -1      2020 7.30350E+01 4.00625E+00 0.00000E+00
 -1      2021 7.77045E+01 3.09687E+00 0.00000E+00
 -1      2022 7.62045E+01 3.09687E+00 0.00000E+00
 -1      2023 7.60350E+01 4.00625E+00 0.00000E+00
 -1      2024 8.07045E+01 3.09687E+00 0.00000E+00
 -1      2025 7.92045E+01 3.09687E+00 0.00000E+00
 -1      2026 7.90350E+01 4.00625E+00 0.00000E+00
 -1      2027 8.37045E+01 3.09687E+00 0.00000E+00
 -1      2028 8.22045E+01 3.09687E+00 0.00000E+00
 -1      2029 8.20350E+01 4.00625E+00 0.00000E+00
 -1      2030 8.67045E+01 3.09687E+00 0.00000E+00
 -1      2031 8.52045E+01 3.09687E+00 0.00000E+00
 -1      2032 8.50350E+01 4.00625E+00 0.00000E+00
 -1      2033 8.97045E+01 3.09687E+00 0.00000E+00
 -1      2034 8.82045E+01 3.09687E+00 0.00000E+00
 -1      2035 8.80350E+01 4.00625E+00 0.00000E+00
 -1      2036 9.27045E+01 3.09687E+00 0.00000E+00
 -1      2037 9.12045E+01 3.09687E+00 0.00000E+00
 -1      2038 9.10350E+01 4.00625E+00 0.00000E+00
 -1      2039 9.57045E+01 3.09687E+00 0.00000E+00
 -1      2040 9.42045E+01 3.09687E+00 0.00000E+00
 -1      2041 9.40350E+01 4.00625E+00 0.00000E+00
 -1      2042 9.87045E+01 3.09687E+00 0.00000E+00
 -1      2043 9.72045E+01 3.09687E+00 0.00000E+00
 -1      2044 9.70350E+01 4.00625E+00 0.00000E+00
 -1      2045 1.01704E+02 3.09687E+00 0.00000E+00
 -1      2046 1.00204E+02 3.09687E+00 0.00000E+00
 -1      2047 1.00035E+02 4.00625E+00 0.00000E+00
 -1      2048 1.04704E+02 3.09687E+00 0.00000E+00
 -1      2049 1.03204E+02 3.09687E+00 0.00000E+00
 -1      2050 1.03035E+02 4.00625E+00 0.00000E+00
 -1      2051 1.07704E+02 3.09687E+00 0.00000E+00
 -1      2052 1.06204E+02 3.09687E+00 0.00000E+00
 -1      2053 1.06035E+02 4.00625E+00 0.00000E+00
 -1      2054 1.10704E+02 3.09687E+00 0.00000E+00
 -1      2055 1.09204E+02 3.09687E+00 0.00000E+00
 -1      2056 1.09035E+02 4.00625E+00 0.00000E+00
 -1      2057 1.13704E+02 3.09687E+00 0.00000E+00
 -1      2058 1.12204E+02 3.09687E+00 0.00000E+00
 -1      2059 1.12035E+02 4.00625E+00 0.00000E+00
 -1      2060 1.16704E+02 3.09687E+00 0.00000E+00
 -1      2061 1.15204E+02 3.09687E+00 0.00000E+00
 -1      2062 1.15035E+02 4.00625E+00 0.00000E+00
 -1      2063 1.19704E+02 3.09687E+00 0.00000E+00
 -1      2064 1.18204E+02 3.09687E+00 0.00000E+00
 -1      2065 1.18035E+02 4.00625E+00 0.00000E+00
 -1      2066 1.22704E+02 3.09687E+00 0.00000E+00
 -1      2067 1.21204E+02 3.09687E+00 0.00000E+00
 -1      2068 1.21035E+02 4.00625E+00 0.00000E+00
 -1      2069 1.25704E+02 3.09687E+00 0.00000E+00
 -1      2070 1.24204E+02 3.09687E+00 0.00000E+00
 -1      2071 1.24035E+02 4.00625E+00 0.00000E+00
 -1      2072 1.28704E+02 3.09687E+00 0.00000E+00
 -1      2073 1.27204E+02 3.09687E+00 0.00000E+00
 -1      2074 1.27035E+02 4.00625E+00 0.00000E+00
 -1      2075 1.31704E+02 3.09687E+00 0.00000E+00
 -1      2076 1.30204E+02 3.09687E+00 0.00000E+00
 -1      2077 1.30035E+02 4.00625E+00 0.00000E+00
 -1      2078 1.34704E+02 3.09687E+00 0.00000E+00
 -1      2079 1.33204E+02 3.09687E+00 0.00000E+00
 -1      2080 1.33035E+02 4.00625E+00 0.00000E+00
 -1      2081 1.37704E+02 3.09687E+00 0.00000E+00
 -1      2082 1.36204E+02 3.09687E+00 0.00000E+00
 -1      2083 1.36035E+02 4.00625E+00 0.00000E+00
 -1      2084 1.40704E+02 3.09687E+00 0.00000E+00
 -1      2085 1.39204E+02 3.09687E+00 0.00000E+00
 -1      2086 1.39035E+02 4.00625E+00 0.00000E+00
 -1      2087 1.43704E+02 3.09687E+00 0.00000E+00
 -1      2088 1.42204E+02 3.09687E+00 0.00000E+00
 -1      2089 1.42035E+02 4.00625E+00 0.00000E+00
 -1      2090 1.46171E+02 3.20156E+00 0.00000E+00
 -1      2091 1.44671E+02 3.20156E+00 0.00000E+00
 -1      2092 1.44502E+02 4.11094E+00 0.00000E+00
 -1      2093 1.46435E+02 4.32031E+00 0.00000E+00
 -1      2094 1.46103E+02 1.25375E+01 0.00000E+00
 -1      2095 1.46103E+02 1.10625E+01 0.00000E+00
 -1      2096 1.46103E+02 9.58750E+00 0.00000E+00
 -1      2097 1.46103E+02 8.11250E+00 0.00000E+00
 -1      2098 1.44804E+02 1.03250E+01 0.00000E+00
 -1      2099 1.46269E+02 6.95391E+00 0.00000E+00
 -1      2100 1.46269E+02 5.47891E+00 0.00000E+00
 -1      2101 1.45302E+02 5.37422E+00 0.00000E+00
 -1      2102 1.44970E+02 7.69141E+00 0.00000E+00
 -1      2103 1.46103E+02 1.54375E+01 0.00000E+00
 -1      2104 1.46103E+02 1.39875E+01 0.00000E+00
 -1      2105 1.44804E+02 1.32500E+01 0.00000E+00
 -1      2106 1.46103E+02 1.83875E+01 0.00000E+00
 -1      2107 1.46103E+02 1.69125E+01 0.00000E+00
 -1      2108 1.44804E+02 1.61750E+01 0.00000E+00
 -1      2109 1.46103E+02 2.13375E+01 0.00000E+00
 -1      2110 1.46103E+02 1.98625E+01 0.00000E+00
 -1      2111 1.44804E+02 1.91250E+01 0.00000E+00
 -1      2112 1.46103E+02 2.42875E+01 0.00000E+00
 -1      2113 1.46103E+02 2.28125E+01 0.00000E+00
 -1      2114 1.44804E+02 2.20750E+01 0.00000E+00
 -1      2115 1.46103E+02 2.72375E+01 0.00000E+00
 -1      2116 1.46103E+02 2.57625E+01 0.00000E+00
 -1      2117 1.44804E+02 2.50250E+01 0.00000E+00
 -1      2118 1.46103E+02 3.01875E+01 0.00000E+00
 -1      2119 1.46103E+02 2.87125E+01 0.00000E+00
 -1      2120 1.44804E+02 2.79750E+01 0.00000E+00
 -1      2121 1.46103E+02 3.30875E+01 0.00000E+00
 -1      2122 1.46103E+02 3.16375E+01 0.00000E+00
 -1      2123 1.44804E+02 3.09000E+01 0.00000E+00
 -1      2124 1.46103E+02 3.60375E+01 0.00000E+00
 -1      2125 1.46103E+02 3.45625E+01 0.00000E+00
 -1      2126 1.44804E+02 3.38250E+01 0.00000E+00
 -1      2127 1.46103E+02 3.89875E+01 0.00000E+00
 -1      2128 1.46103E+02 3.75125E+01 0.00000E+00
 -1      2129 1.44804E+02 3.67750E+01 0.00000E+00
 -1      2130 1.46103E+02 4.19375E+01 0.00000E+00
 -1      2131 1.46103E+02 4.04625E+01 0.00000E+00
 -1      2132 1.44804E+02 3.97250E+01 0.00000E+00
 -1      2133 5.74054E+01 2.14701E+01 0.00000E+00
 -1      2134 5.79194E+01 2.22712E+01 0.00000E+00
 -1      2135 5.83634E+01 2.53382E+01 0.00000E+00
 -1      2136 5.83653E+01 2.61964E+01 0.00000E+00
 -1      2137 5.82866E+01 2.34718E+01 0.00000E+00
 -1      2138 5.83250E+01 2.44050E+01 0.00000E+00
 -1      2139 5.90160E+01 2.48326E+01 0.00000E+00
 -1      2140 5.62189E+01 1.99722E+01 0.00000E+00
 -1      2141 5.68011E+01 2.06533E+01 0.00000E+00
 -1      2142 4.44306E+01 3.33567E+01 0.00000E+00
 -1      2143 4.37393E+01 3.29595E+01 0.00000E+00
 -1      2144 5.02778E+01 3.48138E+01 0.00000E+00
 -1      2145 4.93704E+01 3.47686E+01 0.00000E+00
 -1      2146 5.49129E+01 1.86754E+01 0.00000E+00
 -1      2147 5.55450E+01 1.93059E+01 0.00000E+00
 -1      2148 3.89700E+00 3.74688E+01 0.00000E+00
 -1      2149 3.89700E+00 3.89437E+01 0.00000E+00
 -1      2150 5.19600E+00 3.96813E+01 0.00000E+00
 -1      2151 5.19600E+00 3.67438E+01 0.00000E+00
 -1      2152 5.14010E+01 1.71360E+01 0.00000E+00
 -1      2153 5.22612E+01 1.74041E+01 0.00000E+00
 -1      2154 4.94353E+01 1.68904E+01 0.00000E+00
 -1      2155 5.03300E+01 1.68894E+01 0.00000E+00
 -1      2156 4.76130E+01 1.72066E+01 0.00000E+00
 -1      2157 4.84554E+01 1.70586E+01 0.00000E+00
 -1      2158 4.58234E+01 1.77285E+01 0.00000E+00
 -1      2159 4.66274E+01 1.74032E+01 0.00000E+00
 -1      2160 4.41819E+01 1.86429E+01 0.00000E+00
 -1      2161 4.49353E+01 1.81787E+01 0.00000E+00
 -1      2162 4.28066E+01 2.00442E+01 0.00000E+00
 -1      2163 4.33800E+01 1.93796E+01 0.00000E+00
 -1      2164 4.17885E+01 2.15600E+01 0.00000E+00
 -1      2165 4.22314E+01 2.08323E+01 0.00000E+00
 -1      2166 4.10201E+01 2.32055E+01 0.00000E+00
 -1      2167 4.13850E+01 2.24101E+01 0.00000E+00
 -1      2168 4.07382E+01 2.51616E+01 0.00000E+00
 -1      2169 4.07654E+01 2.42893E+01 0.00000E+00
 -1      2170 4.07186E+01 2.69865E+01 0.00000E+00
 -1      2171 4.06407E+01 2.61204E+01 0.00000E+00
 -1      2172 4.12966E+01 2.87985E+01 0.00000E+00
 -1      2173 4.10382E+01 2.79603E+01 0.00000E+00
 -1      2174 4.20756E+01 3.04851E+01 0.00000E+00
 -1      2175 4.16547E+01 2.97388E+01 0.00000E+00
 -1      2176 4.29885E+01 3.20195E+01 0.00000E+00
 -1      2177 4.25320E+01 3.12523E+01 0.00000E+00
 -1      2178 4.17206E+01 3.12181E+01 0.00000E+00
 -1      2179 4.84770E+01 3.46424E+01 0.00000E+00
 -1      2180 4.75835E+01 3.45163E+01 0.00000E+00
 -1      2181 4.88901E+01 3.54797E+01 0.00000E+00
 -1      2182 5.23523E+01 3.42712E+01 0.00000E+00
 -1      2183 5.14748E+01 3.45898E+01 0.00000E+00
 -1      2184 5.40925E+01 3.34863E+01 0.00000E+00
 -1      2185 5.33008E+01 3.39004E+01 0.00000E+00
 -1      2186 5.56327E+01 3.23254E+01 0.00000E+00
 -1      2187 5.48832E+01 3.28551E+01 0.00000E+00
 -1      2188 5.68793E+01 3.06864E+01 0.00000E+00
 -1      2189 5.63992E+01 3.14557E+01 0.00000E+00
 -1      2190 5.79287E+01 2.91786E+01 0.00000E+00
 -1      2191 5.74040E+01 2.99325E+01 0.00000E+00
 -1      2192 5.77137E+01 3.06603E+01 0.00000E+00
 -1      2193 5.83367E+01 2.71083E+01 0.00000E+00
 -1      2194 5.83080E+01 2.80202E+01 0.00000E+00
 -1      2195 5.90257E+01 2.66777E+01 0.00000E+00
 -1      2196 5.31981E+01 1.76048E+01 0.00000E+00
 -1      2197 5.40185E+01 1.79359E+01 0.00000E+00
 -1      2198 4.46452E+01 3.42397E+01 0.00000E+00
 -1      2199 4.68042E+01 3.49837E+01 0.00000E+00
 -1      2200 6.42300E+00 4.57510E+01 0.00000E+00
 -1      2201 7.17300E+00 4.44520E+01 0.00000E+00
 -1      2202 5.86104E+01 2.26987E+01 0.00000E+00
 -1      2203 5.93013E+01 2.31262E+01 0.00000E+00
 -1      2204 5.89341E+01 2.19255E+01 0.00000E+00
 -1      2205 5.76388E+01 2.06812E+01 0.00000E+00
 -1      2206 1.45665E+02 4.31193E+01 0.00000E+00
 -1      2207 5.47922E+01 1.77923E+01 0.00000E+00
 -1      2208 5.63606E+01 1.91981E+01 0.00000E+00
 -1      2209 4.29278E+01 3.29253E+01 0.00000E+00
 -1      2210 5.86177E+01 2.87480E+01 0.00000E+00
 -1      2211 5.89274E+01 2.94758E+01 0.00000E+00
 -1      2212 5.93067E+01 2.83174E+01 0.00000E+00
 -1      2213 5.64226E+01 3.22840E+01 0.00000E+00
 -1      2214 5.64460E+01 3.31123E+01 0.00000E+00
 -1      2215 5.72125E+01 3.22425E+01 0.00000E+00
 -1      2216 5.48654E+01 3.37849E+01 0.00000E+00
 -1      2217 4.09061E+01 2.95106E+01 0.00000E+00
 -1      2218 4.02285E+01 2.75966E+01 0.00000E+00
 -1      2219 4.00065E+01 2.56640E+01 0.00000E+00
 -1      2220 4.03587E+01 2.36214E+01 0.00000E+00
 -1      2221 3.99521E+01 2.29535E+01 0.00000E+00
 -1      2222 3.96973E+01 2.40373E+01 0.00000E+00
 -1      2223 4.10170E+01 2.16875E+01 0.00000E+00
 -1      2224 5.09806E+01 3.53819E+01 0.00000E+00
 -1      2225 4.19957E+01 2.00493E+01 0.00000E+00
 -1      2226 4.33728E+01 1.85244E+01 0.00000E+00
 -1      2227 4.50628E+01 1.73376E+01 0.00000E+00
 -1      2228 4.69364E+01 1.66909E+01 0.00000E+00
 -1      2229 4.89019E+01 1.63262E+01 0.00000E+00
 -1      2230 5.09529E+01 1.64047E+01 0.00000E+00
 -1      2231 5.31261E+01 3.47870E+01 0.00000E+00
 -1      2232 5.29609E+01 1.68521E+01 0.00000E+00
 -1      2233 1.07850E+01 5.30525E+00 0.00000E+00
 -1      2234 9.28500E+00 5.30525E+00 0.00000E+00
 -1      2235 6.49500E+00 3.01125E+01 0.00000E+00
 -1      2236 6.49500E+00 3.15875E+01 0.00000E+00
 -1      2237 6.49500E+00 3.30625E+01 0.00000E+00
 -1      2238 6.49500E+00 3.45375E+01 0.00000E+00
 -1      2239 7.79400E+00 3.23250E+01 0.00000E+00
 -1      2240 6.49500E+00 2.42125E+01 0.00000E+00
 -1      2241 6.49500E+00 2.56875E+01 0.00000E+00
 -1      2242 6.49500E+00 2.12625E+01 0.00000E+00
 -1      2243 6.49500E+00 2.27375E+01 0.00000E+00
 -1      2244 7.79400E+00 2.34750E+01 0.00000E+00
 -1      2245 6.49500E+00 1.83625E+01 0.00000E+00
 -1      2246 6.49500E+00 1.98125E+01 0.00000E+00
 -1      2247 7.79400E+00 2.05500E+01 0.00000E+00
 -1      2248 6.49500E+00 1.54125E+01 0.00000E+00
 -1      2249 6.49500E+00 1.68875E+01 0.00000E+00
 -1      2250 7.79400E+00 1.76250E+01 0.00000E+00
 -1      2251 6.49500E+00 1.24625E+01 0.00000E+00
 -1      2252 6.49500E+00 1.39375E+01 0.00000E+00
 -1      2253 7.79400E+00 1.46750E+01 0.00000E+00
 -1      2254 6.49500E+00 9.51250E+00 0.00000E+00
 -1      2255 6.49500E+00 1.09875E+01 0.00000E+00
 -1      2256 7.79400E+00 1.17250E+01 0.00000E+00
 -1      2257 9.90000E+00 4.35050E+01 0.00000E+00
 -1      2258 1.14000E+01 4.35050E+01 0.00000E+00
 -1      2259 4.71588E+01 3.59477E+01 0.00000E+00
 -1      2260 4.59664E+01 3.55779E+01 0.00000E+00
 -1      2261 1.37850E+01 5.30525E+00 0.00000E+00
 -1      2262 1.22850E+01 5.30525E+00 0.00000E+00
 -1      2263 1.15350E+01 6.60425E+00 0.00000E+00
 -1      2264 6.55950E+00 4.28890E+01 0.00000E+00
 -1      2265 8.53650E+00 4.32410E+01 0.00000E+00
 -1      2266 9.28650E+00 4.19420E+01 0.00000E+00
 -1      2267 6.55950E+00 4.14140E+01 0.00000E+00
 -1      2268 1.29000E+01 4.35050E+01 0.00000E+00
 -1      2269 1.44000E+01 4.35050E+01 0.00000E+00
 -1      2270 1.21500E+01 4.22060E+01 0.00000E+00
 -1      2271 1.59000E+01 4.35050E+01 0.00000E+00
 -1      2272 1.74000E+01 4.35050E+01 0.00000E+00
 -1      2273 1.51500E+01 4.22060E+01 0.00000E+00
 -1      2274 1.89000E+01 4.35050E+01 0.00000E+00
 -1      2275 2.04000E+01 4.35050E+01 0.00000E+00
 -1      2276 1.81500E+01 4.22060E+01 0.00000E+00
 -1      2277 2.19000E+01 4.35050E+01 0.00000E+00
 -1      2278 2.34000E+01 4.35050E+01 0.00000E+00
 -1      2279 2.11500E+01 4.22060E+01 0.00000E+00
 -1      2280 2.49000E+01 4.35050E+01 0.00000E+00
 -1      2281 2.64000E+01 4.35050E+01 0.00000E+00
 -1      2282 2.41500E+01 4.22060E+01 0.00000E+00
 -1      2283 2.79000E+01 4.35050E+01 0.00000E+00
 -1      2284 2.94000E+01 4.35050E+01 0.00000E+00
 -1      2285 2.71500E+01 4.22060E+01 0.00000E+00
 -1      2286 3.09000E+01 4.35050E+01 0.00000E+00
 -1      2287 3.24000E+01 4.35050E+01 0.00000E+00
 -1      2288 3.01500E+01 4.22060E+01 0.00000E+00
 -1      2289 3.39000E+01 4.35050E+01 0.00000E+00
 -1      2290 3.54000E+01 4.35050E+01 0.00000E+00
 -1      2291 3.31500E+01 4.22060E+01 0.00000E+00
 -1      2292 3.69000E+01 4.35050E+01 0.00000E+00
 -1      2293 3.84000E+01 4.35050E+01 0.00000E+00
 -1      2294 3.61500E+01 4.22060E+01 0.00000E+00
 -1      2295 3.99000E+01 4.35050E+01 0.00000E+00
 -1      2296 4.14000E+01 4.35050E+01 0.00000E+00
 -1      2297 3.91500E+01 4.22060E+01 0.00000E+00
 -1      2298 4.29000E+01 4.35050E+01 0.00000E+00
 -1      2299 4.44000E+01 4.35050E+01 0.00000E+00
 -1      2300 4.21500E+01 4.22060E+01 0.00000E+00
 -1      2301 4.59000E+01 4.35050E+01 0.00000E+00
 -1      2302 4.74000E+01 4.35050E+01 0.00000E+00
 -1      2303 4.51500E+01 4.22060E+01 0.00000E+00
 -1      2304 4.89000E+01 4.35050E+01 0.00000E+00
 -1      2305 5.04000E+01 4.35050E+01 0.00000E+00
 -1      2306 4.81500E+01 4.22060E+01 0.00000E+00
 -1      2307 5.19000E+01 4.35050E+01 0.00000E+00
 -1      2308 5.34000E+01 4.35050E+01 0.00000E+00
 -1      2309 5.11500E+01 4.22060E+01 0.00000E+00
 -1      2310 5.49000E+01 4.35050E+01 0.00000E+00
 -1      2311 5.64000E+01 4.35050E+01 0.00000E+00
 -1      2312 5.41500E+01 4.22060E+01 0.00000E+00
 -1      2313 5.79000E+01 4.35050E+01 0.00000E+00
 -1      2314 5.94000E+01 4.35050E+01 0.00000E+00
 -1      2315 5.71500E+01 4.22060E+01 0.00000E+00
 -1      2316 6.09000E+01 4.35050E+01 0.00000E+00
 -1      2317 6.24000E+01 4.35050E+01 0.00000E+00
 -1      2318 6.01500E+01 4.22060E+01 0.00000E+00
 -1      2319 6.39000E+01 4.35050E+01 0.00000E+00
 -1      2320 6.54000E+01 4.35050E+01 0.00000E+00
 -1      2321 6.31500E+01 4.22060E+01 0.00000E+00
 -1      2322 6.69000E+01 4.35050E+01 0.00000E+00
 -1      2323 6.84000E+01 4.35050E+01 0.00000E+00
 -1      2324 6.61500E+01 4.22060E+01 0.00000E+00
 -1      2325 6.99000E+01 4.35050E+01 0.00000E+00
 -1      2326 7.14000E+01 4.35050E+01 0.00000E+00
 -1      2327 6.91500E+01 4.22060E+01 0.00000E+00
 -1      2328 7.29000E+01 4.35050E+01 0.00000E+00
 -1      2329 7.44000E+01 4.35050E+01 0.00000E+00
 -1      2330 7.21500E+01 4.22060E+01 0.00000E+00
 -1      2331 7.59000E+01 4.35050E+01 0.00000E+00
 -1      2332 7.74000E+01 4.35050E+01 0.00000E+00
 -1      2333 7.51500E+01 4.22060E+01 0.00000E+00
 -1      2334 7.89000E+01 4.35050E+01 0.00000E+00
 -1      2335 8.04000E+01 4.35050E+01 0.00000E+00
 -1      2336 7.81500E+01 4.22060E+01 0.00000E+00
 -1      2337 8.19000E+01 4.35050E+01 0.00000E+00
 -1      2338 8.34000E+01 4.35050E+01 0.00000E+00
 -1      2339 8.11500E+01 4.22060E+01 0.00000E+00
 -1      2340 8.49000E+01 4.35050E+01 0.00000E+00
 -1      2341 8.64000E+01 4.35050E+01 0.00000E+00
 -1      2342 8.41500E+01 4.22060E+01 0.00000E+00
 -1      2343 8.79000E+01 4.35050E+01 0.00000E+00
 -1      2344 8.94000E+01 4.35050E+01 0.00000E+00
 -1      2345 8.71500E+01 4.22060E+01 0.00000E+00
 -1      2346 9.09000E+01 4.35050E+01 0.00000E+00
 -1      2347 9.24000E+01 4.35050E+01 0.00000E+00
 -1      2348 9.01500E+01 4.22060E+01 0.00000E+00
 -1      2349 9.39000E+01 4.35050E+01 0.00000E+00
 -1      2350 9.54000E+01 4.35050E+01 0.00000E+00
 -1      2351 9.31500E+01 4.22060E+01 0.00000E+00
 -1      2352 9.69000E+01 4.35050E+01 0.00000E+00
 -1      2353 9.84000E+01 4.35050E+01 0.00000E+00
 -1      2354 9.61500E+01 4.22060E+01 0.00000E+00
 -1      2355 9.99000E+01 4.35050E+01 0.00000E+00
 -1      2356 1.01400E+02 4.35050E+01 0.00000E+00
 -1      2357 9.91500E+01 4.22060E+01 0.00000E+00
 -1      2358 1.02900E+02 4.35050E+01 0.00000E+00
 -1      2359 1.04400E+02 4.35050E+01 0.00000E+00
 -1      2360 1.02150E+02 4.22060E+01 0.00000E+00
 -1      2361 1.05900E+02 4.35050E+01 0.00000E+00
 -1      2362 1.07400E+02 4.35050E+01 0.00000E+00
 -1      2363 1.05150E+02 4.22060E+01 0.00000E+00
 -1      2364 1.08900E+02 4.35050E+01 0.00000E+00
 -1      2365 1.10400E+02 4.35050E+01 0.00000E+00
 -1      2366 1.08150E+02 4.22060E+01 0.00000E+00
 -1      2367 1.11900E+02 4.35050E+01 0.00000E+00
 -1      2368 1.13400E+02 4.35050E+01 0.00000E+00
 -1      2369 1.11150E+02 4.22060E+01 0.00000E+00
 -1      2370 1.14900E+02 4.35050E+01 0.00000E+00
 -1      2371 1.16400E+02 4.35050E+01 0.00000E+00
 -1      2372 1.14150E+02 4.22060E+01 0.00000E+00
 -1      2373 1.17900E+02 4.35050E+01 0.00000E+00
 -1      2374 1.19400E+02 4.35050E+01 0.00000E+00
 -1      2375 1.17150E+02 4.22060E+01 0.00000E+00
 -1      2376 1.20900E+02 4.35050E+01 0.00000E+00
 -1      2377 1.22400E+02 4.35050E+01 0.00000E+00
 -1      2378 1.20150E+02 4.22060E+01 0.00000E+00
 -1      2379 1.23900E+02 4.35050E+01 0.00000E+00
 -1      2380 1.25400E+02 4.35050E+01 0.00000E+00
 -1      2381 1.23150E+02 4.22060E+01 0.00000E+00
 -1      2382 1.26900E+02 4.35050E+01 0.00000E+00
 -1      2383 1.28400E+02 4.35050E+01 0.00000E+00
 -1      2384 1.26150E+02 4.22060E+01 0.00000E+00
 -1      2385 1.29900E+02 4.35050E+01 0.00000E+00
 -1      2386 1.31400E+02 4.35050E+01 0.00000E+00
 -1      2387 1.29150E+02 4.22060E+01 0.00000E+00
 -1      2388 1.32900E+02 4.35050E+01 0.00000E+00
 -1      2389 1.34400E+02 4.35050E+01 0.00000E+00
 -1      2390 1.32150E+02 4.22060E+01 0.00000E+00
 -1      2391 1.35900E+02 4.35050E+01 0.00000E+00
 -1      2392 1.37400E+02 4.35050E+01 0.00000E+00
 -1      2393 1.35150E+02 4.22060E+01 0.00000E+00
 -1      2394 1.38900E+02 4.35050E+01 0.00000E+00
 -1      2395 1.40400E+02 4.35050E+01 0.00000E+00
 -1      2396 1.38150E+02 4.22060E+01 0.00000E+00
 -1      2397 1.97850E+01 5.30525E+00 0.00000E+00
 -1      2398 1.82850E+01 5.30525E+00 0.00000E+00
 -1      2399 2.27850E+01 5.30525E+00 0.00000E+00
 -1      2400 2.12850E+01 5.30525E+00 0.00000E+00
 -1      2401 2.05350E+01 6.60425E+00 0.00000E+00
 -1      2402 2.57850E+01 5.30525E+00 0.00000E+00
 -1      2403 2.42850E+01 5.30525E+00 0.00000E+00
 -1      2404 2.35350E+01 6.60425E+00 0.00000E+00
 -1      2405 2.87850E+01 5.30525E+00 0.00000E+00
 -1      2406 2.72850E+01 5.30525E+00 0.00000E+00
 -1      2407 2.65350E+01 6.60425E+00 0.00000E+00
 -1      2408 3.17850E+01 5.30525E+00 0.00000E+00
 -1      2409 3.02850E+01 5.30525E+00 0.00000E+00
 -1      2410 2.95350E+01 6.60425E+00 0.00000E+00
 -1      2411 3.47850E+01 5.30525E+00 0.00000E+00
 -1      2412 3.32850E+01 5.30525E+00 0.00000E+00
 -1      2413 3.25350E+01 6.60425E+00 0.00000E+00
 -1      2414 3.77850E+01 5.30525E+00 0.00000E+00
 -1      2415 3.62850E+01 5.30525E+00 0.00000E+00
 -1      2416 3.55350E+01 6.60425E+00 0.00000E+00
 -1      2417 4.07850E+01 5.30525E+00 0.00000E+00
 -1      2418 3.92850E+01 5.30525E+00 0.00000E+00
 -1      2419 3.85350E+01 6.60425E+00 0.00000E+00
 -1      2420 4.37850E+01 5.30525E+00 0.00000E+00
 -1      2421 4.22850E+01 5.30525E+00 0.00000E+00
 -1      2422 4.15350E+01 6.60425E+00 0.00000E+00
 -1      2423 4.67850E+01 5.30525E+00 0.00000E+00
 -1      2424 4.52850E+01 5.30525E+00 0.00000E+00
 -1      2425 4.45350E+01 6.60425E+00 0.00000E+00
 -1      2426 4.97850E+01 5.30525E+00 0.00000E+00
 -1      2427 4.82850E+01 5.30525E+00 0.00000E+00
 -1      2428 4.75350E+01 6.60425E+00 0.00000E+00
 -1      2429 5.27850E+01 5.30525E+00 0.00000E+00
 -1      2430 5.12850E+01 5.30525E+00 0.00000E+00
 -1      2431 5.05350E+01 6.60425E+00 0.00000E+00
 -1      2432 5.57850E+01 5.30525E+00 0.00000E+00
 -1      2433 5.42850E+01 5.30525E+00 0.00000E+00
 -1      2434 5.35350E+01 6.60425E+00 0.00000E+00
 -1      2435 5.87850E+01 5.30525E+00 0.00000E+00
 -1      2436 5.72850E+01 5.30525E+00 0.00000E+00
 -1      2437 5.65350E+01 6.60425E+00 0.00000E+00
 -1      2438 6.17850E+01 5.30525E+00 0.00000E+00
 -1      2439 6.02850E+01 5.30525E+00 0.00000E+00
 -1      2440 5.95350E+01 6.60425E+00 0.00000E+00
 -1      2441 6.47850E+01 5.30525E+00 0.00000E+00
 -1      2442 6.32850E+01 5.30525E+00 0.00000E+00
 -1      2443 6.25350E+01 6.60425E+00 0.00000E+00
 -1      2444 6.77850E+01 5.30525E+00 0.00000E+00
 -1      2445 6.62850E+01 5.30525E+00 0.00000E+00
 -1      2446 6.55350E+01 6.60425E+00 0.00000E+00
 -1      2447 7.07850E+01 5.30525E+00 0.00000E+00
 -1      2448 6.92850E+01 5.30525E+00 0.00000E+00
 -1      2449 6.85350E+01 6.60425E+00 0.00000E+00
 -1      2450 7.37850E+01 5.30525E+00 0.00000E+00
 -1      2451 7.22850E+01 5.30525E+00 0.00000E+00
 -1      2452 7.15350E+01 6.60425E+00 0.00000E+00
 -1      2453 7.67850E+01 5.30525E+00 0.00000E+00
 -1      2454 7.52850E+01 5.30525E+00 0.00000E+00
 -1      2455 7.45350E+01 6.60425E+00 0.00000E+00
 -1      2456 7.97850E+01 5.30525E+00 0.00000E+00
 -1      2457 7.82850E+01 5.30525E+00 0.00000E+00
 -1      2458 7.75350E+01 6.60425E+00 0.00000E+00
 -1      2459 8.27850E+01 5.30525E+00 0.00000E+00
 -1      2460 8.12850E+01 5.30525E+00 0.00000E+00
 -1      2461 8.05350E+01 6.60425E+00 0.00000E+00
 -1      2462 8.57850E+01 5.30525E+00 0.00000E+00
 -1      2463 8.42850E+01 5.30525E+00 0.00000E+00
 -1      2464 8.35350E+01 6.60425E+00 0.00000E+00
 -1      2465 8.87850E+01 5.30525E+00 0.00000E+00
 -1      2466 8.72850E+01 5.30525E+00 0.00000E+00
 -1      2467 8.65350E+01 6.60425E+00 0.00000E+00
 -1      2468 9.17850E+01 5.30525E+00 0.00000E+00
 -1      2469 9.02850E+01 5.30525E+00 0.00000E+00
 -1      2470 8.95350E+01 6.60425E+00 0.00000E+00
 -1      2471 9.47850E+01 5.30525E+00 0.00000E+00
 -1      2472 9.32850E+01 5.30525E+00 0.00000E+00
 -1      2473 9.25350E+01 6.60425E+00 0.00000E+00
 -1      2474 9.77850E+01 5.30525E+00 0.00000E+00
 -1      2475 9.62850E+01 5.30525E+00 0.00000E+00
 -1      2476 9.55350E+01 6.60425E+00 0.00000E+00
 -1      2477 1.00785E+02 5.30525E+00 0.00000E+00
 -1      2478 9.92850E+01 5.30525E+00 0.00000E+00
 -1      2479 9.85350E+01 6.60425E+00 0.00000E+00
 -1      2480 1.03785E+02 5.30525E+00 0.00000E+00
 -1      2481 1.02285E+02 5.30525E+00 0.00000E+00
 -1      2482 1.01535E+02 6.60425E+00 0.00000E+00
 -1      2483 1.06785E+02 5.30525E+00 0.00000E+00
 -1      2484 1.05285E+02 5.30525E+00 0.00000E+00
 -1      2485 1.04535E+02 6.60425E+00 0.00000E+00
 -1      2486 1.09785E+02 5.30525E+00 0.00000E+00
 -1      2487 1.08285E+02 5.30525E+00 0.00000E+00
 -1      2488 1.07535E+02 6.60425E+00 0.00000E+00
 -1      2489 1.12785E+02 5.30525E+00 0.00000E+00
 -1      2490 1.11285E+02 5.30525E+00 0.00000E+00
 -1      2491 1.10535E+02 6.60425E+00 0.00000E+00
 -1      2492 1.15785E+02 5.30525E+00 0.00000E+00
 -1      2493 1.14285E+02 5.30525E+00 0.00000E+00
 -1      2494 1.13535E+02 6.60425E+00 0.00000E+00
 -1      2495 1.18785E+02 5.30525E+00 0.00000E+00
 -1      2496 1.17285E+02 5.30525E+00 0.00000E+00
 -1      2497 1.16535E+02 6.60425E+00 0.00000E+00
 -1      2498 1.21785E+02 5.30525E+00 0.00000E+00
 -1      2499 1.20285E+02 5.30525E+00 0.00000E+00
 -1      2500 1.19535E+02 6.60425E+00 0.00000E+00
 -1      2501 1.24785E+02 5.30525E+00 0.00000E+00
 -1      2502 1.23285E+02 5.30525E+00 0.00000E+00
 -1      2503 1.22535E+02 6.60425E+00 0.00000E+00
 -1      2504 1.27785E+02 5.30525E+00 0.00000E+00
 -1      2505 1.26285E+02 5.30525E+00 0.00000E+00
 -1      2506 1.25535E+02 6.60425E+00 0.00000E+00
 -1      2507 1.30785E+02 5.30525E+00 0.00000E+00
 -1      2508 1.29285E+02 5.30525E+00 0.00000E+00
 -1      2509 1.28535E+02 6.60425E+00 0.00000E+00
 -1      2510 1.33785E+02 5.30525E+00 0.00000E+00
 -1      2511 1.32285E+02 5.30525E+00 0.00000E+00
 -1      2512 1.31535E+02 6.60425E+00 0.00000E+00
 -1      2513 1.36785E+02 5.30525E+00 0.00000E+00
 -1      2514 1.35285E+02 5.30525E+00 0.00000E+00
 -1      2515 1.34535E+02 6.60425E+00 0.00000E+00
 -1      2516 1.39785E+02 5.30525E+00 0.00000E+00
 -1      2517 1.38285E+02 5.30525E+00 0.00000E+00
 -1      2518 1.37535E+02 6.60425E+00 0.00000E+00
 -1      2519 1.42785E+02 5.30525E+00 0.00000E+00
 -1      2520 1.41285E+02 5.30525E+00 0.00000E+00
 -1      2521 1.40535E+02 6.60425E+00 0.00000E+00
 -1      2522 1.44336E+02 5.26953E+00 0.00000E+00
 -1      2523 1.43505E+02 1.69125E+01 0.00000E+00
 -1      2524 1.43505E+02 1.54375E+01 0.00000E+00
 -1      2525 1.43505E+02 1.98625E+01 0.00000E+00
 -1      2526 1.43505E+02 1.83875E+01 0.00000E+00
 -1      2527 1.42206E+02 1.76500E+01 0.00000E+00
 -1      2528 1.43505E+02 1.10625E+01 0.00000E+00
 -1      2529 1.43505E+02 9.58750E+00 0.00000E+00
 -1      2530 1.43505E+02 1.39750E+01 0.00000E+00
 -1      2531 1.43505E+02 1.25250E+01 0.00000E+00
 -1      2532 1.42206E+02 1.17875E+01 0.00000E+00
 -1      2533 1.42206E+02 1.47125E+01 0.00000E+00
 -1      2534 1.43505E+02 2.28125E+01 0.00000E+00
 -1      2535 1.43505E+02 2.13375E+01 0.00000E+00
 -1      2536 1.42206E+02 2.06000E+01 0.00000E+00
 -1      2537 1.43505E+02 2.57625E+01 0.00000E+00
 -1      2538 1.43505E+02 2.42875E+01 0.00000E+00
 -1      2539 1.42206E+02 2.35500E+01 0.00000E+00
 -1      2540 1.43505E+02 2.87125E+01 0.00000E+00
 -1      2541 1.43505E+02 2.72375E+01 0.00000E+00
 -1      2542 1.42206E+02 2.65000E+01 0.00000E+00
 -1      2543 1.43505E+02 3.16125E+01 0.00000E+00
 -1      2544 1.43505E+02 3.01625E+01 0.00000E+00
 -1      2545 1.42206E+02 2.94250E+01 0.00000E+00
 -1      2546 1.43505E+02 3.45625E+01 0.00000E+00
 -1      2547 1.43505E+02 3.30875E+01 0.00000E+00
 -1      2548 1.42206E+02 3.23500E+01 0.00000E+00
 -1      2549 1.43505E+02 3.75125E+01 0.00000E+00
 -1      2550 1.43505E+02 3.60375E+01 0.00000E+00
 -1      2551 1.42206E+02 3.53000E+01 0.00000E+00
 -1      2552 1.43505E+02 4.04625E+01 0.00000E+00
 -1      2553 1.43505E+02 3.89875E+01 0.00000E+00
 -1      2554 1.42206E+02 3.82500E+01 0.00000E+00
 -1      2555 5.79923E+01 1.97877E+01 0.00000E+00
 -1      2556 5.85967E+01 2.06045E+01 0.00000E+00
 -1      2557 1.44321E+02 4.30606E+01 0.00000E+00
 -1      2558 5.48915E+01 1.67616E+01 0.00000E+00
 -1      2559 5.57859E+01 1.75011E+01 0.00000E+00
 -1      2560 1.67850E+01 5.30525E+00 0.00000E+00
 -1      2561 1.52850E+01 5.30525E+00 0.00000E+00
 -1      2562 1.75350E+01 6.60425E+00 0.00000E+00
 -1      2563 5.96862E+01 2.43376E+01 0.00000E+00
 -1      2564 5.97245E+01 2.52708E+01 0.00000E+00
 -1      2565 4.26987E+01 3.38783E+01 0.00000E+00
 -1      2566 4.19478E+01 3.29382E+01 0.00000E+00
 -1      2567 5.66265E+01 1.82551E+01 0.00000E+00
 -1      2568 5.73004E+01 1.89214E+01 0.00000E+00
 -1      2569 4.10154E+01 1.99378E+01 0.00000E+00
 -1      2570 4.15906E+01 1.91497E+01 0.00000E+00
 -1      2571 6.49500E+00 2.71625E+01 0.00000E+00
 -1      2572 6.49500E+00 2.86375E+01 0.00000E+00
 -1      2573 7.79400E+00 2.93750E+01 0.00000E+00
 -1      2574 7.79400E+00 2.64250E+01 0.00000E+00
 -1      2575 5.06098E+01 1.54457E+01 0.00000E+00
 -1      2576 5.16808E+01 1.56923E+01 0.00000E+00
 -1      2577 4.82882E+01 1.56889E+01 0.00000E+00
 -1      2578 4.92681E+01 1.55208E+01 0.00000E+00
 -1      2579 4.63005E+01 1.60714E+01 0.00000E+00
 -1      2580 4.72861E+01 1.58748E+01 0.00000E+00
 -1      2581 4.41931E+01 1.67230E+01 0.00000E+00
 -1      2582 4.50813E+01 1.62728E+01 0.00000E+00
 -1      2583 4.24200E+01 1.82921E+01 0.00000E+00
 -1      2584 4.32218E+01 1.75554E+01 0.00000E+00
 -1      2585 5.17291E+01 3.60716E+01 0.00000E+00
 -1      2586 5.05321E+01 3.62956E+01 0.00000E+00
 -1      2587 4.01162E+01 2.17808E+01 0.00000E+00
 -1      2588 4.05198E+01 2.09307E+01 0.00000E+00
 -1      2589 3.91879E+01 2.60651E+01 0.00000E+00
 -1      2590 3.92855E+01 2.51063E+01 0.00000E+00
 -1      2591 3.97327E+01 2.82986E+01 0.00000E+00
 -1      2592 3.94132E+01 2.73248E+01 0.00000E+00
 -1      2593 4.12118E+01 3.20402E+01 0.00000E+00
 -1      2594 4.07554E+01 3.12730E+01 0.00000E+00
 -1      2595 4.92345E+01 3.62675E+01 0.00000E+00
 -1      2596 4.83410E+01 3.61413E+01 0.00000E+00
 -1      2597 5.39127E+01 3.54002E+01 0.00000E+00
 -1      2598 5.29641E+01 3.57711E+01 0.00000E+00
 -1      2599 5.26457E+01 1.60361E+01 0.00000E+00
 -1      2600 5.35827E+01 1.62368E+01 0.00000E+00
 -1      2601 4.02837E+01 3.02859E+01 0.00000E+00
 -1      2602 3.99257E+01 2.93457E+01 0.00000E+00
 -1      2603 5.57958E+01 3.41396E+01 0.00000E+00
 -1      2604 5.50050E+01 3.47707E+01 0.00000E+00
 -1      2605 5.86799E+01 3.07732E+01 0.00000E+00
 -1      2606 5.81552E+01 3.15271E+01 0.00000E+00
 -1      2607 5.98553E+01 2.62473E+01 0.00000E+00
 -1      2608 5.98266E+01 2.71592E+01 0.00000E+00
 -1      2609 8.07525E+00 5.11044E+00 0.00000E+00
 -1      2610 6.57525E+00 5.11044E+00 0.00000E+00
 -1      2611 6.40575E+00 6.01981E+00 0.00000E+00
 -1      2612 8.82525E+00 6.40944E+00 0.00000E+00
 -1      2613 4.48189E+01 3.52265E+01 0.00000E+00
 -1      2614 4.38523E+01 3.48522E+01 0.00000E+00
 -1      2615 5.23026E+01 1.50771E+01 0.00000E+00
 -1      2616 7.79400E+00 3.52687E+01 0.00000E+00
 -1      2617 6.49500E+00 3.60062E+01 0.00000E+00
 -1      2618 6.49500E+00 3.74750E+01 0.00000E+00
 -1      2619 6.05255E+01 2.57524E+01 0.00000E+00
 -1      2620 6.40575E+00 7.49481E+00 0.00000E+00
 -1      2621 4.51735E+01 3.61905E+01 0.00000E+00
 -1      2622 3.97749E+01 3.11080E+01 0.00000E+00
 -1      2623 6.55950E+00 3.99453E+01 0.00000E+00
 -1      2624 5.48430E+01 3.57548E+01 0.00000E+00
 -1      2625 5.92876E+01 2.10320E+01 0.00000E+00
 -1      2626 5.99786E+01 2.14595E+01 0.00000E+00
 -1      2627 5.96412E+01 2.01384E+01 0.00000E+00
 -1      2628 5.67258E+01 1.72245E+01 0.00000E+00
 -1      2629 4.99830E+01 3.69572E+01 0.00000E+00
 -1      2630 1.43586E+02 6.56853E+00 0.00000E+00
 -1      2631 1.43419E+02 7.72713E+00 0.00000E+00
 -1      2632 4.09826E+01 3.29931E+01 0.00000E+00
 -1      2633 5.82583E+01 1.88447E+01 0.00000E+00
 -1      2634 1.42758E+02 4.35929E+01 0.00000E+00
 -1      2635 1.43241E+02 4.17323E+01 0.00000E+00
 -1      2636 1.41942E+02 4.09948E+01 0.00000E+00
 -1      2637 1.41414E+02 4.35342E+01 0.00000E+00
 -1      2638 3.91103E+01 2.90739E+01 0.00000E+00
 -1      2639 5.45763E+01 1.59456E+01 0.00000E+00
 -1      2640 5.55700E+01 1.56545E+01 0.00000E+00
 -1      2641 5.42612E+01 1.51296E+01 0.00000E+00
 -1      2642 1.45350E+01 6.60425E+00 0.00000E+00
 -1      2643 6.00099E+01 2.35645E+01 0.00000E+00
 -1      2644 6.07185E+01 2.40027E+01 0.00000E+00
 -1      2645 6.03336E+01 2.27913E+01 0.00000E+00
 -1      2646 3.86921E+01 2.67671E+01 0.00000E+00
 -1      2647 3.79711E+01 2.62095E+01 0.00000E+00
 -1      2648 3.81963E+01 2.74692E+01 0.00000E+00
 -1      2649 3.94548E+01 2.21967E+01 0.00000E+00
 -1      2650 6.01363E+01 2.78870E+01 0.00000E+00
 -1      2651 6.04460E+01 2.86148E+01 0.00000E+00
 -1      2652 6.09659E+01 2.74567E+01 0.00000E+00
 -1      2653 7.70475E+00 8.23231E+00 0.00000E+00
 -1      2654 5.93689E+01 3.03426E+01 0.00000E+00
 -1      2655 5.98105E+01 3.12094E+01 0.00000E+00
 -1      2656 6.00579E+01 2.99120E+01 0.00000E+00
 -1      2657 5.65856E+01 3.40981E+01 0.00000E+00
 -1      2658 5.81787E+01 3.23554E+01 0.00000E+00
 -1      2659 5.25157E+01 3.66848E+01 0.00000E+00
 -1      2660 4.14397E+01 1.81807E+01 0.00000E+00
 -1      2661 4.32403E+01 1.64907E+01 0.00000E+00
 -1      2662 4.54309E+01 1.54568E+01 0.00000E+00
 -1      2663 3.88788E+01 2.44384E+01 0.00000E+00
 -1      2664 4.01147E+01 2.00311E+01 0.00000E+00
 -1      2665 4.28723E+01 3.48651E+01 0.00000E+00
 -1      2666 4.18923E+01 3.48780E+01 0.00000E+00
 -1      2667 4.30459E+01 3.58519E+01 0.00000E+00
 -1      2668 4.75032E+01 3.67355E+01 0.00000E+00
 -1      2669 4.76523E+01 1.50694E+01 0.00000E+00
 -1      2670 1.40664E+02 4.22352E+01 0.00000E+00
 -1      2671 4.99961E+01 1.48084E+01 0.00000E+00
 -1      2672 1.42120E+02 8.46463E+00 0.00000E+00
 -1      2673 9.09300E+00 1.98250E+01 0.00000E+00
 -1      2674 9.09300E+00 2.12750E+01 0.00000E+00
 -1      2675 9.09300E+00 2.27500E+01 0.00000E+00
 -1      2676 9.09300E+00 2.42250E+01 0.00000E+00
 -1      2677 1.03920E+01 2.20250E+01 0.00000E+00
 -1      2678 9.09300E+00 1.39375E+01 0.00000E+00
 -1      2679 9.09300E+00 1.54125E+01 0.00000E+00
 -1      2680 9.09300E+00 1.09875E+01 0.00000E+00
 -1      2681 9.09300E+00 1.24625E+01 0.00000E+00
 -1      2682 1.03920E+01 1.32000E+01 0.00000E+00
 -1      2683 1.14000E+01 4.09070E+01 0.00000E+00
 -1      2684 1.29000E+01 4.09070E+01 0.00000E+00
 -1      2685 3.90858E+01 3.20435E+01 0.00000E+00
 -1      2686 3.86142E+01 3.10565E+01 0.00000E+00
 -1      2687 1.22850E+01 7.90325E+00 0.00000E+00
 -1      2688 1.07850E+01 7.90325E+00 0.00000E+00
 -1      2689 2.72850E+01 7.90325E+00 0.00000E+00
 -1      2690 2.57850E+01 7.90325E+00 0.00000E+00
 -1      2691 1.44000E+01 4.09070E+01 0.00000E+00
 -1      2692 1.59000E+01 4.09070E+01 0.00000E+00
 -1      2693 1.36500E+01 3.96080E+01 0.00000E+00
 -1      2694 1.74000E+01 4.09070E+01 0.00000E+00
 -1      2695 1.89000E+01 4.09070E+01 0.00000E+00
 -1      2696 1.66500E+01 3.96080E+01 0.00000E+00
 -1      2697 2.04000E+01 4.09070E+01 0.00000E+00
 -1      2698 2.19000E+01 4.09070E+01 0.00000E+00
 -1      2699 1.96500E+01 3.96080E+01 0.00000E+00
 -1      2700 2.34000E+01 4.09070E+01 0.00000E+00
 -1      2701 2.49000E+01 4.09070E+01 0.00000E+00
 -1      2702 2.26500E+01 3.96080E+01 0.00000E+00
 -1      2703 2.64000E+01 4.09070E+01 0.00000E+00
 -1      2704 2.79000E+01 4.09070E+01 0.00000E+00
 -1      2705 2.56500E+01 3.96080E+01 0.00000E+00
 -1      2706 2.94000E+01 4.09070E+01 0.00000E+00
 -1      2707 3.09000E+01 4.09070E+01 0.00000E+00
 -1      2708 2.86500E+01 3.96080E+01 0.00000E+00
 -1      2709 3.24000E+01 4.09070E+01 0.00000E+00
 -1      2710 3.39000E+01 4.09070E+01 0.00000E+00
 -1      2711 3.16500E+01 3.96080E+01 0.00000E+00
 -1      2712 3.54000E+01 4.09070E+01 0.00000E+00
 -1      2713 3.69000E+01 4.09070E+01 0.00000E+00
 -1      2714 3.46500E+01 3.96080E+01 0.00000E+00
 -1      2715 3.84000E+01 4.09070E+01 0.00000E+00
 -1      2716 3.99000E+01 4.09070E+01 0.00000E+00
 -1      2717 3.76500E+01 3.96080E+01 0.00000E+00
 -1      2718 4.14000E+01 4.09070E+01 0.00000E+00
 -1      2719 4.29000E+01 4.09070E+01 0.00000E+00
 -1      2720 4.06500E+01 3.96080E+01 0.00000E+00
 -1      2721 4.44000E+01 4.09070E+01 0.00000E+00
 -1      2722 4.59000E+01 4.09070E+01 0.00000E+00
 -1      2723 4.36500E+01 3.96080E+01 0.00000E+00
 -1      2724 4.74000E+01 4.09070E+01 0.00000E+00
 -1      2725 4.89000E+01 4.09070E+01 0.00000E+00
 -1      2726 4.66500E+01 3.96080E+01 0.00000E+00
 -1      2727 5.04000E+01 4.09070E+01 0.00000E+00
 -1      2728 5.19000E+01 4.09070E+01 0.00000E+00
 -1      2729 4.96500E+01 3.96080E+01 0.00000E+00
 -1      2730 5.34000E+01 4.09070E+01 0.00000E+00
 -1      2731 5.49000E+01 4.09070E+01 0.00000E+00
 -1      2732 5.26500E+01 3.96080E+01 0.00000E+00
 -1      2733 5.64000E+01 4.09070E+01 0.00000E+00
 -1      2734 5.79000E+01 4.09070E+01 0.00000E+00
 -1      2735 5.56500E+01 3.96080E+01 0.00000E+00
 -1      2736 5.94000E+01 4.09070E+01 0.00000E+00
 -1      2737 6.09000E+01 4.09070E+01 0.00000E+00
 -1      2738 5.86500E+01 3.96080E+01 0.00000E+00
 -1      2739 6.24000E+01 4.09070E+01 0.00000E+00
 -1      2740 6.39000E+01 4.09070E+01 0.00000E+00
 -1      2741 6.16500E+01 3.96080E+01 0.00000E+00
 -1      2742 6.54000E+01 4.09070E+01 0.00000E+00
 -1      2743 6.69000E+01 4.09070E+01 0.00000E+00
 -1      2744 6.46500E+01 3.96080E+01 0.00000E+00
 -1      2745 6.84000E+01 4.09070E+01 0.00000E+00
 -1      2746 6.99000E+01 4.09070E+01 0.00000E+00
 -1      2747 6.76500E+01 3.96080E+01 0.00000E+00
 -1      2748 7.14000E+01 4.09070E+01 0.00000E+00
 -1      2749 7.29000E+01 4.09070E+01 0.00000E+00
 -1      2750 7.06500E+01 3.96080E+01 0.00000E+00
 -1      2751 7.44000E+01 4.09070E+01 0.00000E+00
 -1      2752 7.59000E+01 4.09070E+01 0.00000E+00
 -1      2753 7.36500E+01 3.96080E+01 0.00000E+00
 -1      2754 7.74000E+01 4.09070E+01 0.00000E+00
 -1      2755 7.89000E+01 4.09070E+01 0.00000E+00
 -1      2756 7.66500E+01 3.96080E+01 0.00000E+00
 -1      2757 8.04000E+01 4.09070E+01 0.00000E+00
 -1      2758 8.19000E+01 4.09070E+01 0.00000E+00
 -1      2759 7.96500E+01 3.96080E+01 0.00000E+00
 -1      2760 8.34000E+01 4.09070E+01 0.00000E+00
 -1      2761 8.49000E+01 4.09070E+01 0.00000E+00
 -1      2762 8.26500E+01 3.96080E+01 0.00000E+00
 -1      2763 8.64000E+01 4.09070E+01 0.00000E+00
 -1      2764 8.79000E+01 4.09070E+01 0.00000E+00
 -1      2765 8.56500E+01 3.96080E+01 0.00000E+00
 -1      2766 8.94000E+01 4.09070E+01 0.00000E+00
 -1      2767 9.09000E+01 4.09070E+01 0.00000E+00
 -1      2768 8.86500E+01 3.96080E+01 0.00000E+00
 -1      2769 9.24000E+01 4.09070E+01 0.00000E+00
 -1      2770 9.39000E+01 4.09070E+01 0.00000E+00
 -1      2771 9.16500E+01 3.96080E+01 0.00000E+00
 -1      2772 9.54000E+01 4.09070E+01 0.00000E+00
 -1      2773 9.69000E+01 4.09070E+01 0.00000E+00
 -1      2774 9.46500E+01 3.96080E+01 0.00000E+00
 -1      2775 9.84000E+01 4.09070E+01 0.00000E+00
 -1      2776 9.99000E+01 4.09070E+01 0.00000E+00
 -1      2777 9.76500E+01 3.96080E+01 0.00000E+00
 -1      2778 1.01400E+02 4.09070E+01 0.00000E+00
 -1      2779 1.02900E+02 4.09070E+01 0.00000E+00
 -1      2780 1.00650E+02 3.96080E+01 0.00000E+00
 -1      2781 1.04400E+02 4.09070E+01 0.00000E+00
 -1      2782 1.05900E+02 4.09070E+01 0.00000E+00
 -1      2783 1.03650E+02 3.96080E+01 0.00000E+00
 -1      2784 1.07400E+02 4.09070E+01 0.00000E+00
 -1      2785 1.08900E+02 4.09070E+01 0.00000E+00
 -1      2786 1.06650E+02 3.96080E+01 0.00000E+00
 -1      2787 1.10400E+02 4.09070E+01 0.00000E+00
 -1      2788 1.11900E+02 4.09070E+01 0.00000E+00
 -1      2789 1.09650E+02 3.96080E+01 0.00000E+00
 -1      2790 1.13400E+02 4.09070E+01 0.00000E+00
 -1      2791 1.14900E+02 4.09070E+01 0.00000E+00
 -1      2792 1.12650E+02 3.96080E+01 0.00000E+00
 -1      2793 1.16400E+02 4.09070E+01 0.00000E+00
 -1      2794 1.17900E+02 4.09070E+01 0.00000E+00
 -1      2795 1.15650E+02 3.96080E+01 0.00000E+00
 -1      2796 1.19400E+02 4.09070E+01 0.00000E+00
 -1      2797 1.20900E+02 4.09070E+01 0.00000E+00
 -1      2798 1.18650E+02 3.96080E+01 0.00000E+00
 -1      2799 1.22400E+02 4.09070E+01 0.00000E+00
 -1      2800 1.23900E+02 4.09070E+01 0.00000E+00
 -1      2801 1.21650E+02 3.96080E+01 0.00000E+00
 -1      2802 1.25400E+02 4.09070E+01 0.00000E+00
 -1      2803 1.26900E+02 4.09070E+01 0.00000E+00
 -1      2804 1.24650E+02 3.96080E+01 0.00000E+00
 -1      2805 1.28400E+02 4.09070E+01 0.00000E+00
 -1      2806 1.29900E+02 4.09070E+01 0.00000E+00
 -1      2807 1.27650E+02 3.96080E+01 0.00000E+00
 -1      2808 1.31400E+02 4.09070E+01 0.00000E+00
 -1      2809 1.32900E+02 4.09070E+01 0.00000E+00
 -1      2810 1.30650E+02 3.96080E+01 0.00000E+00
 -1      2811 1.34400E+02 4.09070E+01 0.00000E+00
 -1      2812 1.35900E+02 4.09070E+01 0.00000E+00
 -1      2813 1.33650E+02 3.96080E+01 0.00000E+00
 -1      2814 1.37400E+02 4.09070E+01 0.00000E+00
 -1      2815 1.38900E+02 4.09070E+01 0.00000E+00
 -1      2816 1.36650E+02 3.96080E+01 0.00000E+00
 -1      2817 2.42850E+01 7.90325E+00 0.00000E+00
 -1      2818 2.27850E+01 7.90325E+00 0.00000E+00
 -1      2819 2.50350E+01 9.20225E+00 0.00000E+00
 -1      2820 3.82810E+01 2.97680E+01 0.00000E+00
 -1      2821 3.80881E+01 2.87210E+01 0.00000E+00
 -1      2822 2.12850E+01 7.90325E+00 0.00000E+00
 -1      2823 1.97850E+01 7.90325E+00 0.00000E+00
 -1      2824 2.20350E+01 9.20225E+00 0.00000E+00
 -1      2825 3.02850E+01 7.90325E+00 0.00000E+00
 -1      2826 2.87850E+01 7.90325E+00 0.00000E+00
 -1      2827 2.80350E+01 9.20225E+00 0.00000E+00
 -1      2828 3.32850E+01 7.90325E+00 0.00000E+00
 -1      2829 3.17850E+01 7.90325E+00 0.00000E+00
 -1      2830 3.10350E+01 9.20225E+00 0.00000E+00
 -1      2831 3.62850E+01 7.90325E+00 0.00000E+00
 -1      2832 3.47850E+01 7.90325E+00 0.00000E+00
 -1      2833 3.40350E+01 9.20225E+00 0.00000E+00
 -1      2834 3.92850E+01 7.90325E+00 0.00000E+00
 -1      2835 3.77850E+01 7.90325E+00 0.00000E+00
 -1      2836 3.70350E+01 9.20225E+00 0.00000E+00
 -1      2837 4.22850E+01 7.90325E+00 0.00000E+00
 -1      2838 4.07850E+01 7.90325E+00 0.00000E+00
 -1      2839 4.00350E+01 9.20225E+00 0.00000E+00
 -1      2840 4.52850E+01 7.90325E+00 0.00000E+00
 -1      2841 4.37850E+01 7.90325E+00 0.00000E+00
 -1      2842 4.30350E+01 9.20225E+00 0.00000E+00
 -1      2843 4.82850E+01 7.90325E+00 0.00000E+00
 -1      2844 4.67850E+01 7.90325E+00 0.00000E+00
 -1      2845 4.60350E+01 9.20225E+00 0.00000E+00
 -1      2846 5.12850E+01 7.90325E+00 0.00000E+00
 -1      2847 4.97850E+01 7.90325E+00 0.00000E+00
 -1      2848 4.90350E+01 9.20225E+00 0.00000E+00
 -1      2849 5.42850E+01 7.90325E+00 0.00000E+00
 -1      2850 5.27850E+01 7.90325E+00 0.00000E+00
 -1      2851 5.20350E+01 9.20225E+00 0.00000E+00
 -1      2852 5.72850E+01 7.90325E+00 0.00000E+00
 -1      2853 5.57850E+01 7.90325E+00 0.00000E+00
 -1      2854 5.50350E+01 9.20225E+00 0.00000E+00
 -1      2855 6.02850E+01 7.90325E+00 0.00000E+00
 -1      2856 5.87850E+01 7.90325E+00 0.00000E+00
 -1      2857 5.80350E+01 9.20225E+00 0.00000E+00
 -1      2858 6.32850E+01 7.90325E+00 0.00000E+00
 -1      2859 6.17850E+01 7.90325E+00 0.00000E+00
 -1      2860 6.10350E+01 9.20225E+00 0.00000E+00
 -1      2861 6.62850E+01 7.90325E+00 0.00000E+00
 -1      2862 6.47850E+01 7.90325E+00 0.00000E+00
 -1      2863 6.40350E+01 9.20225E+00 0.00000E+00
 -1      2864 6.92850E+01 7.90325E+00 0.00000E+00
 -1      2865 6.77850E+01 7.90325E+00 0.00000E+00
 -1      2866 6.70350E+01 9.20225E+00 0.00000E+00
 -1      2867 7.22850E+01 7.90325E+00 0.00000E+00
 -1      2868 7.07850E+01 7.90325E+00 0.00000E+00
 -1      2869 7.00350E+01 9.20225E+00 0.00000E+00
 -1      2870 7.52850E+01 7.90325E+00 0.00000E+00
 -1      2871 7.37850E+01 7.90325E+00 0.00000E+00
 -1      2872 7.30350E+01 9.20225E+00 0.00000E+00
 -1      2873 7.82850E+01 7.90325E+00 0.00000E+00
 -1      2874 7.67850E+01 7.90325E+00 0.00000E+00
 -1      2875 7.60350E+01 9.20225E+00 0.00000E+00
 -1      2876 8.12850E+01 7.90325E+00 0.00000E+00
 -1      2877 7.97850E+01 7.90325E+00 0.00000E+00
 -1      2878 7.90350E+01 9.20225E+00 0.00000E+00
 -1      2879 8.42850E+01 7.90325E+00 0.00000E+00
 -1      2880 8.27850E+01 7.90325E+00 0.00000E+00
 -1      2881 8.20350E+01 9.20225E+00 0.00000E+00
 -1      2882 8.72850E+01 7.90325E+00 0.00000E+00
 -1      2883 8.57850E+01 7.90325E+00 0.00000E+00
 -1      2884 8.50350E+01 9.20225E+00 0.00000E+00
 -1      2885 9.02850E+01 7.90325E+00 0.00000E+00
 -1      2886 8.87850E+01 7.90325E+00 0.00000E+00
 -1      2887 8.80350E+01 9.20225E+00 0.00000E+00
 -1      2888 9.32850E+01 7.90325E+00 0.00000E+00
 -1      2889 9.17850E+01 7.90325E+00 0.00000E+00
 -1      2890 9.10350E+01 9.20225E+00 0.00000E+00
 -1      2891 9.62850E+01 7.90325E+00 0.00000E+00
 -1      2892 9.47850E+01 7.90325E+00 0.00000E+00
 -1      2893 9.40350E+01 9.20225E+00 0.00000E+00
 -1      2894 9.92850E+01 7.90325E+00 0.00000E+00
 -1      2895 9.77850E+01 7.90325E+00 0.00000E+00
 -1      2896 9.70350E+01 9.20225E+00 0.00000E+00
 -1      2897 1.02285E+02 7.90325E+00 0.00000E+00
 -1      2898 1.00785E+02 7.90325E+00 0.00000E+00
 -1      2899 1.00035E+02 9.20225E+00 0.00000E+00
 -1      2900 1.05285E+02 7.90325E+00 0.00000E+00
 -1      2901 1.03785E+02 7.90325E+00 0.00000E+00
 -1      2902 1.03035E+02 9.20225E+00 0.00000E+00
 -1      2903 1.08285E+02 7.90325E+00 0.00000E+00
 -1      2904 1.06785E+02 7.90325E+00 0.00000E+00
 -1      2905 1.06035E+02 9.20225E+00 0.00000E+00
 -1      2906 1.11285E+02 7.90325E+00 0.00000E+00
 -1      2907 1.09785E+02 7.90325E+00 0.00000E+00
 -1      2908 1.09035E+02 9.20225E+00 0.00000E+00
 -1      2909 1.14285E+02 7.90325E+00 0.00000E+00
 -1      2910 1.12785E+02 7.90325E+00 0.00000E+00
 -1      2911 1.12035E+02 9.20225E+00 0.00000E+00
 -1      2912 1.17285E+02 7.90325E+00 0.00000E+00
 -1      2913 1.15785E+02 7.90325E+00 0.00000E+00
 -1      2914 1.15035E+02 9.20225E+00 0.00000E+00
 -1      2915 1.20285E+02 7.90325E+00 0.00000E+00
 -1      2916 1.18785E+02 7.90325E+00 0.00000E+00
 -1      2917 1.18035E+02 9.20225E+00 0.00000E+00
 -1      2918 1.23285E+02 7.90325E+00 0.00000E+00
 -1      2919 1.21785E+02 7.90325E+00 0.00000E+00
 -1      2920 1.21035E+02 9.20225E+00 0.00000E+00
 -1      2921 1.26285E+02 7.90325E+00 0.00000E+00
 -1      2922 1.24785E+02 7.90325E+00 0.00000E+00
 -1      2923 1.24035E+02 9.20225E+00 0.00000E+00
 -1      2924 1.29285E+02 7.90325E+00 0.00000E+00
 -1      2925 1.27785E+02 7.90325E+00 0.00000E+00
 -1      2926 1.27035E+02 9.20225E+00 0.00000E+00
 -1      2927 1.32285E+02 7.90325E+00 0.00000E+00
 -1      2928 1.30785E+02 7.90325E+00 0.00000E+00
 -1      2929 1.30035E+02 9.20225E+00 0.00000E+00
 -1      2930 1.35285E+02 7.90325E+00 0.00000E+00
 -1      2931 1.33785E+02 7.90325E+00 0.00000E+00
 -1      2932 1.33035E+02 9.20225E+00 0.00000E+00
 -1      2933 1.38285E+02 7.90325E+00 0.00000E+00
 -1      2934 1.36785E+02 7.90325E+00 0.00000E+00
 -1      2935 1.36035E+02 9.20225E+00 0.00000E+00
 -1      2936 1.40953E+02 8.18394E+00 0.00000E+00
 -1      2937 1.39453E+02 8.18394E+00 0.00000E+00
 -1      2938 1.38703E+02 9.48294E+00 0.00000E+00
 -1      2939 1.41038E+02 1.00443E+01 0.00000E+00
 -1      2940 1.40907E+02 2.42875E+01 0.00000E+00
 -1      2941 1.40907E+02 2.28125E+01 0.00000E+00
 -1      2942 1.40907E+02 1.83875E+01 0.00000E+00
 -1      2943 1.40907E+02 1.69125E+01 0.00000E+00
 -1      2944 1.40907E+02 2.72375E+01 0.00000E+00
 -1      2945 1.40907E+02 2.57625E+01 0.00000E+00
 -1      2946 1.39608E+02 2.50250E+01 0.00000E+00
 -1      2947 1.40907E+02 2.13375E+01 0.00000E+00
 -1      2948 1.40907E+02 1.98625E+01 0.00000E+00
 -1      2949 1.39608E+02 1.91250E+01 0.00000E+00
 -1      2950 1.39608E+02 2.20750E+01 0.00000E+00
 -1      2951 1.82850E+01 7.90325E+00 0.00000E+00
 -1      2952 1.67850E+01 7.90325E+00 0.00000E+00
 -1      2953 1.90350E+01 9.20225E+00 0.00000E+00
 -1      2954 1.40907E+02 3.01375E+01 0.00000E+00
 -1      2955 1.40907E+02 2.86875E+01 0.00000E+00
 -1      2956 1.39608E+02 2.79500E+01 0.00000E+00
 -1      2957 1.40907E+02 3.30875E+01 0.00000E+00
 -1      2958 1.40907E+02 3.16125E+01 0.00000E+00
 -1      2959 1.39608E+02 3.08750E+01 0.00000E+00
 -1      2960 1.40907E+02 3.60375E+01 0.00000E+00
 -1      2961 1.40907E+02 3.45625E+01 0.00000E+00
 -1      2962 1.39608E+02 3.38250E+01 0.00000E+00
 -1      2963 5.69899E+01 1.60844E+01 0.00000E+00
 -1      2964 5.78306E+01 1.68383E+01 0.00000E+00
 -1      2965 4.92773E+01 1.39897E+01 0.00000E+00
 -1      2966 5.06190E+01 1.39146E+01 0.00000E+00
 -1      2967 8.91450E+00 8.42712E+00 0.00000E+00
 -1      2968 5.85824E+01 1.78764E+01 0.00000E+00
 -1      2969 5.92743E+01 1.87426E+01 0.00000E+00
 -1      2970 5.91431E+01 3.26475E+01 0.00000E+00
 -1      2971 5.82004E+01 3.33629E+01 0.00000E+00
 -1      2972 5.75501E+01 3.43902E+01 0.00000E+00
 -1      2973 5.68998E+01 3.54174E+01 0.00000E+00
 -1      2974 5.85145E+01 3.46822E+01 0.00000E+00
 -1      2975 1.40928E+02 4.09655E+01 0.00000E+00
 -1      2976 1.41192E+02 3.96958E+01 0.00000E+00
 -1      2977 1.39914E+02 4.09362E+01 0.00000E+00
 -1      2978 6.13101E+01 2.51503E+01 0.00000E+00
 -1      2979 6.14408E+01 2.61268E+01 0.00000E+00
 -1      2980 4.21421E+01 1.61922E+01 0.00000E+00
 -1      2981 4.31134E+01 1.53597E+01 0.00000E+00
 -1      2982 5.58592E+01 3.62557E+01 0.00000E+00
 -1      2983 5.47669E+01 3.68852E+01 0.00000E+00
 -1      2984 9.09300E+00 1.68813E+01 0.00000E+00
 -1      2985 9.09300E+00 1.83563E+01 0.00000E+00
 -1      2986 1.03920E+01 1.90812E+01 0.00000E+00
 -1      2987 1.03920E+01 1.61437E+01 0.00000E+00
 -1      2988 9.09300E+00 3.15875E+01 0.00000E+00
 -1      2989 9.09300E+00 3.30625E+01 0.00000E+00
 -1      2990 3.78726E+01 2.46646E+01 0.00000E+00
 -1      2991 3.82845E+01 2.35956E+01 0.00000E+00
 -1      2992 4.46814E+01 1.47115E+01 0.00000E+00
 -1      2993 4.59007E+01 1.45100E+01 0.00000E+00
 -1      2994 4.05578E+01 3.40919E+01 0.00000E+00
 -1      2995 3.98218E+01 3.31939E+01 0.00000E+00
 -1      2996 3.91371E+01 2.01632E+01 0.00000E+00
 -1      2997 3.96327E+01 1.91703E+01 0.00000E+00
 -1      2998 3.84487E+01 2.24228E+01 0.00000E+00
 -1      2999 3.86128E+01 2.12501E+01 0.00000E+00
 -1      3000 3.74425E+01 2.26490E+01 0.00000E+00
 -1      3001 7.85850E+00 3.92077E+01 0.00000E+00
 -1      3002 4.69028E+01 1.43241E+01 0.00000E+00
 -1      3003 4.79049E+01 1.41381E+01 0.00000E+00
 -1      3004 4.61534E+01 1.35787E+01 0.00000E+00
 -1      3005 4.04086E+01 1.80133E+01 0.00000E+00
 -1      3006 4.12380E+01 1.71557E+01 0.00000E+00
 -1      3007 1.52850E+01 7.90325E+00 0.00000E+00
 -1      3008 1.37850E+01 7.90325E+00 0.00000E+00
 -1      3009 1.30350E+01 9.20225E+00 0.00000E+00
 -1      3010 1.60350E+01 9.20225E+00 0.00000E+00
 -1      3011 5.35319E+01 3.71857E+01 0.00000E+00
 -1      3012 5.22969E+01 3.74862E+01 0.00000E+00
 -1      3013 5.45480E+01 3.76866E+01 0.00000E+00
 -1      3014 4.54716E+01 3.72662E+01 0.00000E+00
 -1      3015 4.43241E+01 3.69148E+01 0.00000E+00
 -1      3016 5.21080E+01 1.40974E+01 0.00000E+00
 -1      3017 5.30729E+01 1.44411E+01 0.00000E+00
 -1      3018 9.09300E+00 3.45313E+01 0.00000E+00
 -1      3019 9.09300E+00 3.60000E+01 0.00000E+00
 -1      3020 1.03920E+01 3.37938E+01 0.00000E+00
 -1      3021 1.03920E+01 2.49750E+01 0.00000E+00
 -1      3022 9.09300E+00 2.57000E+01 0.00000E+00
 -1      3023 9.09300E+00 2.71750E+01 0.00000E+00
 -1      3024 1.39164E+02 3.96372E+01 0.00000E+00
 -1      3025 6.05212E+01 3.17862E+01 0.00000E+00
 -1      3026 5.98321E+01 3.22169E+01 0.00000E+00
 -1      3027 5.98538E+01 3.32243E+01 0.00000E+00
 -1      3028 3.75919E+01 3.07036E+01 0.00000E+00
 -1      3029 3.73670E+01 2.81633E+01 0.00000E+00
 -1      3030 4.85279E+01 1.32444E+01 0.00000E+00
 -1      3031 5.99653E+01 1.91701E+01 0.00000E+00
 -1      3032 6.06562E+01 1.95976E+01 0.00000E+00
 -1      3033 6.02894E+01 1.82018E+01 0.00000E+00
 -1      3034 1.41038E+02 1.15068E+01 0.00000E+00
 -1      3035 1.39870E+02 1.12261E+01 0.00000E+00
 -1      3036 1.41038E+02 1.29693E+01 0.00000E+00
 -1      3037 5.88466E+01 1.67363E+01 0.00000E+00
 -1      3038 5.66748E+01 1.52683E+01 0.00000E+00
 -1      3039 5.77796E+01 1.48822E+01 0.00000E+00
 -1      3040 5.63596E+01 1.44523E+01 0.00000E+00
 -1      3041 1.41192E+02 3.82207E+01 0.00000E+00
 -1      3042 5.13892E+01 1.32787E+01 0.00000E+00
 -1      3043 9.66450E+00 9.72612E+00 0.00000E+00
 -1      3044 5.40665E+01 1.41499E+01 0.00000E+00
 -1      3045 3.81309E+01 2.03893E+01 0.00000E+00
 -1      3046 6.06872E+01 2.18978E+01 0.00000E+00
 -1      3047 6.13957E+01 2.23360E+01 0.00000E+00
 -1      3048 6.10407E+01 2.10042E+01 0.00000E+00
 -1      3049 4.07314E+01 3.50788E+01 0.00000E+00
 -1      3050 3.95705E+01 3.52795E+01 0.00000E+00
 -1      3051 4.09050E+01 3.60656E+01 0.00000E+00
 -1      3052 6.17505E+01 2.68546E+01 0.00000E+00
 -1      3053 6.20602E+01 2.75824E+01 0.00000E+00
 -1      3054 6.25351E+01 2.62526E+01 0.00000E+00
 -1      3055 4.35832E+01 1.44129E+01 0.00000E+00
 -1      3056 4.40531E+01 1.34661E+01 0.00000E+00
 -1      3057 4.24850E+01 1.41144E+01 0.00000E+00
 -1      3058 6.08875E+01 2.94816E+01 0.00000E+00
 -1      3059 6.13291E+01 3.03484E+01 0.00000E+00
 -1      3060 6.17171E+01 2.90513E+01 0.00000E+00
 -1      3061 5.68237E+01 3.65478E+01 0.00000E+00
 -1      3062 4.11110E+01 1.60248E+01 0.00000E+00
 -1      3063 3.68810E+01 2.60687E+01 0.00000E+00
 -1      3064 3.73768E+01 2.53666E+01 0.00000E+00
 -1      3065 3.67826E+01 2.45238E+01 0.00000E+00
 -1      3066 5.06133E+01 3.78286E+01 0.00000E+00
 -1      3067 4.93156E+01 3.78005E+01 0.00000E+00
 -1      3068 6.16338E+01 2.43772E+01 0.00000E+00
 -1      3069 1.40973E+02 1.56722E+01 0.00000E+00
 -1      3070 1.40973E+02 1.42097E+01 0.00000E+00
 -1      3071 1.39805E+02 1.39290E+01 0.00000E+00
 -1      3072 1.39674E+02 1.64097E+01 0.00000E+00
 -1      3073 9.09300E+00 2.86437E+01 0.00000E+00
 -1      3074 9.09300E+00 3.01187E+01 0.00000E+00
 -1      3075 1.03920E+01 3.08563E+01 0.00000E+00
 -1      3076 1.03920E+01 2.79188E+01 0.00000E+00
 -1      3077 3.86610E+01 3.31423E+01 0.00000E+00
 -1      3078 1.09635E+01 1.04636E+01 0.00000E+00
 -1      3079 9.15750E+00 3.77359E+01 0.00000E+00
 -1      3080 9.22200E+00 4.02061E+01 0.00000E+00
 -1      3081 1.05855E+01 4.04701E+01 0.00000E+00
 -1      3082 1.04565E+01 3.69984E+01 0.00000E+00
 -1      3083 3.94310E+01 1.81454E+01 0.00000E+00
 -1      3084 1.13355E+01 3.91711E+01 0.00000E+00
 -1      3085 1.39529E+02 3.85602E+01 0.00000E+00
 -1      3086 1.40542E+02 3.71145E+01 0.00000E+00
 -1      3087 1.39243E+02 3.63770E+01 0.00000E+00
 -1      3088 1.38514E+02 3.85310E+01 0.00000E+00
 -1      3089 4.79557E+01 3.76785E+01 0.00000E+00
 -1      3090 4.67735E+01 3.74849E+01 0.00000E+00
 -1      3091 4.85859E+01 3.85500E+01 0.00000E+00
 -1      3092 4.59241E+01 3.82093E+01 0.00000E+00
 -1      3093 1.16910E+01 1.24625E+01 0.00000E+00
 -1      3094 1.16910E+01 1.39375E+01 0.00000E+00
 -1      3095 5.40283E+01 1.28462E+01 0.00000E+00
 -1      3096 5.52166E+01 1.35347E+01 0.00000E+00
 -1      3097 2.87850E+01 1.05013E+01 0.00000E+00
 -1      3098 2.72850E+01 1.05013E+01 0.00000E+00
 -1      3099 1.59000E+01 3.83090E+01 0.00000E+00
 -1      3100 1.74000E+01 3.83090E+01 0.00000E+00
 -1      3101 1.89000E+01 3.83090E+01 0.00000E+00
 -1      3102 2.04000E+01 3.83090E+01 0.00000E+00
 -1      3103 1.81500E+01 3.70100E+01 0.00000E+00
 -1      3104 2.19000E+01 3.83090E+01 0.00000E+00
 -1      3105 2.34000E+01 3.83090E+01 0.00000E+00
 -1      3106 2.11500E+01 3.70100E+01 0.00000E+00
 -1      3107 2.49000E+01 3.83090E+01 0.00000E+00
 -1      3108 2.64000E+01 3.83090E+01 0.00000E+00
 -1      3109 2.41500E+01 3.70100E+01 0.00000E+00
 -1      3110 2.79000E+01 3.83090E+01 0.00000E+00
 -1      3111 2.94000E+01 3.83090E+01 0.00000E+00
 -1      3112 2.71500E+01 3.70100E+01 0.00000E+00
 -1      3113 3.09000E+01 3.83090E+01 0.00000E+00
 -1      3114 3.24000E+01 3.83090E+01 0.00000E+00
 -1      3115 3.01500E+01 3.70100E+01 0.00000E+00
 -1      3116 3.39000E+01 3.83090E+01 0.00000E+00
 -1      3117 3.54000E+01 3.83090E+01 0.00000E+00
 -1      3118 3.31500E+01 3.70100E+01 0.00000E+00
 -1      3119 3.94471E+01 3.79372E+01 0.00000E+00
 -1      3120 4.09471E+01 3.79372E+01 0.00000E+00
 -1      3121 4.33861E+01 3.87993E+01 0.00000E+00
 -1      3122 4.48861E+01 3.87993E+01 0.00000E+00
 -1      3123 5.22315E+01 3.87975E+01 0.00000E+00
 -1      3124 5.37315E+01 3.87975E+01 0.00000E+00
 -1      3125 5.79000E+01 3.84991E+01 0.00000E+00
 -1      3126 5.94000E+01 3.84991E+01 0.00000E+00
 -1      3127 6.09000E+01 3.84991E+01 0.00000E+00
 -1      3128 6.24000E+01 3.84991E+01 0.00000E+00
 -1      3129 6.01500E+01 3.73902E+01 0.00000E+00
 -1      3130 6.39000E+01 3.84991E+01 0.00000E+00
 -1      3131 6.54000E+01 3.84991E+01 0.00000E+00
 -1      3132 6.31500E+01 3.73902E+01 0.00000E+00
 -1      3133 6.69000E+01 3.84991E+01 0.00000E+00
 -1      3134 6.84000E+01 3.84991E+01 0.00000E+00
 -1      3135 6.61500E+01 3.73902E+01 0.00000E+00
 -1      3136 6.99000E+01 3.84991E+01 0.00000E+00
 -1      3137 7.14000E+01 3.84991E+01 0.00000E+00
 -1      3138 6.91500E+01 3.73902E+01 0.00000E+00
 -1      3139 7.29000E+01 3.84991E+01 0.00000E+00
 -1      3140 7.44000E+01 3.84991E+01 0.00000E+00
 -1      3141 7.21500E+01 3.73902E+01 0.00000E+00
 -1      3142 7.59000E+01 3.84991E+01 0.00000E+00
 -1      3143 7.74000E+01 3.84991E+01 0.00000E+00
 -1      3144 7.51500E+01 3.73902E+01 0.00000E+00
 -1      3145 7.89000E+01 3.84991E+01 0.00000E+00
 -1      3146 8.04000E+01 3.84991E+01 0.00000E+00
 -1      3147 7.81500E+01 3.73902E+01 0.00000E+00
 -1      3148 8.19000E+01 3.84991E+01 0.00000E+00
 -1      3149 8.34000E+01 3.84991E+01 0.00000E+00
 -1      3150 8.11500E+01 3.73902E+01 0.00000E+00
 -1      3151 8.49000E+01 3.84991E+01 0.00000E+00
 -1      3152 8.64000E+01 3.84991E+01 0.00000E+00
 -1      3153 8.41500E+01 3.73902E+01 0.00000E+00
 -1      3154 8.79000E+01 3.84991E+01 0.00000E+00
 -1      3155 8.94000E+01 3.84991E+01 0.00000E+00
 -1      3156 8.71500E+01 3.73902E+01 0.00000E+00
 -1      3157 9.09000E+01 3.84991E+01 0.00000E+00
 -1      3158 9.24000E+01 3.84991E+01 0.00000E+00
 -1      3159 9.01500E+01 3.73902E+01 0.00000E+00
 -1      3160 9.39000E+01 3.84991E+01 0.00000E+00
 -1      3161 9.54000E+01 3.84991E+01 0.00000E+00
 -1      3162 9.31500E+01 3.73902E+01 0.00000E+00
 -1      3163 9.69000E+01 3.84991E+01 0.00000E+00
 -1      3164 9.84000E+01 3.84991E+01 0.00000E+00
 -1      3165 9.61500E+01 3.73902E+01 0.00000E+00
 -1      3166 9.99000E+01 3.84991E+01 0.00000E+00
 -1      3167 1.01400E+02 3.84991E+01 0.00000E+00
 -1      3168 9.91500E+01 3.73902E+01 0.00000E+00
 -1      3169 1.02900E+02 3.84991E+01 0.00000E+00
 -1      3170 1.04400E+02 3.84991E+01 0.00000E+00
 -1      3171 1.02150E+02 3.73902E+01 0.00000E+00
 -1      3172 1.05900E+02 3.84991E+01 0.00000E+00
 -1      3173 1.07400E+02 3.84991E+01 0.00000E+00
 -1      3174 1.05150E+02 3.73902E+01 0.00000E+00
 -1      3175 1.08900E+02 3.84991E+01 0.00000E+00
 -1      3176 1.10400E+02 3.84991E+01 0.00000E+00
 -1      3177 1.08150E+02 3.73902E+01 0.00000E+00
 -1      3178 1.11900E+02 3.84991E+01 0.00000E+00
 -1      3179 1.13400E+02 3.84991E+01 0.00000E+00
 -1      3180 1.11150E+02 3.73902E+01 0.00000E+00
 -1      3181 1.14900E+02 3.84991E+01 0.00000E+00
 -1      3182 1.16400E+02 3.84991E+01 0.00000E+00
 -1      3183 1.14150E+02 3.73902E+01 0.00000E+00
 -1      3184 1.17900E+02 3.84991E+01 0.00000E+00
 -1      3185 1.19400E+02 3.84991E+01 0.00000E+00
 -1      3186 1.17150E+02 3.73902E+01 0.00000E+00
 -1      3187 1.20900E+02 3.84991E+01 0.00000E+00
 -1      3188 1.22400E+02 3.84991E+01 0.00000E+00
 -1      3189 1.20150E+02 3.73902E+01 0.00000E+00
 -1      3190 1.23900E+02 3.84991E+01 0.00000E+00
 -1      3191 1.25400E+02 3.84991E+01 0.00000E+00
 -1      3192 1.23150E+02 3.73902E+01 0.00000E+00
 -1      3193 1.26900E+02 3.84991E+01 0.00000E+00
 -1      3194 1.28400E+02 3.84991E+01 0.00000E+00
 -1      3195 1.26150E+02 3.73902E+01 0.00000E+00
 -1      3196 1.29900E+02 3.84991E+01 0.00000E+00
 -1      3197 1.31400E+02 3.84991E+01 0.00000E+00
 -1      3198 1.29150E+02 3.73902E+01 0.00000E+00
 -1      3199 1.32900E+02 3.84991E+01 0.00000E+00
 -1      3200 1.34400E+02 3.84991E+01 0.00000E+00
 -1      3201 1.32150E+02 3.73902E+01 0.00000E+00
 -1      3202 1.35707E+02 3.85150E+01 0.00000E+00
 -1      3203 1.37207E+02 3.85150E+01 0.00000E+00
 -1      3204 1.37572E+02 3.74380E+01 0.00000E+00
 -1      3205 1.34957E+02 3.74061E+01 0.00000E+00
 -1      3206 2.57850E+01 1.05013E+01 0.00000E+00
 -1      3207 2.42850E+01 1.05013E+01 0.00000E+00
 -1      3208 2.65350E+01 1.18003E+01 0.00000E+00
 -1      3209 3.62916E+01 2.87009E+01 0.00000E+00
 -1      3210 3.63998E+01 2.74491E+01 0.00000E+00
 -1      3211 1.38309E+02 2.86750E+01 0.00000E+00
 -1      3212 1.38309E+02 2.72250E+01 0.00000E+00
 -1      3213 3.47850E+01 1.05013E+01 0.00000E+00
 -1      3214 3.32850E+01 1.05013E+01 0.00000E+00
 -1      3215 3.77850E+01 1.05013E+01 0.00000E+00
 -1      3216 3.62850E+01 1.05013E+01 0.00000E+00
 -1      3217 3.55350E+01 1.18003E+01 0.00000E+00
 -1      3218 4.07850E+01 1.05013E+01 0.00000E+00
 -1      3219 3.92850E+01 1.05013E+01 0.00000E+00
 -1      3220 3.85350E+01 1.18003E+01 0.00000E+00
 -1      3221 4.37449E+01 1.11849E+01 0.00000E+00
 -1      3222 4.22449E+01 1.11849E+01 0.00000E+00
 -1      3223 4.73453E+01 1.12975E+01 0.00000E+00
 -1      3224 4.58453E+01 1.12975E+01 0.00000E+00
 -1      3225 5.02176E+01 1.11491E+01 0.00000E+00
 -1      3226 4.87176E+01 1.11491E+01 0.00000E+00
 -1      3227 5.58567E+01 1.07166E+01 0.00000E+00
 -1      3228 5.43567E+01 1.07166E+01 0.00000E+00
 -1      3229 5.84997E+01 1.16342E+01 0.00000E+00
 -1      3230 5.69997E+01 1.16342E+01 0.00000E+00
 -1      3231 6.47850E+01 1.05013E+01 0.00000E+00
 -1      3232 6.32850E+01 1.05013E+01 0.00000E+00
 -1      3233 6.77850E+01 1.05013E+01 0.00000E+00
 -1      3234 6.62850E+01 1.05013E+01 0.00000E+00
 -1      3235 6.55350E+01 1.18003E+01 0.00000E+00
 -1      3236 7.07850E+01 1.05013E+01 0.00000E+00
 -1      3237 6.92850E+01 1.05013E+01 0.00000E+00
 -1      3238 6.85350E+01 1.18003E+01 0.00000E+00
 -1      3239 7.37850E+01 1.05013E+01 0.00000E+00
 -1      3240 7.22850E+01 1.05013E+01 0.00000E+00
 -1      3241 7.15350E+01 1.18003E+01 0.00000E+00
 -1      3242 7.67850E+01 1.05013E+01 0.00000E+00
 -1      3243 7.52850E+01 1.05013E+01 0.00000E+00
 -1      3244 7.45350E+01 1.18003E+01 0.00000E+00
 -1      3245 7.97850E+01 1.05013E+01 0.00000E+00
 -1      3246 7.82850E+01 1.05013E+01 0.00000E+00
 -1      3247 7.75350E+01 1.18003E+01 0.00000E+00
 -1      3248 8.27850E+01 1.05013E+01 0.00000E+00
 -1      3249 8.12850E+01 1.05013E+01 0.00000E+00
 -1      3250 8.05350E+01 1.18003E+01 0.00000E+00
 -1      3251 8.57850E+01 1.05013E+01 0.00000E+00
 -1      3252 8.42850E+01 1.05013E+01 0.00000E+00
 -1      3253 8.35350E+01 1.18003E+01 0.00000E+00
 -1      3254 8.87850E+01 1.05013E+01 0.00000E+00
 -1      3255 8.72850E+01 1.05013E+01 0.00000E+00
 -1      3256 8.65350E+01 1.18003E+01 0.00000E+00
 -1      3257 9.17850E+01 1.05013E+01 0.00000E+00
 -1      3258 9.02850E+01 1.05013E+01 0.00000E+00
 -1      3259 8.95350E+01 1.18003E+01 0.00000E+00
 -1      3260 9.47850E+01 1.05013E+01 0.00000E+00
 -1      3261 9.32850E+01 1.05013E+01 0.00000E+00
 -1      3262 9.25350E+01 1.18003E+01 0.00000E+00
 -1      3263 9.77850E+01 1.05013E+01 0.00000E+00
 -1      3264 9.62850E+01 1.05013E+01 0.00000E+00
 -1      3265 9.55350E+01 1.18003E+01 0.00000E+00
 -1      3266 1.00785E+02 1.05013E+01 0.00000E+00
 -1      3267 9.92850E+01 1.05013E+01 0.00000E+00
 -1      3268 9.85350E+01 1.18003E+01 0.00000E+00
 -1      3269 1.03785E+02 1.05013E+01 0.00000E+00
 -1      3270 1.02285E+02 1.05013E+01 0.00000E+00
 -1      3271 1.01535E+02 1.18003E+01 0.00000E+00
 -1      3272 1.06785E+02 1.05013E+01 0.00000E+00
 -1      3273 1.05285E+02 1.05013E+01 0.00000E+00
 -1      3274 1.04535E+02 1.18003E+01 0.00000E+00
 -1      3275 1.09785E+02 1.05013E+01 0.00000E+00
 -1      3276 1.08285E+02 1.05013E+01 0.00000E+00
 -1      3277 1.07535E+02 1.18003E+01 0.00000E+00
 -1      3278 1.12785E+02 1.05013E+01 0.00000E+00
 -1      3279 1.11285E+02 1.05013E+01 0.00000E+00
 -1      3280 1.10535E+02 1.18003E+01 0.00000E+00
 -1      3281 1.15785E+02 1.05013E+01 0.00000E+00
 -1      3282 1.14285E+02 1.05013E+01 0.00000E+00
 -1      3283 1.13535E+02 1.18003E+01 0.00000E+00
 -1      3284 1.18785E+02 1.05013E+01 0.00000E+00
 -1      3285 1.17285E+02 1.05013E+01 0.00000E+00
 -1      3286 1.16535E+02 1.18003E+01 0.00000E+00
 -1      3287 1.21785E+02 1.05013E+01 0.00000E+00
 -1      3288 1.20285E+02 1.05013E+01 0.00000E+00
 -1      3289 1.19535E+02 1.18003E+01 0.00000E+00
 -1      3290 1.24785E+02 1.05013E+01 0.00000E+00
 -1      3291 1.23285E+02 1.05013E+01 0.00000E+00
 -1      3292 1.22535E+02 1.18003E+01 0.00000E+00
 -1      3293 1.27785E+02 1.05013E+01 0.00000E+00
 -1      3294 1.26285E+02 1.05013E+01 0.00000E+00
 -1      3295 1.25535E+02 1.18003E+01 0.00000E+00
 -1      3296 1.30785E+02 1.05013E+01 0.00000E+00
 -1      3297 1.29285E+02 1.05013E+01 0.00000E+00
 -1      3298 1.28535E+02 1.18003E+01 0.00000E+00
 -1      3299 1.33785E+02 1.05013E+01 0.00000E+00
 -1      3300 1.32285E+02 1.05013E+01 0.00000E+00
 -1      3301 1.31535E+02 1.18003E+01 0.00000E+00
 -1      3302 1.36785E+02 1.05013E+01 0.00000E+00
 -1      3303 1.35285E+02 1.05013E+01 0.00000E+00
 -1      3304 1.34535E+02 1.18003E+01 0.00000E+00
 -1      3305 1.38912E+02 1.10040E+01 0.00000E+00
 -1      3306 1.37744E+02 1.07233E+01 0.00000E+00
 -1      3307 1.36994E+02 1.20223E+01 0.00000E+00
 -1      3308 1.38912E+02 1.24665E+01 0.00000E+00
 -1      3309 1.97850E+01 1.05013E+01 0.00000E+00
 -1      3310 1.82850E+01 1.05013E+01 0.00000E+00
 -1      3311 3.80948E+01 3.43151E+01 0.00000E+00
 -1      3312 3.73589E+01 3.31648E+01 0.00000E+00
 -1      3313 1.38309E+02 2.57500E+01 0.00000E+00
 -1      3314 1.38309E+02 2.42750E+01 0.00000E+00
 -1      3315 1.37010E+02 2.64750E+01 0.00000E+00
 -1      3316 5.92330E+01 1.56651E+01 0.00000E+00
 -1      3317 5.99849E+01 1.67031E+01 0.00000E+00
 -1      3318 1.38309E+02 3.45625E+01 0.00000E+00
 -1      3319 1.38309E+02 3.30875E+01 0.00000E+00
 -1      3320 3.63452E+01 2.30933E+01 0.00000E+00
 -1      3321 3.65094E+01 2.19205E+01 0.00000E+00
 -1      3322 5.17066E+01 1.13318E+01 0.00000E+00
 -1      3323 3.99725E+01 1.58624E+01 0.00000E+00
 -1      3324 4.08766E+01 1.48989E+01 0.00000E+00
 -1      3325 3.66849E+01 3.16254E+01 0.00000E+00
 -1      3326 3.63518E+01 3.03369E+01 0.00000E+00
 -1      3327 5.16294E+01 3.83295E+01 0.00000E+00
 -1      3328 1.38309E+02 3.16187E+01 0.00000E+00
 -1      3329 1.38309E+02 3.01437E+01 0.00000E+00
 -1      3330 1.37010E+02 2.94188E+01 0.00000E+00
 -1      3331 1.37010E+02 3.23563E+01 0.00000E+00
 -1      3332 2.27850E+01 1.05013E+01 0.00000E+00
 -1      3333 2.12850E+01 1.05013E+01 0.00000E+00
 -1      3334 2.05350E+01 1.18003E+01 0.00000E+00
 -1      3335 1.29000E+01 3.83090E+01 0.00000E+00
 -1      3336 1.44000E+01 3.83090E+01 0.00000E+00
 -1      3337 1.51500E+01 3.70100E+01 0.00000E+00
 -1      3338 4.35505E+01 3.69543E+01 0.00000E+00
 -1      3339 4.25705E+01 3.69672E+01 0.00000E+00
 -1      3340 6.21747E+01 2.33720E+01 0.00000E+00
 -1      3341 6.27663E+01 2.45197E+01 0.00000E+00
 -1      3342 3.17850E+01 1.05013E+01 0.00000E+00
 -1      3343 3.02850E+01 1.05013E+01 0.00000E+00
 -1      3344 2.95350E+01 1.18003E+01 0.00000E+00
 -1      3345 5.49665E+01 3.84970E+01 0.00000E+00
 -1      3346 4.61880E+01 3.90180E+01 0.00000E+00
 -1      3347 1.16910E+01 2.12875E+01 0.00000E+00
 -1      3348 1.16910E+01 2.27625E+01 0.00000E+00
 -1      3349 1.26488E+01 1.02017E+01 0.00000E+00
 -1      3350 1.20772E+01 1.14631E+01 0.00000E+00
 -1      3351 1.33763E+01 1.22006E+01 0.00000E+00
 -1      3352 1.41488E+01 1.02017E+01 0.00000E+00
 -1      3353 5.82571E+01 3.65498E+01 0.00000E+00
 -1      3354 5.72165E+01 3.73881E+01 0.00000E+00
 -1      3355 1.12710E+01 3.74352E+01 0.00000E+00
 -1      3356 1.20855E+01 3.78721E+01 0.00000E+00
 -1      3357 1.12065E+01 3.56994E+01 0.00000E+00
 -1      3358 5.64665E+01 3.84970E+01 0.00000E+00
 -1      3359 3.69454E+01 2.04875E+01 0.00000E+00
 -1      3360 3.74697E+01 1.94006E+01 0.00000E+00
 -1      3361 3.81220E+01 1.81063E+01 0.00000E+00
 -1      3362 3.88979E+01 1.69493E+01 0.00000E+00
 -1      3363 5.32066E+01 1.13318E+01 0.00000E+00
 -1      3364 1.16910E+01 2.42375E+01 0.00000E+00
 -1      3365 1.16910E+01 2.57125E+01 0.00000E+00
 -1      3366 1.29900E+01 2.35000E+01 0.00000E+00
 -1      3367 6.13507E+01 3.13559E+01 0.00000E+00
 -1      3368 6.13724E+01 3.23634E+01 0.00000E+00
 -1      3369 6.21803E+01 3.09256E+01 0.00000E+00
 -1      3370 5.63214E+01 1.31486E+01 0.00000E+00
 -1      3371 1.37758E+02 3.65388E+01 0.00000E+00
 -1      3372 1.38123E+02 3.54618E+01 0.00000E+00
 -1      3373 1.36824E+02 3.47243E+01 0.00000E+00
 -1      3374 1.36451E+02 3.65228E+01 0.00000E+00
 -1      3375 3.58494E+01 2.37953E+01 0.00000E+00
 -1      3376 3.49163E+01 2.30668E+01 0.00000E+00
 -1      3377 3.53536E+01 2.44974E+01 0.00000E+00
 -1      3378 3.58056E+01 2.66063E+01 0.00000E+00
 -1      3379 6.06758E+01 1.71306E+01 0.00000E+00
 -1      3380 6.13668E+01 1.75581E+01 0.00000E+00
 -1      3381 6.10623E+01 1.60594E+01 0.00000E+00
 -1      3382 3.84617E+01 3.82792E+01 0.00000E+00
 -1      3383 3.87588E+01 3.66084E+01 0.00000E+00
 -1      3384 3.85852E+01 3.56215E+01 0.00000E+00
 -1      3385 3.69617E+01 3.82792E+01 0.00000E+00
 -1      3386 4.76880E+01 3.90180E+01 0.00000E+00
 -1      3387 3.69366E+01 1.82044E+01 0.00000E+00
 -1      3388 2.35350E+01 1.18003E+01 0.00000E+00
 -1      3389 3.72831E+01 3.56439E+01 0.00000E+00
 -1      3390 3.25350E+01 1.18003E+01 0.00000E+00
 -1      3391 4.14949E+01 1.24839E+01 0.00000E+00
 -1      3392 3.86635E+01 1.58233E+01 0.00000E+00
 -1      3393 6.17850E+01 1.05013E+01 0.00000E+00
 -1      3394 6.02850E+01 1.05013E+01 0.00000E+00
 -1      3395 1.38309E+02 1.98625E+01 0.00000E+00
 -1      3396 1.38309E+02 1.83875E+01 0.00000E+00
 -1      3397 3.61187E+01 3.27981E+01 0.00000E+00
 -1      3398 1.16910E+01 3.01219E+01 0.00000E+00
 -1      3399 1.16910E+01 3.15906E+01 0.00000E+00
 -1      3400 5.89179E+01 1.48491E+01 0.00000E+00
 -1      3401 6.00562E+01 1.48159E+01 0.00000E+00
 -1      3402 5.86027E+01 1.40330E+01 0.00000E+00
 -1      3403 1.38309E+02 2.28062E+01 0.00000E+00
 -1      3404 1.38309E+02 2.13312E+01 0.00000E+00
 -1      3405 1.37010E+02 2.05938E+01 0.00000E+00
 -1      3406 1.37010E+02 2.35313E+01 0.00000E+00
 -1      3407 6.16889E+01 1.90676E+01 0.00000E+00
 -1      3408 6.13648E+01 2.00359E+01 0.00000E+00
 -1      3409 6.20734E+01 2.04742E+01 0.00000E+00
 -1      3410 3.58481E+01 2.09317E+01 0.00000E+00
 -1      3411 1.14487E+01 3.29106E+01 0.00000E+00
 -1      3412 1.14487E+01 3.43794E+01 0.00000E+00
 -1      3413 1.22633E+01 3.48162E+01 0.00000E+00
 -1      3414 1.27478E+01 3.21763E+01 0.00000E+00
 -1      3415 3.98866E+01 1.32684E+01 0.00000E+00
 -1      3416 4.10251E+01 1.34307E+01 0.00000E+00
 -1      3417 6.30760E+01 2.52475E+01 0.00000E+00
 -1      3418 6.33857E+01 2.59753E+01 0.00000E+00
 -1      3419 6.36169E+01 2.42423E+01 0.00000E+00
 -1      3420 6.25017E+01 2.84493E+01 0.00000E+00
 -1      3421 6.29433E+01 2.93161E+01 0.00000E+00
 -1      3422 6.32863E+01 2.78472E+01 0.00000E+00
 -1      3423 1.16910E+01 1.54063E+01 0.00000E+00
 -1      3424 1.16910E+01 1.68750E+01 0.00000E+00
 -1      3425 1.29900E+01 1.46687E+01 0.00000E+00
 -1      3426 5.97058E+01 3.47169E+01 0.00000E+00
 -1      3427 5.90556E+01 3.57441E+01 0.00000E+00
 -1      3428 6.10839E+01 3.38556E+01 0.00000E+00
 -1      3429 6.03949E+01 3.42862E+01 0.00000E+00
 -1      3430 6.09359E+01 3.53482E+01 0.00000E+00
 -1      3431 6.25283E+01 2.24785E+01 0.00000E+00
 -1      3432 1.28355E+01 3.65731E+01 0.00000E+00
 -1      3433 4.38486E+01 3.80301E+01 0.00000E+00
 -1      3434 5.94484E+01 3.65845E+01 0.00000E+00
 -1      3435 1.38375E+02 1.71472E+01 0.00000E+00
 -1      3436 1.38440E+02 1.59068E+01 0.00000E+00
 -1      3437 1.37076E+02 1.78847E+01 0.00000E+00
 -1      3438 1.16910E+01 1.83469E+01 0.00000E+00
 -1      3439 1.16910E+01 1.98156E+01 0.00000E+00
 -1      3440 1.29900E+01 2.05531E+01 0.00000E+00
 -1      3441 1.29900E+01 1.76094E+01 0.00000E+00
 -1      3442 4.14096E+01 3.71680E+01 0.00000E+00
 -1      3443 3.62117E+01 3.69802E+01 0.00000E+00
 -1      3444 4.90479E+01 3.91400E+01 0.00000E+00
 -1      3445 6.25350E+01 1.18003E+01 0.00000E+00
 -1      3446 1.69669E+01 1.03515E+01 0.00000E+00
 -1      3447 1.54669E+01 1.03515E+01 0.00000E+00
 -1      3448 1.50806E+01 1.13509E+01 0.00000E+00
 -1      3449 1.77169E+01 1.16505E+01 0.00000E+00
 -1      3450 1.16910E+01 2.71844E+01 0.00000E+00
 -1      3451 1.16910E+01 2.86531E+01 0.00000E+00
 -1      3452 1.29900E+01 2.93875E+01 0.00000E+00
 -1      3453 5.05479E+01 3.91400E+01 0.00000E+00
 -1      3454 2.04000E+01 3.57110E+01 0.00000E+00
 -1      3455 2.19000E+01 3.57110E+01 0.00000E+00
 -1      3456 2.34000E+01 3.57110E+01 0.00000E+00
 -1      3457 2.49000E+01 3.57110E+01 0.00000E+00
 -1      3458 2.26500E+01 3.44120E+01 0.00000E+00
 -1      3459 2.64000E+01 3.57110E+01 0.00000E+00
 -1      3460 2.79000E+01 3.57110E+01 0.00000E+00
 -1      3461 2.56500E+01 3.44120E+01 0.00000E+00
 -1      3462 2.94000E+01 3.57110E+01 0.00000E+00
 -1      3463 3.09000E+01 3.57110E+01 0.00000E+00
 -1      3464 2.86500E+01 3.44120E+01 0.00000E+00
 -1      3465 3.24000E+01 3.57110E+01 0.00000E+00
 -1      3466 3.39000E+01 3.57110E+01 0.00000E+00
 -1      3467 3.16500E+01 3.44120E+01 0.00000E+00
 -1      3468 3.56950E+01 1.83901E+01 0.00000E+00
 -1      3469 3.63474E+01 1.70959E+01 0.00000E+00
 -1      3470 6.54000E+01 3.60912E+01 0.00000E+00
 -1      3471 6.69000E+01 3.60912E+01 0.00000E+00
 -1      3472 6.84000E+01 3.60912E+01 0.00000E+00
 -1      3473 6.99000E+01 3.60912E+01 0.00000E+00
 -1      3474 6.76500E+01 3.47922E+01 0.00000E+00
 -1      3475 7.14000E+01 3.60912E+01 0.00000E+00
 -1      3476 7.29000E+01 3.60912E+01 0.00000E+00
 -1      3477 7.06500E+01 3.47922E+01 0.00000E+00
 -1      3478 7.44000E+01 3.60912E+01 0.00000E+00
 -1      3479 7.59000E+01 3.60912E+01 0.00000E+00
 -1      3480 7.36500E+01 3.47922E+01 0.00000E+00
 -1      3481 7.74000E+01 3.60912E+01 0.00000E+00
 -1      3482 7.89000E+01 3.60912E+01 0.00000E+00
 -1      3483 7.66500E+01 3.47922E+01 0.00000E+00
 -1      3484 8.04000E+01 3.60912E+01 0.00000E+00
 -1      3485 8.19000E+01 3.60912E+01 0.00000E+00
 -1      3486 7.96500E+01 3.47922E+01 0.00000E+00
 -1      3487 8.34000E+01 3.60912E+01 0.00000E+00
 -1      3488 8.49000E+01 3.60912E+01 0.00000E+00
 -1      3489 8.26500E+01 3.47922E+01 0.00000E+00
 -1      3490 8.64000E+01 3.60912E+01 0.00000E+00
 -1      3491 8.79000E+01 3.60912E+01 0.00000E+00
 -1      3492 8.56500E+01 3.47922E+01 0.00000E+00
 -1      3493 8.94000E+01 3.60912E+01 0.00000E+00
 -1      3494 9.09000E+01 3.60912E+01 0.00000E+00
 -1      3495 8.86500E+01 3.47922E+01 0.00000E+00
 -1      3496 9.24000E+01 3.60912E+01 0.00000E+00
 -1      3497 9.39000E+01 3.60912E+01 0.00000E+00
 -1      3498 9.16500E+01 3.47922E+01 0.00000E+00
 -1      3499 9.54000E+01 3.60912E+01 0.00000E+00
 -1      3500 9.69000E+01 3.60912E+01 0.00000E+00
 -1      3501 9.46500E+01 3.47922E+01 0.00000E+00
 -1      3502 9.84000E+01 3.60912E+01 0.00000E+00
 -1      3503 9.99000E+01 3.60912E+01 0.00000E+00
 -1      3504 9.76500E+01 3.47922E+01 0.00000E+00
 -1      3505 1.01400E+02 3.60912E+01 0.00000E+00
 -1      3506 1.02900E+02 3.60912E+01 0.00000E+00
 -1      3507 1.00650E+02 3.47922E+01 0.00000E+00
 -1      3508 1.04400E+02 3.60912E+01 0.00000E+00
 -1      3509 1.05900E+02 3.60912E+01 0.00000E+00
 -1      3510 1.03650E+02 3.47922E+01 0.00000E+00
 -1      3511 1.07400E+02 3.60912E+01 0.00000E+00
 -1      3512 1.08900E+02 3.60912E+01 0.00000E+00
 -1      3513 1.06650E+02 3.47922E+01 0.00000E+00
 -1      3514 1.10400E+02 3.60912E+01 0.00000E+00
 -1      3515 1.11900E+02 3.60912E+01 0.00000E+00
 -1      3516 1.09650E+02 3.47922E+01 0.00000E+00
 -1      3517 1.13400E+02 3.60912E+01 0.00000E+00
 -1      3518 1.14900E+02 3.60912E+01 0.00000E+00
 -1      3519 1.12650E+02 3.47922E+01 0.00000E+00
 -1      3520 1.16400E+02 3.60912E+01 0.00000E+00
 -1      3521 1.17900E+02 3.60912E+01 0.00000E+00
 -1      3522 1.15650E+02 3.47922E+01 0.00000E+00
 -1      3523 1.19400E+02 3.60912E+01 0.00000E+00
 -1      3524 1.20900E+02 3.60912E+01 0.00000E+00
 -1      3525 1.18650E+02 3.47922E+01 0.00000E+00
 -1      3526 1.22400E+02 3.60912E+01 0.00000E+00
 -1      3527 1.23900E+02 3.60912E+01 0.00000E+00
 -1      3528 1.21650E+02 3.47922E+01 0.00000E+00
 -1      3529 1.25400E+02 3.60912E+01 0.00000E+00
 -1      3530 1.26900E+02 3.60912E+01 0.00000E+00
 -1      3531 1.24650E+02 3.47922E+01 0.00000E+00
 -1      3532 1.28400E+02 3.60912E+01 0.00000E+00
 -1      3533 1.29900E+02 3.60912E+01 0.00000E+00
 -1      3534 1.27650E+02 3.47922E+01 0.00000E+00
 -1      3535 1.31400E+02 3.60912E+01 0.00000E+00
 -1      3536 1.32900E+02 3.60912E+01 0.00000E+00
 -1      3537 1.30650E+02 3.47922E+01 0.00000E+00
 -1      3538 3.57214E+01 3.56738E+01 0.00000E+00
 -1      3539 3.53846E+01 2.96227E+01 0.00000E+00
 -1      3540 3.62850E+01 1.30992E+01 0.00000E+00
 -1      3541 3.47850E+01 1.30992E+01 0.00000E+00
 -1      3542 4.48431E+01 1.14834E+01 0.00000E+00
 -1      3543 6.62850E+01 1.30992E+01 0.00000E+00
 -1      3544 6.47850E+01 1.30992E+01 0.00000E+00
 -1      3545 7.52850E+01 1.30992E+01 0.00000E+00
 -1      3546 7.37850E+01 1.30992E+01 0.00000E+00
 -1      3547 7.82850E+01 1.30992E+01 0.00000E+00
 -1      3548 7.67850E+01 1.30992E+01 0.00000E+00
 -1      3549 7.60350E+01 1.43982E+01 0.00000E+00
 -1      3550 8.12850E+01 1.30992E+01 0.00000E+00
 -1      3551 7.97850E+01 1.30992E+01 0.00000E+00
 -1      3552 7.90350E+01 1.43982E+01 0.00000E+00
 -1      3553 8.42850E+01 1.30992E+01 0.00000E+00
 -1      3554 8.27850E+01 1.30992E+01 0.00000E+00
 -1      3555 8.20350E+01 1.43982E+01 0.00000E+00
 -1      3556 8.72850E+01 1.30992E+01 0.00000E+00
 -1      3557 8.57850E+01 1.30992E+01 0.00000E+00
 -1      3558 8.50350E+01 1.43982E+01 0.00000E+00
 -1      3559 9.02850E+01 1.30992E+01 0.00000E+00
 -1      3560 8.87850E+01 1.30992E+01 0.00000E+00
 -1      3561 8.80350E+01 1.43982E+01 0.00000E+00
 -1      3562 9.32850E+01 1.30992E+01 0.00000E+00
 -1      3563 9.17850E+01 1.30992E+01 0.00000E+00
 -1      3564 9.10350E+01 1.43982E+01 0.00000E+00
 -1      3565 9.62850E+01 1.30992E+01 0.00000E+00
 -1      3566 9.47850E+01 1.30992E+01 0.00000E+00
 -1      3567 9.40350E+01 1.43982E+01 0.00000E+00
 -1      3568 9.92850E+01 1.30992E+01 0.00000E+00
 -1      3569 9.77850E+01 1.30992E+01 0.00000E+00
 -1      3570 9.70350E+01 1.43982E+01 0.00000E+00
 -1      3571 1.02285E+02 1.30992E+01 0.00000E+00
 -1      3572 1.00785E+02 1.30992E+01 0.00000E+00
 -1      3573 1.00035E+02 1.43982E+01 0.00000E+00
 -1      3574 1.05285E+02 1.30992E+01 0.00000E+00
 -1      3575 1.03785E+02 1.30992E+01 0.00000E+00
 -1      3576 1.03035E+02 1.43982E+01 0.00000E+00
 -1      3577 1.08285E+02 1.30992E+01 0.00000E+00
 -1      3578 1.06785E+02 1.30992E+01 0.00000E+00
 -1      3579 1.06035E+02 1.43982E+01 0.00000E+00
 -1      3580 1.11285E+02 1.30992E+01 0.00000E+00
 -1      3581 1.09785E+02 1.30992E+01 0.00000E+00
 -1      3582 1.09035E+02 1.43982E+01 0.00000E+00
 -1      3583 1.14285E+02 1.30992E+01 0.00000E+00
 -1      3584 1.12785E+02 1.30992E+01 0.00000E+00
 -1      3585 1.12035E+02 1.43982E+01 0.00000E+00
 -1      3586 1.17285E+02 1.30992E+01 0.00000E+00
 -1      3587 1.15785E+02 1.30992E+01 0.00000E+00
 -1      3588 1.15035E+02 1.43982E+01 0.00000E+00
 -1      3589 1.20285E+02 1.30992E+01 0.00000E+00
 -1      3590 1.18785E+02 1.30992E+01 0.00000E+00
 -1      3591 1.18035E+02 1.43982E+01 0.00000E+00
 -1      3592 1.23285E+02 1.30992E+01 0.00000E+00
 -1      3593 1.21785E+02 1.30992E+01 0.00000E+00
 -1      3594 1.21035E+02 1.43982E+01 0.00000E+00
 -1      3595 1.26285E+02 1.30992E+01 0.00000E+00
 -1      3596 1.24785E+02 1.30992E+01 0.00000E+00
 -1      3597 1.24035E+02 1.43982E+01 0.00000E+00
 -1      3598 1.29285E+02 1.30992E+01 0.00000E+00
 -1      3599 1.27785E+02 1.30992E+01 0.00000E+00
 -1      3600 1.27035E+02 1.43982E+01 0.00000E+00
 -1      3601 1.32285E+02 1.30992E+01 0.00000E+00
 -1      3602 1.30785E+02 1.30992E+01 0.00000E+00
 -1      3603 1.30035E+02 1.43982E+01 0.00000E+00
 -1      3604 1.35285E+02 1.30992E+01 0.00000E+00
 -1      3605 1.33785E+02 1.30992E+01 0.00000E+00
 -1      3606 1.33035E+02 1.43982E+01 0.00000E+00
 -1      3607 3.32850E+01 1.30992E+01 0.00000E+00
 -1      3608 3.17850E+01 1.30992E+01 0.00000E+00
 -1      3609 3.40350E+01 1.43982E+01 0.00000E+00
 -1      3610 3.49714E+01 3.43748E+01 0.00000E+00
 -1      3611 3.42974E+01 3.28354E+01 0.00000E+00
 -1      3612 1.35711E+02 2.72125E+01 0.00000E+00
 -1      3613 1.35711E+02 2.57375E+01 0.00000E+00
 -1      3614 2.12850E+01 1.30992E+01 0.00000E+00
 -1      3615 1.97850E+01 1.30992E+01 0.00000E+00
 -1      3616 7.22850E+01 1.30992E+01 0.00000E+00
 -1      3617 7.07850E+01 1.30992E+01 0.00000E+00
 -1      3618 7.30350E+01 1.43982E+01 0.00000E+00
 -1      3619 6.92850E+01 1.30992E+01 0.00000E+00
 -1      3620 6.77850E+01 1.30992E+01 0.00000E+00
 -1      3621 6.70350E+01 1.43982E+01 0.00000E+00
 -1      3622 7.00350E+01 1.43982E+01 0.00000E+00
 -1      3623 5.92497E+01 1.29332E+01 0.00000E+00
 -1      3624 3.44891E+01 2.13011E+01 0.00000E+00
 -1      3625 3.49251E+01 1.98680E+01 0.00000E+00
 -1      3626 3.43065E+01 3.04814E+01 0.00000E+00
 -1      3627 3.42463E+01 2.88454E+01 0.00000E+00
 -1      3628 6.29581E+01 2.13444E+01 0.00000E+00
 -1      3629 6.37371E+01 2.23805E+01 0.00000E+00
 -1      3630 3.65620E+01 1.56542E+01 0.00000E+00
 -1      3631 3.76366E+01 1.45674E+01 0.00000E+00
 -1      3632 3.02850E+01 1.30992E+01 0.00000E+00
 -1      3633 2.87850E+01 1.30992E+01 0.00000E+00
 -1      3634 3.10350E+01 1.43982E+01 0.00000E+00
 -1      3635 3.83866E+01 1.32684E+01 0.00000E+00
 -1      3636 1.38643E+02 1.48068E+01 0.00000E+00
 -1      3637 1.38709E+02 1.35665E+01 0.00000E+00
 -1      3638 1.37750E+02 1.33444E+01 0.00000E+00
 -1      3639 1.37344E+02 1.55443E+01 0.00000E+00
 -1      3640 6.09484E+01 3.65845E+01 0.00000E+00
 -1      3641 3.43913E+01 2.72582E+01 0.00000E+00
 -1      3642 3.48724E+01 2.58778E+01 0.00000E+00
 -1      3643 3.39393E+01 2.51493E+01 0.00000E+00
 -1      3644 1.30778E+01 3.52531E+01 0.00000E+00
 -1      3645 1.38923E+01 3.56900E+01 0.00000E+00
 -1      3646 1.33200E+01 3.39331E+01 0.00000E+00
 -1      3647 2.42850E+01 1.30992E+01 0.00000E+00
 -1      3648 2.27850E+01 1.30992E+01 0.00000E+00
 -1      3649 2.20350E+01 1.43982E+01 0.00000E+00
 -1      3650 2.72850E+01 1.30992E+01 0.00000E+00
 -1      3651 2.57850E+01 1.30992E+01 0.00000E+00
 -1      3652 2.80350E+01 1.43982E+01 0.00000E+00
 -1      3653 1.74000E+01 3.57110E+01 0.00000E+00
 -1      3654 1.89000E+01 3.57110E+01 0.00000E+00
 -1      3655 1.96500E+01 3.44120E+01 0.00000E+00
 -1      3656 6.16375E+01 3.61539E+01 0.00000E+00
 -1      3657 6.29649E+01 3.03235E+01 0.00000E+00
 -1      3658 6.29866E+01 3.13310E+01 0.00000E+00
 -1      3659 6.37496E+01 2.97215E+01 0.00000E+00
 -1      3660 1.53923E+01 3.56900E+01 0.00000E+00
 -1      3661 6.31375E+01 3.61539E+01 0.00000E+00
 -1      3662 3.53204E+01 1.58399E+01 0.00000E+00
 -1      3663 3.43359E+01 1.87595E+01 0.00000E+00
 -1      3664 6.19135E+01 3.34253E+01 0.00000E+00
 -1      3665 3.34974E+01 2.27051E+01 0.00000E+00
 -1      3666 3.39933E+01 2.20031E+01 0.00000E+00
 -1      3667 3.30702E+01 2.09394E+01 0.00000E+00
 -1      3668 1.34022E+02 3.62990E+01 0.00000E+00
 -1      3669 1.35329E+02 3.63150E+01 0.00000E+00
 -1      3670 1.35515E+02 3.54157E+01 0.00000E+00
 -1      3671 1.33272E+02 3.50000E+01 0.00000E+00
 -1      3672 6.20753E+01 1.79964E+01 0.00000E+00
 -1      3673 6.27839E+01 1.84347E+01 0.00000E+00
 -1      3674 6.24618E+01 1.69252E+01 0.00000E+00
 -1      3675 1.84669E+01 1.29495E+01 0.00000E+00
 -1      3676 1.71488E+01 1.27997E+01 0.00000E+00
 -1      3677 1.92169E+01 1.42485E+01 0.00000E+00
 -1      3678 1.42890E+01 2.27625E+01 0.00000E+00
 -1      3679 1.42890E+01 2.42375E+01 0.00000E+00
 -1      3680 1.42890E+01 1.98188E+01 0.00000E+00
 -1      3681 1.42890E+01 2.12906E+01 0.00000E+00
 -1      3682 1.55880E+01 2.20281E+01 0.00000E+00
 -1      3683 1.36791E+02 1.31223E+01 0.00000E+00
 -1      3684 6.38875E+01 3.48549E+01 0.00000E+00
 -1      3685 1.34412E+02 2.50063E+01 0.00000E+00
 -1      3686 1.35711E+02 2.42687E+01 0.00000E+00
 -1      3687 1.35711E+02 2.28000E+01 0.00000E+00
 -1      3688 6.32822E+01 2.03761E+01 0.00000E+00
 -1      3689 1.38045E+01 3.12931E+01 0.00000E+00
 -1      3690 1.35623E+01 3.26131E+01 0.00000E+00
 -1      3691 1.43767E+01 3.30500E+01 0.00000E+00
 -1      3692 1.35702E+02 3.45164E+01 0.00000E+00
 -1      3693 1.35888E+02 3.36172E+01 0.00000E+00
 -1      3694 1.34580E+02 3.43086E+01 0.00000E+00
 -1      3695 1.29900E+01 2.64469E+01 0.00000E+00
 -1      3696 6.45595E+01 2.34114E+01 0.00000E+00
 -1      3697 6.48692E+01 2.41392E+01 0.00000E+00
 -1      3698 3.33132E+01 2.81169E+01 0.00000E+00
 -1      3699 6.49894E+01 2.22774E+01 0.00000E+00
 -1      3700 6.43681E+01 2.58369E+01 0.00000E+00
 -1      3701 6.38272E+01 2.68421E+01 0.00000E+00
 -1      3702 6.42688E+01 2.77089E+01 0.00000E+00
 -1      3703 1.35711E+02 2.13312E+01 0.00000E+00
 -1      3704 1.35711E+02 1.98625E+01 0.00000E+00
 -1      3705 1.34412E+02 2.20688E+01 0.00000E+00
 -1      3706 1.61423E+01 3.43910E+01 0.00000E+00
 -1      3707 1.42890E+01 1.39344E+01 0.00000E+00
 -1      3708 1.42890E+01 1.54031E+01 0.00000E+00
 -1      3709 1.34478E+02 1.93597E+01 0.00000E+00
 -1      3710 1.35777E+02 1.86222E+01 0.00000E+00
 -1      3711 1.35842E+02 1.73818E+01 0.00000E+00
 -1      3712 3.24046E+01 3.32350E+01 0.00000E+00
 -1      3713 3.35519E+01 3.16584E+01 0.00000E+00
 -1      3714 3.24137E+01 3.08811E+01 0.00000E+00
 -1      3715 3.09046E+01 3.32350E+01 0.00000E+00
 -1      3716 2.50350E+01 1.43982E+01 0.00000E+00
 -1      3717 1.35888E+02 3.21484E+01 0.00000E+00
 -1      3718 4.26125E+01 3.88388E+01 0.00000E+00
 -1      3719 1.36041E+02 1.44213E+01 0.00000E+00
 -1      3720 1.38045E+01 2.98244E+01 0.00000E+00
 -1      3721 1.46190E+01 3.02612E+01 0.00000E+00
 -1      3722 1.38045E+01 2.83556E+01 0.00000E+00
 -1      3723 1.35711E+02 2.86812E+01 0.00000E+00
 -1      3724 1.34412E+02 2.79438E+01 0.00000E+00
 -1      3725 1.35711E+02 3.01500E+01 0.00000E+00
 -1      3726 6.32850E+01 1.30992E+01 0.00000E+00
 -1      3727 6.17850E+01 1.30992E+01 0.00000E+00
 -1      3728 6.40350E+01 1.43982E+01 0.00000E+00
 -1      3729 6.14532E+01 1.50151E+01 0.00000E+00
 -1      3730 6.21441E+01 1.54426E+01 0.00000E+00
 -1      3731 2.19000E+01 3.31130E+01 0.00000E+00
 -1      3732 2.34000E+01 3.31130E+01 0.00000E+00
 -1      3733 2.49000E+01 3.31130E+01 0.00000E+00
 -1      3734 2.64000E+01 3.31130E+01 0.00000E+00
 -1      3735 2.41500E+01 3.18140E+01 0.00000E+00
 -1      3736 2.79000E+01 3.31130E+01 0.00000E+00
 -1      3737 2.94000E+01 3.31130E+01 0.00000E+00
 -1      3738 2.71500E+01 3.18140E+01 0.00000E+00
 -1      3739 2.57850E+01 1.56973E+01 0.00000E+00
 -1      3740 2.42850E+01 1.56973E+01 0.00000E+00
 -1      3741 6.69000E+01 3.34932E+01 0.00000E+00
 -1      3742 6.84000E+01 3.34932E+01 0.00000E+00
 -1      3743 3.17850E+01 1.56973E+01 0.00000E+00
 -1      3744 3.02850E+01 1.56973E+01 0.00000E+00
 -1      3745 3.38204E+01 1.58399E+01 0.00000E+00
 -1      3746 6.99000E+01 3.34932E+01 0.00000E+00
 -1      3747 7.14000E+01 3.34932E+01 0.00000E+00
 -1      3748 6.91500E+01 3.21942E+01 0.00000E+00
 -1      3749 7.29000E+01 3.34932E+01 0.00000E+00
 -1      3750 7.44000E+01 3.34932E+01 0.00000E+00
 -1      3751 7.21500E+01 3.21942E+01 0.00000E+00
 -1      3752 7.59000E+01 3.34932E+01 0.00000E+00
 -1      3753 7.74000E+01 3.34932E+01 0.00000E+00
 -1      3754 7.51500E+01 3.21942E+01 0.00000E+00
 -1      3755 7.89000E+01 3.34932E+01 0.00000E+00
 -1      3756 8.04000E+01 3.34932E+01 0.00000E+00
 -1      3757 7.81500E+01 3.21942E+01 0.00000E+00
 -1      3758 8.19000E+01 3.34932E+01 0.00000E+00
 -1      3759 8.34000E+01 3.34932E+01 0.00000E+00
 -1      3760 8.11500E+01 3.21942E+01 0.00000E+00
 -1      3761 8.49000E+01 3.34932E+01 0.00000E+00
 -1      3762 8.64000E+01 3.34932E+01 0.00000E+00
 -1      3763 8.41500E+01 3.21942E+01 0.00000E+00
 -1      3764 8.79000E+01 3.34932E+01 0.00000E+00
 -1      3765 8.94000E+01 3.34932E+01 0.00000E+00
 -1      3766 8.71500E+01 3.21942E+01 0.00000E+00
 -1      3767 9.09000E+01 3.34932E+01 0.00000E+00
 -1      3768 9.24000E+01 3.34932E+01 0.00000E+00
 -1      3769 9.01500E+01 3.21942E+01 0.00000E+00
 -1      3770 9.39000E+01 3.34932E+01 0.00000E+00
 -1      3771 9.54000E+01 3.34932E+01 0.00000E+00
 -1      3772 9.31500E+01 3.21942E+01 0.00000E+00
 -1      3773 9.69000E+01 3.34932E+01 0.00000E+00
 -1      3774 9.84000E+01 3.34932E+01 0.00000E+00
 -1      3775 9.61500E+01 3.21942E+01 0.00000E+00
 -1      3776 9.99000E+01 3.34932E+01 0.00000E+00
 -1      3777 1.01400E+02 3.34932E+01 0.00000E+00
 -1      3778 9.91500E+01 3.21942E+01 0.00000E+00
 -1      3779 1.02900E+02 3.34932E+01 0.00000E+00
 -1      3780 1.04400E+02 3.34932E+01 0.00000E+00
 -1      3781 1.02150E+02 3.21942E+01 0.00000E+00
 -1      3782 1.05900E+02 3.34932E+01 0.00000E+00
 -1      3783 1.07400E+02 3.34932E+01 0.00000E+00
 -1      3784 1.05150E+02 3.21942E+01 0.00000E+00
 -1      3785 1.08900E+02 3.34932E+01 0.00000E+00
 -1      3786 1.10400E+02 3.34932E+01 0.00000E+00
 -1      3787 1.08150E+02 3.21942E+01 0.00000E+00
 -1      3788 1.11900E+02 3.34932E+01 0.00000E+00
 -1      3789 1.13400E+02 3.34932E+01 0.00000E+00
 -1      3790 1.11150E+02 3.21942E+01 0.00000E+00
 -1      3791 1.14900E+02 3.34932E+01 0.00000E+00
 -1      3792 1.16400E+02 3.34932E+01 0.00000E+00
 -1      3793 1.14150E+02 3.21942E+01 0.00000E+00
 -1      3794 1.17900E+02 3.34932E+01 0.00000E+00
 -1      3795 1.19400E+02 3.34932E+01 0.00000E+00
 -1      3796 1.17150E+02 3.21942E+01 0.00000E+00
 -1      3797 1.20900E+02 3.34932E+01 0.00000E+00
 -1      3798 1.22400E+02 3.34932E+01 0.00000E+00
 -1      3799 1.20150E+02 3.21942E+01 0.00000E+00
 -1      3800 1.23900E+02 3.34932E+01 0.00000E+00
 -1      3801 1.25400E+02 3.34932E+01 0.00000E+00
 -1      3802 1.23150E+02 3.21942E+01 0.00000E+00
 -1      3803 1.26900E+02 3.34932E+01 0.00000E+00
 -1      3804 1.28400E+02 3.34932E+01 0.00000E+00
 -1      3805 1.26150E+02 3.21942E+01 0.00000E+00
 -1      3806 1.29900E+02 3.34932E+01 0.00000E+00
 -1      3807 1.31400E+02 3.34932E+01 0.00000E+00
 -1      3808 1.29150E+02 3.21942E+01 0.00000E+00
 -1      3809 8.27850E+01 1.56973E+01 0.00000E+00
 -1      3810 8.12850E+01 1.56973E+01 0.00000E+00
 -1      3811 7.97850E+01 1.56973E+01 0.00000E+00
 -1      3812 7.82850E+01 1.56973E+01 0.00000E+00
 -1      3813 8.05350E+01 1.69963E+01 0.00000E+00
 -1      3814 7.67850E+01 1.56973E+01 0.00000E+00
 -1      3815 7.52850E+01 1.56973E+01 0.00000E+00
 -1      3816 7.75350E+01 1.69963E+01 0.00000E+00
 -1      3817 8.57850E+01 1.56973E+01 0.00000E+00
 -1      3818 8.42850E+01 1.56973E+01 0.00000E+00
 -1      3819 8.35350E+01 1.69963E+01 0.00000E+00
 -1      3820 8.87850E+01 1.56973E+01 0.00000E+00
 -1      3821 8.72850E+01 1.56973E+01 0.00000E+00
 -1      3822 8.65350E+01 1.69963E+01 0.00000E+00
 -1      3823 9.17850E+01 1.56973E+01 0.00000E+00
 -1      3824 9.02850E+01 1.56973E+01 0.00000E+00
 -1      3825 8.95350E+01 1.69963E+01 0.00000E+00
 -1      3826 9.47850E+01 1.56973E+01 0.00000E+00
 -1      3827 9.32850E+01 1.56973E+01 0.00000E+00
 -1      3828 9.25350E+01 1.69963E+01 0.00000E+00
 -1      3829 9.77850E+01 1.56973E+01 0.00000E+00
 -1      3830 9.62850E+01 1.56973E+01 0.00000E+00
 -1      3831 9.55350E+01 1.69963E+01 0.00000E+00
 -1      3832 1.00785E+02 1.56973E+01 0.00000E+00
 -1      3833 9.92850E+01 1.56973E+01 0.00000E+00
 -1      3834 9.85350E+01 1.69963E+01 0.00000E+00
 -1      3835 1.03785E+02 1.56973E+01 0.00000E+00
 -1      3836 1.02285E+02 1.56973E+01 0.00000E+00
 -1      3837 1.01535E+02 1.69963E+01 0.00000E+00
 -1      3838 1.06785E+02 1.56973E+01 0.00000E+00
 -1      3839 1.05285E+02 1.56973E+01 0.00000E+00
 -1      3840 1.04535E+02 1.69963E+01 0.00000E+00
 -1      3841 1.09785E+02 1.56973E+01 0.00000E+00
 -1      3842 1.08285E+02 1.56973E+01 0.00000E+00
 -1      3843 1.07535E+02 1.69963E+01 0.00000E+00
 -1      3844 1.12785E+02 1.56973E+01 0.00000E+00
 -1      3845 1.11285E+02 1.56973E+01 0.00000E+00
 -1      3846 1.10535E+02 1.69963E+01 0.00000E+00
 -1      3847 1.15785E+02 1.56973E+01 0.00000E+00
 -1      3848 1.14285E+02 1.56973E+01 0.00000E+00
 -1      3849 1.13535E+02 1.69963E+01 0.00000E+00
 -1      3850 1.18785E+02 1.56973E+01 0.00000E+00
 -1      3851 1.17285E+02 1.56973E+01 0.00000E+00
 -1      3852 1.16535E+02 1.69963E+01 0.00000E+00
 -1      3853 1.21785E+02 1.56973E+01 0.00000E+00
 -1      3854 1.20285E+02 1.56973E+01 0.00000E+00
 -1      3855 1.19535E+02 1.69963E+01 0.00000E+00
 -1      3856 1.24785E+02 1.56973E+01 0.00000E+00
 -1      3857 1.23285E+02 1.56973E+01 0.00000E+00
 -1      3858 1.22535E+02 1.69963E+01 0.00000E+00
 -1      3859 1.27785E+02 1.56973E+01 0.00000E+00
 -1      3860 1.26285E+02 1.56973E+01 0.00000E+00
 -1      3861 1.25535E+02 1.69963E+01 0.00000E+00
 -1      3862 1.30785E+02 1.56973E+01 0.00000E+00
 -1      3863 1.29285E+02 1.56973E+01 0.00000E+00
 -1      3864 1.28535E+02 1.69963E+01 0.00000E+00
 -1      3865 3.23005E+01 1.86168E+01 0.00000E+00
 -1      3866 3.30704E+01 1.71389E+01 0.00000E+00
 -1      3867 7.37850E+01 1.56973E+01 0.00000E+00
 -1      3868 7.22850E+01 1.56973E+01 0.00000E+00
 -1      3869 7.45350E+01 1.69963E+01 0.00000E+00
 -1      3870 6.11380E+01 1.41991E+01 0.00000E+00
 -1      3871 6.36687E+01 1.93049E+01 0.00000E+00
 -1      3872 6.45534E+01 2.01752E+01 0.00000E+00
 -1      3873 6.40551E+01 1.82337E+01 0.00000E+00
 -1      3874 6.03880E+01 1.29001E+01 0.00000E+00
 -1      3875 1.63845E+01 3.30710E+01 0.00000E+00
 -1      3876 1.40468E+01 2.55606E+01 0.00000E+00
 -1      3877 1.40468E+01 2.70325E+01 0.00000E+00
 -1      3878 1.48612E+01 2.74694E+01 0.00000E+00
 -1      3879 1.53457E+01 2.48231E+01 0.00000E+00
 -1      3880 6.34438E+01 1.51396E+01 0.00000E+00
 -1      3881 6.30530E+01 1.61839E+01 0.00000E+00
 -1      3882 6.37615E+01 1.66222E+01 0.00000E+00
 -1      3883 6.49438E+01 1.51396E+01 0.00000E+00
 -1      3884 3.21364E+01 2.88097E+01 0.00000E+00
 -1      3885 3.22813E+01 2.72225E+01 0.00000E+00
 -1      3886 1.46944E+01 1.23503E+01 0.00000E+00
 -1      3887 1.59934E+01 1.30847E+01 0.00000E+00
 -1      3888 1.89000E+01 3.31130E+01 0.00000E+00
 -1      3889 2.04000E+01 3.31130E+01 0.00000E+00
 -1      3890 2.11500E+01 3.18140E+01 0.00000E+00
 -1      3891 1.42890E+01 1.68750E+01 0.00000E+00
 -1      3892 1.42890E+01 1.83469E+01 0.00000E+00
 -1      3893 1.55880E+01 1.90844E+01 0.00000E+00
 -1      3894 1.35838E+02 1.55213E+01 0.00000E+00
 -1      3895 6.62534E+01 2.41752E+01 0.00000E+00
 -1      3896 6.53108E+01 2.50061E+01 0.00000E+00
 -1      3897 6.57523E+01 2.58729E+01 0.00000E+00
 -1      3898 6.53759E+01 2.12062E+01 0.00000E+00
 -1      3899 6.61983E+01 2.22372E+01 0.00000E+00
 -1      3900 6.57623E+01 2.01350E+01 0.00000E+00
 -1      3901 3.25351E+01 2.54660E+01 0.00000E+00
 -1      3902 3.30163E+01 2.40855E+01 0.00000E+00
 -1      3903 3.20933E+01 2.30218E+01 0.00000E+00
 -1      3904 6.41760E+01 3.33626E+01 0.00000E+00
 -1      3905 1.34589E+02 3.14109E+01 0.00000E+00
 -1      3906 2.87850E+01 1.56973E+01 0.00000E+00
 -1      3907 2.72850E+01 1.56973E+01 0.00000E+00
 -1      3908 2.95350E+01 1.69963E+01 0.00000E+00
 -1      3909 1.55880E+01 1.61406E+01 0.00000E+00
 -1      3910 2.27850E+01 1.56973E+01 0.00000E+00
 -1      3911 2.12850E+01 1.56973E+01 0.00000E+00
 -1      3912 2.35350E+01 1.69963E+01 0.00000E+00
 -1      3913 1.34539E+02 1.62588E+01 0.00000E+00
 -1      3914 1.58767E+01 3.10166E+01 0.00000E+00
 -1      3915 1.76423E+01 3.23576E+01 0.00000E+00
 -1      3916 1.83923E+01 3.10586E+01 0.00000E+00
 -1      3917 1.58767E+01 2.95479E+01 0.00000E+00
 -1      3918 6.49260E+01 3.20636E+01 0.00000E+00
 -1      3919 1.67434E+01 1.43837E+01 0.00000E+00
 -1      3920 3.13818E+01 2.99867E+01 0.00000E+00
 -1      3921 3.01546E+01 3.19360E+01 0.00000E+00
 -1      3922 2.65350E+01 1.69963E+01 0.00000E+00
 -1      3923 1.67434E+01 1.58556E+01 0.00000E+00
 -1      3924 1.67434E+01 1.73275E+01 0.00000E+00
 -1      3925 1.78988E+01 1.55706E+01 0.00000E+00
 -1      3926 1.33458E+02 3.41008E+01 0.00000E+00
 -1      3927 1.92169E+01 1.57203E+01 0.00000E+00
 -1      3928 6.64438E+01 1.51396E+01 0.00000E+00
 -1      3929 6.58527E+01 1.58809E+01 0.00000E+00
 -1      3930 6.79438E+01 1.51396E+01 0.00000E+00
 -1      3931 1.68870E+01 2.12922E+01 0.00000E+00
 -1      3932 1.68870E+01 2.27641E+01 0.00000E+00
 -1      3933 1.81768E+01 2.35263E+01 0.00000E+00
 -1      3934 1.68778E+01 2.42623E+01 0.00000E+00
 -1      3935 3.20593E+01 2.01096E+01 0.00000E+00
 -1      3936 3.07938E+01 1.84890E+01 0.00000E+00
 -1      3937 1.33785E+02 1.56973E+01 0.00000E+00
 -1      3938 1.32285E+02 1.56973E+01 0.00000E+00
 -1      3939 1.32708E+02 3.28018E+01 0.00000E+00
 -1      3940 1.33113E+02 2.57406E+01 0.00000E+00
 -1      3941 1.33113E+02 2.42719E+01 0.00000E+00
 -1      3942 7.15350E+01 1.69963E+01 0.00000E+00
 -1      3943 7.07850E+01 1.56973E+01 0.00000E+00
 -1      3944 6.92850E+01 1.56973E+01 0.00000E+00
 -1      3945 1.99669E+01 1.70193E+01 0.00000E+00
 -1      3946 6.53682E+01 2.76524E+01 0.00000E+00
 -1      3947 6.48273E+01 2.86575E+01 0.00000E+00
 -1      3948 1.66356E+01 2.55854E+01 0.00000E+00
 -1      3949 6.75135E+01 2.21063E+01 0.00000E+00
 -1      3950 6.71270E+01 2.31775E+01 0.00000E+00
 -1      3951 1.33113E+02 2.28031E+01 0.00000E+00
 -1      3952 1.33113E+02 2.13344E+01 0.00000E+00
 -1      3953 1.31814E+02 2.35375E+01 0.00000E+00
 -1      3954 1.33179E+02 2.00940E+01 0.00000E+00
 -1      3955 1.33244E+02 1.88537E+01 0.00000E+00
 -1      3956 1.31880E+02 2.08284E+01 0.00000E+00
 -1      3957 3.15635E+01 2.08116E+01 0.00000E+00
 -1      3958 6.48489E+01 2.96650E+01 0.00000E+00
 -1      3959 6.75685E+01 2.40443E+01 0.00000E+00
 -1      3960 3.13583E+01 2.61587E+01 0.00000E+00
 -1      3961 1.33113E+02 2.86781E+01 0.00000E+00
 -1      3962 1.33113E+02 2.72094E+01 0.00000E+00
 -1      3963 1.31814E+02 2.64750E+01 0.00000E+00
 -1      3964 1.32531E+02 3.08033E+01 0.00000E+00
 -1      3965 1.31535E+02 1.69963E+01 0.00000E+00
 -1      3966 1.33789E+02 1.75578E+01 0.00000E+00
 -1      3967 1.68152E+01 1.85739E+01 0.00000E+00
 -1      3968 1.68152E+01 2.00458E+01 0.00000E+00
 -1      3969 1.81142E+01 2.07817E+01 0.00000E+00
 -1      3970 1.79706E+01 1.82889E+01 0.00000E+00
 -1      3971 2.64000E+01 3.05150E+01 0.00000E+00
 -1      3972 2.79000E+01 3.05150E+01 0.00000E+00
 -1      3973 1.94804E+01 2.27852E+01 0.00000E+00
 -1      3974 1.94712E+01 2.42834E+01 0.00000E+00
 -1      3975 6.84000E+01 3.08952E+01 0.00000E+00
 -1      3976 6.99000E+01 3.08952E+01 0.00000E+00
 -1      3977 7.14000E+01 3.08952E+01 0.00000E+00
 -1      3978 7.29000E+01 3.08952E+01 0.00000E+00
 -1      3979 7.06500E+01 2.95962E+01 0.00000E+00
 -1      3980 7.44000E+01 3.08952E+01 0.00000E+00
 -1      3981 7.59000E+01 3.08952E+01 0.00000E+00
 -1      3982 7.36500E+01 2.95962E+01 0.00000E+00
 -1      3983 7.74000E+01 3.08952E+01 0.00000E+00
 -1      3984 7.89000E+01 3.08952E+01 0.00000E+00
 -1      3985 7.66500E+01 2.95962E+01 0.00000E+00
 -1      3986 8.04000E+01 3.08952E+01 0.00000E+00
 -1      3987 8.19000E+01 3.08952E+01 0.00000E+00
 -1      3988 7.96500E+01 2.95962E+01 0.00000E+00
 -1      3989 8.34000E+01 3.08952E+01 0.00000E+00
 -1      3990 8.49000E+01 3.08952E+01 0.00000E+00
 -1      3991 8.26500E+01 2.95962E+01 0.00000E+00
 -1      3992 8.64000E+01 3.08952E+01 0.00000E+00
 -1      3993 8.79000E+01 3.08952E+01 0.00000E+00
 -1      3994 8.56500E+01 2.95962E+01 0.00000E+00
 -1      3995 8.94000E+01 3.08952E+01 0.00000E+00
 -1      3996 9.09000E+01 3.08952E+01 0.00000E+00
 -1      3997 8.86500E+01 2.95962E+01 0.00000E+00
 -1      3998 9.24000E+01 3.08952E+01 0.00000E+00
 -1      3999 9.39000E+01 3.08952E+01 0.00000E+00
 -1      4000 9.16500E+01 2.95962E+01 0.00000E+00
 -1      4001 9.54000E+01 3.08952E+01 0.00000E+00
 -1      4002 9.69000E+01 3.08952E+01 0.00000E+00
 -1      4003 9.46500E+01 2.95962E+01 0.00000E+00
 -1      4004 9.84000E+01 3.08952E+01 0.00000E+00
 -1      4005 9.99000E+01 3.08952E+01 0.00000E+00
 -1      4006 9.76500E+01 2.95962E+01 0.00000E+00
 -1      4007 1.01400E+02 3.08952E+01 0.00000E+00
 -1      4008 1.02900E+02 3.08952E+01 0.00000E+00
 -1      4009 1.00650E+02 2.95962E+01 0.00000E+00
 -1      4010 1.04400E+02 3.08952E+01 0.00000E+00
 -1      4011 1.05900E+02 3.08952E+01 0.00000E+00
 -1      4012 1.03650E+02 2.95962E+01 0.00000E+00
 -1      4013 1.07400E+02 3.08952E+01 0.00000E+00
 -1      4014 1.08900E+02 3.08952E+01 0.00000E+00
 -1      4015 1.06650E+02 2.95962E+01 0.00000E+00
 -1      4016 1.10400E+02 3.08952E+01 0.00000E+00
 -1      4017 1.11900E+02 3.08952E+01 0.00000E+00
 -1      4018 1.09650E+02 2.95962E+01 0.00000E+00
 -1      4019 1.13400E+02 3.08952E+01 0.00000E+00
 -1      4020 1.14900E+02 3.08952E+01 0.00000E+00
 -1      4021 1.12650E+02 2.95962E+01 0.00000E+00
 -1      4022 1.16400E+02 3.08952E+01 0.00000E+00
 -1      4023 1.17900E+02 3.08952E+01 0.00000E+00
 -1      4024 1.15650E+02 2.95962E+01 0.00000E+00
 -1      4025 1.19400E+02 3.08952E+01 0.00000E+00
 -1      4026 1.20900E+02 3.08952E+01 0.00000E+00
 -1      4027 1.18650E+02 2.95962E+01 0.00000E+00
 -1      4028 1.22400E+02 3.08952E+01 0.00000E+00
 -1      4029 1.23900E+02 3.08952E+01 0.00000E+00
 -1      4030 1.21650E+02 2.95962E+01 0.00000E+00
 -1      4031 1.25400E+02 3.08952E+01 0.00000E+00
 -1      4032 1.26900E+02 3.08952E+01 0.00000E+00
 -1      4033 1.24650E+02 2.95962E+01 0.00000E+00
 -1      4034 1.28400E+02 3.08952E+01 0.00000E+00
 -1      4035 1.29900E+02 3.08952E+01 0.00000E+00
 -1      4036 1.27650E+02 2.95962E+01 0.00000E+00
 -1      4037 8.72850E+01 1.82952E+01 0.00000E+00
 -1      4038 8.57850E+01 1.82952E+01 0.00000E+00
 -1      4039 8.42850E+01 1.82952E+01 0.00000E+00
 -1      4040 8.27850E+01 1.82952E+01 0.00000E+00
 -1      4041 8.50350E+01 1.95942E+01 0.00000E+00
 -1      4042 3.01339E+01 2.68784E+01 0.00000E+00
 -1      4043 3.03877E+01 2.51219E+01 0.00000E+00
 -1      4044 7.82850E+01 1.82952E+01 0.00000E+00
 -1      4045 7.67850E+01 1.82952E+01 0.00000E+00
 -1      4046 2.92938E+01 1.84890E+01 0.00000E+00
 -1      4047 9.02850E+01 1.82952E+01 0.00000E+00
 -1      4048 8.87850E+01 1.82952E+01 0.00000E+00
 -1      4049 8.80350E+01 1.95942E+01 0.00000E+00
 -1      4050 9.32850E+01 1.82952E+01 0.00000E+00
 -1      4051 9.17850E+01 1.82952E+01 0.00000E+00
 -1      4052 9.10350E+01 1.95942E+01 0.00000E+00
 -1      4053 9.62850E+01 1.82952E+01 0.00000E+00
 -1      4054 9.47850E+01 1.82952E+01 0.00000E+00
 -1      4055 9.40350E+01 1.95942E+01 0.00000E+00
 -1      4056 9.92850E+01 1.82952E+01 0.00000E+00
 -1      4057 9.77850E+01 1.82952E+01 0.00000E+00
 -1      4058 9.70350E+01 1.95942E+01 0.00000E+00
 -1      4059 1.02285E+02 1.82952E+01 0.00000E+00
 -1      4060 1.00785E+02 1.82952E+01 0.00000E+00
 -1      4061 1.00035E+02 1.95942E+01 0.00000E+00
 -1      4062 1.05285E+02 1.82952E+01 0.00000E+00
 -1      4063 1.03785E+02 1.82952E+01 0.00000E+00
 -1      4064 1.03035E+02 1.95942E+01 0.00000E+00
 -1      4065 1.08285E+02 1.82952E+01 0.00000E+00
 -1      4066 1.06785E+02 1.82952E+01 0.00000E+00
 -1      4067 1.06035E+02 1.95942E+01 0.00000E+00
 -1      4068 1.11285E+02 1.82952E+01 0.00000E+00
 -1      4069 1.09785E+02 1.82952E+01 0.00000E+00
 -1      4070 1.09035E+02 1.95942E+01 0.00000E+00
 -1      4071 1.14285E+02 1.82952E+01 0.00000E+00
 -1      4072 1.12785E+02 1.82952E+01 0.00000E+00
 -1      4073 1.12035E+02 1.95942E+01 0.00000E+00
 -1      4074 1.17285E+02 1.82952E+01 0.00000E+00
 -1      4075 1.15785E+02 1.82952E+01 0.00000E+00
 -1      4076 1.15035E+02 1.95942E+01 0.00000E+00
 -1      4077 1.20285E+02 1.82952E+01 0.00000E+00
 -1      4078 1.18785E+02 1.82952E+01 0.00000E+00
 -1      4079 1.18035E+02 1.95942E+01 0.00000E+00
 -1      4080 1.23285E+02 1.82952E+01 0.00000E+00
 -1      4081 1.21785E+02 1.82952E+01 0.00000E+00
 -1      4082 1.21035E+02 1.95942E+01 0.00000E+00
 -1      4083 1.26285E+02 1.82952E+01 0.00000E+00
 -1      4084 1.24785E+02 1.82952E+01 0.00000E+00
 -1      4085 1.24035E+02 1.95942E+01 0.00000E+00
 -1      4086 1.29285E+02 1.82952E+01 0.00000E+00
 -1      4087 1.27785E+02 1.82952E+01 0.00000E+00
 -1      4088 1.27035E+02 1.95942E+01 0.00000E+00
 -1      4089 1.32490E+02 1.82922E+01 0.00000E+00
 -1      4090 1.30990E+02 1.82922E+01 0.00000E+00
 -1      4091 1.31232E+02 3.00690E+01 0.00000E+00
 -1      4092 1.30515E+02 2.42719E+01 0.00000E+00
 -1      4093 1.30515E+02 2.28031E+01 0.00000E+00
 -1      4094 6.46463E+01 1.74924E+01 0.00000E+00
 -1      4095 6.55310E+01 1.83627E+01 0.00000E+00
 -1      4096 6.52374E+01 1.67511E+01 0.00000E+00
 -1      4097 6.63108E+01 2.68215E+01 0.00000E+00
 -1      4098 6.68693E+01 2.77702E+01 0.00000E+00
 -1      4099 6.72534E+01 2.59906E+01 0.00000E+00
 -1      4100 1.79254E+01 2.63476E+01 0.00000E+00
 -1      4101 1.63933E+01 2.69085E+01 0.00000E+00
 -1      4102 1.61511E+01 2.82316E+01 0.00000E+00
 -1      4103 2.00387E+01 1.82658E+01 0.00000E+00
 -1      4104 6.79734E+01 2.07234E+01 0.00000E+00
 -1      4105 6.89021E+01 2.16637E+01 0.00000E+00
 -1      4106 3.10823E+01 2.21920E+01 0.00000E+00
 -1      4107 3.00714E+01 2.13623E+01 0.00000E+00
 -1      4108 3.06012E+01 2.35725E+01 0.00000E+00
 -1      4109 2.04000E+01 3.05150E+01 0.00000E+00
 -1      4110 2.19000E+01 3.05150E+01 0.00000E+00
 -1      4111 2.72850E+01 1.82952E+01 0.00000E+00
 -1      4112 2.57850E+01 1.82952E+01 0.00000E+00
 -1      4113 6.90006E+01 2.39953E+01 0.00000E+00
 -1      4114 6.81270E+01 2.49930E+01 0.00000E+00
 -1      4115 6.86855E+01 2.59416E+01 0.00000E+00
 -1      4116 2.98773E+01 2.98646E+01 0.00000E+00
 -1      4117 7.52850E+01 1.82952E+01 0.00000E+00
 -1      4118 7.37850E+01 1.82952E+01 0.00000E+00
 -1      4119 7.60350E+01 1.95942E+01 0.00000E+00
 -1      4120 8.12850E+01 1.82952E+01 0.00000E+00
 -1      4121 7.97850E+01 1.82952E+01 0.00000E+00
 -1      4122 8.20350E+01 1.95942E+01 0.00000E+00
 -1      4123 6.63410E+01 1.90275E+01 0.00000E+00
 -1      4124 6.71634E+01 2.00585E+01 0.00000E+00
 -1      4125 6.85520E+01 1.96159E+01 0.00000E+00
 -1      4126 6.69321E+01 1.82862E+01 0.00000E+00
 -1      4127 2.34000E+01 3.05150E+01 0.00000E+00
 -1      4128 2.49000E+01 3.05150E+01 0.00000E+00
 -1      4129 2.56500E+01 2.92160E+01 0.00000E+00
 -1      4130 2.26500E+01 2.92160E+01 0.00000E+00
 -1      4131 2.42850E+01 1.82952E+01 0.00000E+00
 -1      4132 2.27850E+01 1.82952E+01 0.00000E+00
 -1      4133 2.50350E+01 1.95942E+01 0.00000E+00
 -1      4134 2.85438E+01 1.97880E+01 0.00000E+00
 -1      4135 2.91273E+01 2.85656E+01 0.00000E+00
 -1      4136 7.03646E+01 2.13822E+01 0.00000E+00
 -1      4137 6.99047E+01 2.27651E+01 0.00000E+00
 -1      4138 1.94086E+01 2.15388E+01 0.00000E+00
 -1      4139 2.07030E+01 2.22958E+01 0.00000E+00
 -1      4140 1.93368E+01 2.02923E+01 0.00000E+00
 -1      4141 2.07650E+01 2.50421E+01 0.00000E+00
 -1      4142 1.94614E+01 2.57832E+01 0.00000E+00
 -1      4143 6.67374E+01 1.67511E+01 0.00000E+00
 -1      4144 6.61080E+01 2.98625E+01 0.00000E+00
 -1      4145 6.50303E+01 3.09265E+01 0.00000E+00
 -1      4146 1.30482E+02 2.87700E+01 0.00000E+00
 -1      4147 2.93768E+01 2.42921E+01 0.00000E+00
 -1      4148 1.74088E+01 2.89870E+01 0.00000E+00
 -1      4149 2.81566E+01 2.75288E+01 0.00000E+00
 -1      4150 6.86938E+01 1.64386E+01 0.00000E+00
 -1      4151 7.90350E+01 1.95942E+01 0.00000E+00
 -1      4152 1.30240E+02 1.95912E+01 0.00000E+00
 -1      4153 7.04632E+01 2.37138E+01 0.00000E+00
 -1      4154 1.30515E+02 2.57406E+01 0.00000E+00
 -1      4155 1.29216E+02 2.50063E+01 0.00000E+00
 -1      4156 1.30515E+02 2.72094E+01 0.00000E+00
 -1      4157 1.92192E+01 2.71063E+01 0.00000E+00
 -1      4158 2.80626E+01 2.11685E+01 0.00000E+00
 -1      4159 1.91423E+01 2.97596E+01 0.00000E+00
 -1      4160 1.30174E+02 2.08315E+01 0.00000E+00
 -1      4161 1.28876E+02 2.15659E+01 0.00000E+00
 -1      4162 7.19485E+01 1.99375E+01 0.00000E+00
 -1      4163 7.11985E+01 1.86385E+01 0.00000E+00
 -1      4164 6.84809E+01 2.82677E+01 0.00000E+00
 -1      4165 6.75383E+01 2.90986E+01 0.00000E+00
 -1      4166 2.13331E+01 1.90228E+01 0.00000E+00
 -1      4167 2.20831E+01 2.03218E+01 0.00000E+00
 -1      4168 6.96985E+01 1.86385E+01 0.00000E+00
 -1      4169 2.21549E+01 2.15682E+01 0.00000E+00
 -1      4170 2.22267E+01 2.28147E+01 0.00000E+00
 -1      4171 2.36068E+01 2.08407E+01 0.00000E+00
 -1      4172 2.22169E+01 2.43145E+01 0.00000E+00
 -1      4173 2.22072E+01 2.58143E+01 0.00000E+00
 -1      4174 2.36689E+01 2.35869E+01 0.00000E+00
 -1      4175 6.75474E+01 1.74160E+01 0.00000E+00
 -1      4176 6.77197E+01 3.03601E+01 0.00000E+00
 -1      4177 1.29183E+02 2.80356E+01 0.00000E+00
 -1      4178 7.29000E+01 2.82972E+01 0.00000E+00
 -1      4179 7.44000E+01 2.82972E+01 0.00000E+00
 -1      4180 7.59000E+01 2.82972E+01 0.00000E+00
 -1      4181 7.74000E+01 2.82972E+01 0.00000E+00
 -1      4182 7.51500E+01 2.69982E+01 0.00000E+00
 -1      4183 7.89000E+01 2.82972E+01 0.00000E+00
 -1      4184 8.04000E+01 2.82972E+01 0.00000E+00
 -1      4185 7.81500E+01 2.69982E+01 0.00000E+00
 -1      4186 8.19000E+01 2.82972E+01 0.00000E+00
 -1      4187 8.34000E+01 2.82972E+01 0.00000E+00
 -1      4188 8.11500E+01 2.69982E+01 0.00000E+00
 -1      4189 8.49000E+01 2.82972E+01 0.00000E+00
 -1      4190 8.64000E+01 2.82972E+01 0.00000E+00
 -1      4191 8.41500E+01 2.69982E+01 0.00000E+00
 -1      4192 8.79000E+01 2.82972E+01 0.00000E+00
 -1      4193 8.94000E+01 2.82972E+01 0.00000E+00
 -1      4194 8.71500E+01 2.69982E+01 0.00000E+00
 -1      4195 9.09000E+01 2.82972E+01 0.00000E+00
 -1      4196 9.24000E+01 2.82972E+01 0.00000E+00
 -1      4197 9.01500E+01 2.69982E+01 0.00000E+00
 -1      4198 9.39000E+01 2.82972E+01 0.00000E+00
 -1      4199 9.54000E+01 2.82972E+01 0.00000E+00
 -1      4200 9.31500E+01 2.69982E+01 0.00000E+00
 -1      4201 9.69000E+01 2.82972E+01 0.00000E+00
 -1      4202 9.84000E+01 2.82972E+01 0.00000E+00
 -1      4203 9.61500E+01 2.69982E+01 0.00000E+00
 -1      4204 9.99000E+01 2.82972E+01 0.00000E+00
 -1      4205 1.01400E+02 2.82972E+01 0.00000E+00
 -1      4206 9.91500E+01 2.69982E+01 0.00000E+00
 -1      4207 1.02900E+02 2.82972E+01 0.00000E+00
 -1      4208 1.04400E+02 2.82972E+01 0.00000E+00
 -1      4209 1.02150E+02 2.69982E+01 0.00000E+00
 -1      4210 1.05900E+02 2.82972E+01 0.00000E+00
 -1      4211 1.07400E+02 2.82972E+01 0.00000E+00
 -1      4212 1.05150E+02 2.69982E+01 0.00000E+00
 -1      4213 1.08900E+02 2.82972E+01 0.00000E+00
 -1      4214 1.10400E+02 2.82972E+01 0.00000E+00
 -1      4215 1.08150E+02 2.69982E+01 0.00000E+00
 -1      4216 1.11900E+02 2.82972E+01 0.00000E+00
 -1      4217 1.13400E+02 2.82972E+01 0.00000E+00
 -1      4218 1.11150E+02 2.69982E+01 0.00000E+00
 -1      4219 1.14900E+02 2.82972E+01 0.00000E+00
 -1      4220 1.16400E+02 2.82972E+01 0.00000E+00
 -1      4221 1.14150E+02 2.69982E+01 0.00000E+00
 -1      4222 1.17900E+02 2.82972E+01 0.00000E+00
 -1      4223 1.19400E+02 2.82972E+01 0.00000E+00
 -1      4224 1.17150E+02 2.69982E+01 0.00000E+00
 -1      4225 1.20900E+02 2.82972E+01 0.00000E+00
 -1      4226 1.22400E+02 2.82972E+01 0.00000E+00
 -1      4227 1.20150E+02 2.69982E+01 0.00000E+00
 -1      4228 1.23900E+02 2.82972E+01 0.00000E+00
 -1      4229 1.25400E+02 2.82972E+01 0.00000E+00
 -1      4230 1.23150E+02 2.69982E+01 0.00000E+00
 -1      4231 1.26541E+02 2.81664E+01 0.00000E+00
 -1      4232 1.28042E+02 2.81664E+01 0.00000E+00
 -1      4233 1.28074E+02 2.66058E+01 0.00000E+00
 -1      4234 1.25791E+02 2.68674E+01 0.00000E+00
 -1      4235 9.17850E+01 2.08932E+01 0.00000E+00
 -1      4236 9.02850E+01 2.08932E+01 0.00000E+00
 -1      4237 2.51068E+01 2.08407E+01 0.00000E+00
 -1      4238 9.47850E+01 2.08932E+01 0.00000E+00
 -1      4239 9.32850E+01 2.08932E+01 0.00000E+00
 -1      4240 9.25350E+01 2.21922E+01 0.00000E+00
 -1      4241 9.77850E+01 2.08932E+01 0.00000E+00
 -1      4242 9.62850E+01 2.08932E+01 0.00000E+00
 -1      4243 9.55350E+01 2.21922E+01 0.00000E+00
 -1      4244 1.00785E+02 2.08932E+01 0.00000E+00
 -1      4245 9.92850E+01 2.08932E+01 0.00000E+00
 -1      4246 9.85350E+01 2.21922E+01 0.00000E+00
 -1      4247 1.03785E+02 2.08932E+01 0.00000E+00
 -1      4248 1.02285E+02 2.08932E+01 0.00000E+00
 -1      4249 1.01535E+02 2.21922E+01 0.00000E+00
 -1      4250 1.06785E+02 2.08932E+01 0.00000E+00
 -1      4251 1.05285E+02 2.08932E+01 0.00000E+00
 -1      4252 1.04535E+02 2.21922E+01 0.00000E+00
 -1      4253 1.09785E+02 2.08932E+01 0.00000E+00
 -1      4254 1.08285E+02 2.08932E+01 0.00000E+00
 -1      4255 1.07535E+02 2.21922E+01 0.00000E+00
 -1      4256 1.12785E+02 2.08932E+01 0.00000E+00
 -1      4257 1.11285E+02 2.08932E+01 0.00000E+00
 -1      4258 1.10535E+02 2.21922E+01 0.00000E+00
 -1      4259 1.15785E+02 2.08932E+01 0.00000E+00
 -1      4260 1.14285E+02 2.08932E+01 0.00000E+00
 -1      4261 1.13535E+02 2.21922E+01 0.00000E+00
 -1      4262 1.18785E+02 2.08932E+01 0.00000E+00
 -1      4263 1.17285E+02 2.08932E+01 0.00000E+00
 -1      4264 1.16535E+02 2.21922E+01 0.00000E+00
 -1      4265 1.21785E+02 2.08932E+01 0.00000E+00
 -1      4266 1.20285E+02 2.08932E+01 0.00000E+00
 -1      4267 1.19535E+02 2.21922E+01 0.00000E+00
 -1      4268 1.24785E+02 2.08932E+01 0.00000E+00
 -1      4269 1.23285E+02 2.08932E+01 0.00000E+00
 -1      4270 1.22535E+02 2.21922E+01 0.00000E+00
 -1      4271 1.27580E+02 2.12296E+01 0.00000E+00
 -1      4272 1.26080E+02 2.12296E+01 0.00000E+00
 -1      4273 1.25330E+02 2.25286E+01 0.00000E+00
 -1      4274 1.27921E+02 2.32012E+01 0.00000E+00
 -1      4275 2.80055E+01 2.48927E+01 0.00000E+00
 -1      4276 2.82190E+01 2.33432E+01 0.00000E+00
 -1      4277 6.57106E+01 3.14616E+01 0.00000E+00
 -1      4278 7.97850E+01 2.08932E+01 0.00000E+00
 -1      4279 7.82850E+01 2.08932E+01 0.00000E+00
 -1      4280 7.29512E+01 2.10389E+01 0.00000E+00
 -1      4281 1.94166E+01 2.84434E+01 0.00000E+00
 -1      4282 6.93332E+01 2.71047E+01 0.00000E+00
 -1      4283 7.00023E+01 2.84331E+01 0.00000E+00
 -1      4284 7.15023E+01 2.84331E+01 0.00000E+00
 -1      4285 7.02068E+01 2.61070E+01 0.00000E+00
 -1      4286 2.09526E+01 2.78789E+01 0.00000E+00
 -1      4287 2.23299E+01 2.68466E+01 0.00000E+00
 -1      4288 2.25273E+01 2.81837E+01 0.00000E+00
 -1      4289 2.40273E+01 2.81837E+01 0.00000E+00
 -1      4290 2.37818E+01 2.61190E+01 0.00000E+00
 -1      4291 7.67850E+01 2.08932E+01 0.00000E+00
 -1      4292 7.52850E+01 2.08932E+01 0.00000E+00
 -1      4293 7.75350E+01 2.21922E+01 0.00000E+00
 -1      4294 8.27850E+01 2.08932E+01 0.00000E+00
 -1      4295 8.12850E+01 2.08932E+01 0.00000E+00
 -1      4296 8.05350E+01 2.21922E+01 0.00000E+00
 -1      4297 6.88885E+01 1.79737E+01 0.00000E+00
 -1      4298 2.66913E+01 2.17690E+01 0.00000E+00
 -1      4299 8.87850E+01 2.08932E+01 0.00000E+00
 -1      4300 8.72850E+01 2.08932E+01 0.00000E+00
 -1      4301 8.95350E+01 2.21922E+01 0.00000E+00
 -1      4302 7.25087E+01 2.47409E+01 0.00000E+00
 -1      4303 7.16046E+01 2.59711E+01 0.00000E+00
 -1      4304 8.57850E+01 2.08932E+01 0.00000E+00
 -1      4305 8.42850E+01 2.08932E+01 0.00000E+00
 -1      4306 8.65350E+01 2.21922E+01 0.00000E+00
 -1      4307 7.37012E+01 2.23379E+01 0.00000E+00
 -1      4308 2.52632E+01 2.30154E+01 0.00000E+00
 -1      4309 1.28074E+02 2.51370E+01 0.00000E+00
 -1      4310 1.26779E+02 2.48007E+01 0.00000E+00
 -1      4311 8.35350E+01 2.21922E+01 0.00000E+00
 -1      4312 7.48425E+01 2.45952E+01 0.00000E+00
 -1      4313 2.65378E+01 2.77068E+01 0.00000E+00
 -1      4314 2.75444E+01 2.60196E+01 0.00000E+00
 -1      4315 2.63866E+01 2.50707E+01 0.00000E+00
 -1      4316 2.50378E+01 2.77068E+01 0.00000E+00
 -1      4317 9.32850E+01 2.34912E+01 0.00000E+00
 -1      4318 9.17850E+01 2.34912E+01 0.00000E+00
 -1      4319 2.52534E+01 2.45152E+01 0.00000E+00
 -1      4320 7.63425E+01 2.45952E+01 0.00000E+00
 -1      4321 7.22523E+01 2.71341E+01 0.00000E+00
 -1      4322 7.78425E+01 2.45952E+01 0.00000E+00
 -1      4323 7.93425E+01 2.45952E+01 0.00000E+00
 -1      4324 8.08425E+01 2.45952E+01 0.00000E+00
 -1      4325 8.23425E+01 2.45952E+01 0.00000E+00
 -1      4326 8.38425E+01 2.45952E+01 0.00000E+00
 -1      4327 8.53425E+01 2.45952E+01 0.00000E+00
 -1      4328 8.68425E+01 2.45952E+01 0.00000E+00
 -1      4329 8.83425E+01 2.45952E+01 0.00000E+00
 -1      4330 9.20925E+01 2.58942E+01 0.00000E+00
 -1      4331 9.35925E+01 2.58942E+01 0.00000E+00
 -1      4332 9.54000E+01 2.56992E+01 0.00000E+00
 -1      4333 9.69000E+01 2.56992E+01 0.00000E+00
 -1      4334 9.88425E+01 2.45952E+01 0.00000E+00
 -1      4335 1.00342E+02 2.45952E+01 0.00000E+00
 -1      4336 1.01842E+02 2.45952E+01 0.00000E+00
 -1      4337 1.03342E+02 2.45952E+01 0.00000E+00
 -1      4338 1.04842E+02 2.45952E+01 0.00000E+00
 -1      4339 1.06342E+02 2.45952E+01 0.00000E+00
 -1      4340 1.07842E+02 2.45952E+01 0.00000E+00
 -1      4341 1.09342E+02 2.45952E+01 0.00000E+00
 -1      4342 1.10842E+02 2.45952E+01 0.00000E+00
 -1      4343 1.12342E+02 2.45952E+01 0.00000E+00
 -1      4344 1.13842E+02 2.45952E+01 0.00000E+00
 -1      4345 1.15342E+02 2.45952E+01 0.00000E+00
 -1      4346 1.16842E+02 2.45952E+01 0.00000E+00
 -1      4347 1.18342E+02 2.45952E+01 0.00000E+00
 -1      4348 1.19842E+02 2.45952E+01 0.00000E+00
 -1      4349 1.21342E+02 2.45952E+01 0.00000E+00
 -1      4350 1.22842E+02 2.45952E+01 0.00000E+00
 -1      4351 1.24342E+02 2.45952E+01 0.00000E+00
 -1      4352 1.25638E+02 2.49315E+01 0.00000E+00
 -1      4353 9.65925E+01 2.32962E+01 0.00000E+00
 -1      4354 9.50925E+01 2.32962E+01 0.00000E+00
 -1      4355 8.98425E+01 2.45952E+01 0.00000E+00
 -1      4356 2.47923E+01 2.56422E+01 0.00000E+00
 -1      4357 9.13425E+01 2.45952E+01 0.00000E+00
 -1      4358 2.49151E+01 2.66745E+01 0.00000E+00
 -1      4359 9.43425E+01 2.45952E+01 0.00000E+00
 -1      4360 9.73425E+01 2.45952E+01 0.00000E+00
 -1      4361 6.69697E+01 3.16591E+01 0.00000E+00
 -3
    3C                          2099                                     1
 -1       164    8    0    1
 -2         6         7        23      1132      1295      1149
 -1       165    8    0    1
 -2         7         8       164      1133      1296      1297
 -1       166    8    0    1
 -2         8         9       165      1134      1298      1299
 -1       167    8    0    1
 -2         8       165       164      1299      1300      1296
 -1       168    8    0    1
 -2         9        10       166      1135      1301      1302
 -1       169    8    0    1
 -2         9       166       165      1302      1303      1298
 -1       170    8    0    1
 -2        10        11       167      1136      1304      1305
 -1       171    8    0    1
 -2        10       167       166      1305      1306      1301
 -1       172    8    0    1
 -2        11        12       168      1137      1307      1308
 -1       173    8    0    1
 -2        11       168       167      1308      1309      1304
 -1       174    8    0    1
 -2        12        13       169      1138      1310      1311
 -1       175    8    0    1
 -2        12       169       168      1311      1312      1307
 -1       176    8    0    1
 -2        13        14       170      1139      1313      1314
 -1       177    8    0    1
 -2        13       170       169      1314      1315      1310
 -1       178    8    0    1
 -2        14        15       171      1140      1316      1317
 -1       179    8    0    1
 -2        14       171       170      1317      1318      1313
 -1       180    8    0    1
 -2        15        16       172      1141      1319      1320
 -1       181    8    0    1
 -2        15       172       171      1320      1321      1316
 -1       182    8    0    1
 -2        16        17       173      1142      1322      1323
 -1       183    8    0    1
 -2        16       173       172      1323      1324      1319
 -1       184    8    0    1
 -2        17        18       174      1143      1325      1326
 -1       185    8    0    1
 -2        17       174       173      1326      1327      1322
 -1       186    8    0    1
 -2        18        19       175      1144      1328      1329
 -1       187    8    0    1
 -2        18       175       174      1329      1330      1325
 -1       188    8    0    1
 -2        19        20       176      1145      1331      1332
 -1       189    8    0    1
 -2        19       176       175      1332      1333      1328
 -1       190    8    0    1
 -2        20        21       177      1146      1334      1335
 -1       191    8    0    1
 -2        20       177       176      1335      1336      1331
 -1       192    8    0    1
 -2        21        22       178      1147      1337      1338
 -1       193    8    0    1
 -2        21       178       177      1338      1339      1334
 -1       194    8    0    1
 -2        22         5       179      1148      1340      1341
 -1       195    8    0    1
 -2       178        22       179      1337      1341      1342
 -1       196    8    0    1
 -2         5        72       179      1199      1343      1340
 -1       197    8    0    1
 -2        24        23       180      1150      1344      1345
 -1       198    8    0    1
 -2        25        24       181      1151      1346      1347
 -1       199    8    0    1
 -2        24       180       181      1345      1348      1346
 -1       200    8    0    1
 -2        26        25       182      1152      1349      1350
 -1       201    8    0    1
 -2        25       181       182      1347      1351      1349
 -1       202    8    0    1
 -2        27        26       183      1153      1352      1353
 -1       203    8    0    1
 -2        26       182       183      1350      1354      1352
 -1       204    8    0    1
 -2        28        27       184      1154      1355      1356
 -1       205    8    0    1
 -2        27       183       184      1353      1357      1355
 -1       206    8    0    1
 -2        29        28       185      1155      1358      1359
 -1       207    8    0    1
 -2        28       184       185      1356      1360      1358
 -1       208    8    0    1
 -2        30        29       186      1156      1361      1362
 -1       209    8    0    1
 -2        29       185       186      1359      1363      1361
 -1       210    8    0    1
 -2        31        30       187      1157      1364      1365
 -1       211    8    0    1
 -2        30       186       187      1362      1366      1364
 -1       212    8    0    1
 -2        32        31       188      1158      1367      1368
 -1       213    8    0    1
 -2        31       187       188      1365      1369      1367
 -1       214    8    0    1
 -2        33        32       189      1159      1370      1371
 -1       215    8    0    1
 -2        32       188       189      1368      1372      1370
 -1       216    8    0    1
 -2        34        33       190      1160      1373      1374
 -1       217    8    0    1
 -2        33       189       190      1371      1375      1373
 -1       218    8    0    1
 -2        35        34       191      1161      1376      1377
 -1       219    8    0    1
 -2        34       190       191      1374      1378      1376
 -1       220    8    0    1
 -2        36        35       192      1162      1379      1380
 -1       221    8    0    1
 -2        35       191       192      1377      1381      1379
 -1       222    8    0    1
 -2        37        36       193      1163      1382      1383
 -1       223    8    0    1
 -2        36       192       193      1380      1384      1382
 -1       224    8    0    1
 -2        38        37       194      1164      1385      1386
 -1       225    8    0    1
 -2        37       193       194      1383      1387      1385
 -1       226    8    0    1
 -2        39        38       195      1165      1388      1389
 -1       227    8    0    1
 -2        38       194       195      1386      1390      1388
 -1       228    8    0    1
 -2        40        39       196      1166      1391      1392
 -1       229    8    0    1
 -2        39       195       196      1389      1393      1391
 -1       230    8    0    1
 -2        41        40       197      1167      1394      1395
 -1       231    8    0    1
 -2        40       196       197      1392      1396      1394
 -1       232    8    0    1
 -2        42        41       198      1168      1397      1398
 -1       233    8    0    1
 -2        41       197       198      1395      1399      1397
 -1       234    8    0    1
 -2        43        42       199      1169      1400      1401
 -1       235    8    0    1
 -2        42       198       199      1398      1402      1400
 -1       236    8    0    1
 -2        44        43       200      1170      1403      1404
 -1       237    8    0    1
 -2        43       199       200      1401      1405      1403
 -1       238    8    0    1
 -2        45        44       201      1171      1406      1407
 -1       239    8    0    1
 -2        44       200       201      1404      1408      1406
 -1       240    8    0    1
 -2        46        45       202      1172      1409      1410
 -1       241    8    0    1
 -2        45       201       202      1407      1411      1409
 -1       242    8    0    1
 -2        47        46       203      1173      1412      1413
 -1       243    8    0    1
 -2        46       202       203      1410      1414      1412
 -1       244    8    0    1
 -2        48        47       204      1174      1415      1416
 -1       245    8    0    1
 -2        47       203       204      1413      1417      1415
 -1       246    8    0    1
 -2        49        48       205      1175      1418      1419
 -1       247    8    0    1
 -2        48       204       205      1416      1420      1418
 -1       248    8    0    1
 -2        50        49       206      1176      1421      1422
 -1       249    8    0    1
 -2        49       205       206      1419      1423      1421
 -1       250    8    0    1
 -2        51        50       207      1177      1424      1425
 -1       251    8    0    1
 -2        50       206       207      1422      1426      1424
 -1       252    8    0    1
 -2        52        51       208      1178      1427      1428
 -1       253    8    0    1
 -2        51       207       208      1425      1429      1427
 -1       254    8    0    1
 -2        53        52       209      1179      1430      1431
 -1       255    8    0    1
 -2        52       208       209      1428      1432      1430
 -1       256    8    0    1
 -2        54        53       210      1180      1433      1434
 -1       257    8    0    1
 -2        53       209       210      1431      1435      1433
 -1       258    8    0    1
 -2        55        54       211      1181      1436      1437
 -1       259    8    0    1
 -2        54       210       211      1434      1438      1436
 -1       260    8    0    1
 -2        56        55       212      1182      1439      1440
 -1       261    8    0    1
 -2        55       211       212      1437      1441      1439
 -1       262    8    0    1
 -2        57        56       213      1183      1442      1443
 -1       263    8    0    1
 -2        56       212       213      1440      1444      1442
 -1       264    8    0    1
 -2        58        57       214      1184      1445      1446
 -1       265    8    0    1
 -2        57       213       214      1443      1447      1445
 -1       266    8    0    1
 -2        59        58       215      1185      1448      1449
 -1       267    8    0    1
 -2        58       214       215      1446      1450      1448
 -1       268    8    0    1
 -2        60        59       216      1186      1451      1452
 -1       269    8    0    1
 -2        59       215       216      1449      1453      1451
 -1       270    8    0    1
 -2        61        60       217      1187      1454      1455
 -1       271    8    0    1
 -2        60       216       217      1452      1456      1454
 -1       272    8    0    1
 -2        62        61       218      1188      1457      1458
 -1       273    8    0    1
 -2        61       217       218      1455      1459      1457
 -1       274    8    0    1
 -2        63        62       219      1189      1460      1461
 -1       275    8    0    1
 -2        62       218       219      1458      1462      1460
 -1       276    8    0    1
 -2        64        63       220      1190      1463      1464
 -1       277    8    0    1
 -2        63       219       220      1461      1465      1463
 -1       278    8    0    1
 -2        65        64       221      1191      1466      1467
 -1       279    8    0    1
 -2        64       220       221      1464      1468      1466
 -1       280    8    0    1
 -2        66        65       222      1192      1469      1470
 -1       281    8    0    1
 -2        65       221       222      1467      1471      1469
 -1       282    8    0    1
 -2        67        66       223      1193      1472      1473
 -1       283    8    0    1
 -2        66       222       223      1470      1474      1472
 -1       284    8    0    1
 -2        68        67       224      1194      1475      1476
 -1       285    8    0    1
 -2        67       223       224      1473      1477      1475
 -1       286    8    0    1
 -2        69        68       225      1195      1478      1479
 -1       287    8    0    1
 -2        68       224       225      1476      1480      1478
 -1       288    8    0    1
 -2        70        69       226      1196      1481      1482
 -1       289    8    0    1
 -2        69       225       226      1479      1483      1481
 -1       290    8    0    1
 -2        71        70       227      1197      1484      1485
 -1       291    8    0    1
 -2        70       226       227      1482      1486      1484
 -1       292    8    0    1
 -2         4        71       136      1198      1487      1265
 -1       293    8    0    1
 -2       136        71       227      1487      1485      1488
 -1       294    8    0    1
 -2        72        73       228      1200      1489      1490
 -1       295    8    0    1
 -2        72       228       179      1490      1491      1343
 -1       296    8    0    1
 -2        73        74       229      1201      1492      1493
 -1       297    8    0    1
 -2        73       229       228      1493      1494      1489
 -1       298    8    0    1
 -2        74        75       230      1202      1495      1496
 -1       299    8    0    1
 -2        74       230       229      1496      1497      1492
 -1       300    8    0    1
 -2        75        76       231      1203      1498      1499
 -1       301    8    0    1
 -2        75       231       230      1499      1500      1495
 -1       302    8    0    1
 -2        76        77       232      1204      1501      1502
 -1       303    8    0    1
 -2        76       232       231      1502      1503      1498
 -1       304    8    0    1
 -2        77        78       233      1205      1504      1505
 -1       305    8    0    1
 -2        77       233       232      1505      1506      1501
 -1       306    8    0    1
 -2        78        79       234      1206      1507      1508
 -1       307    8    0    1
 -2        78       234       233      1508      1509      1504
 -1       308    8    0    1
 -2        79        80       235      1207      1510      1511
 -1       309    8    0    1
 -2        79       235       234      1511      1512      1507
 -1       310    8    0    1
 -2        80        81       236      1208      1513      1514
 -1       311    8    0    1
 -2        80       236       235      1514      1515      1510
 -1       312    8    0    1
 -2        81        82       237      1209      1516      1517
 -1       313    8    0    1
 -2        81       237       236      1517      1518      1513
 -1       314    8    0    1
 -2        82        83       238      1210      1519      1520
 -1       315    8    0    1
 -2        82       238       237      1520      1521      1516
 -1       316    8    0    1
 -2        83        84       239      1211      1522      1523
 -1       317    8    0    1
 -2        83       239       238      1523      1524      1519
 -1       318    8    0    1
 -2        84        85       240      1212      1525      1526
 -1       319    8    0    1
 -2        84       240       239      1526      1527      1522
 -1       320    8    0    1
 -2        85        86       241      1213      1528      1529
 -1       321    8    0    1
 -2        85       241       240      1529      1530      1525
 -1       322    8    0    1
 -2        86        87       242      1214      1531      1532
 -1       323    8    0    1
 -2        86       242       241      1532      1533      1528
 -1       324    8    0    1
 -2        87        88       243      1215      1534      1535
 -1       325    8    0    1
 -2        87       243       242      1535      1536      1531
 -1       326    8    0    1
 -2        88        89       244      1216      1537      1538
 -1       327    8    0    1
 -2        88       244       243      1538      1539      1534
 -1       328    8    0    1
 -2        89        90       245      1217      1540      1541
 -1       329    8    0    1
 -2        89       245       244      1541      1542      1537
 -1       330    8    0    1
 -2        90        91       246      1218      1543      1544
 -1       331    8    0    1
 -2        90       246       245      1544      1545      1540
 -1       332    8    0    1
 -2        91        92       247      1219      1546      1547
 -1       333    8    0    1
 -2        91       247       246      1547      1548      1543
 -1       334    8    0    1
 -2        92        93       248      1220      1549      1550
 -1       335    8    0    1
 -2        92       248       247      1550      1551      1546
 -1       336    8    0    1
 -2        93        94       249      1221      1552      1553
 -1       337    8    0    1
 -2        93       249       248      1553      1554      1549
 -1       338    8    0    1
 -2        94        95       250      1222      1555      1556
 -1       339    8    0    1
 -2        94       250       249      1556      1557      1552
 -1       340    8    0    1
 -2        95        96       251      1223      1558      1559
 -1       341    8    0    1
 -2        95       251       250      1559      1560      1555
 -1       342    8    0    1
 -2        96        97       252      1224      1561      1562
 -1       343    8    0    1
 -2        96       252       251      1562      1563      1558
 -1       344    8    0    1
 -2        97        98       253      1225      1564      1565
 -1       345    8    0    1
 -2        97       253       252      1565      1566      1561
 -1       346    8    0    1
 -2        98        99       254      1226      1567      1568
 -1       347    8    0    1
 -2        98       254       253      1568      1569      1564
 -1       348    8    0    1
 -2        99       100       255      1227      1570      1571
 -1       349    8    0    1
 -2        99       255       254      1571      1572      1567
 -1       350    8    0    1
 -2       100       101       256      1228      1573      1574
 -1       351    8    0    1
 -2       100       256       255      1574      1575      1570
 -1       352    8    0    1
 -2       101       102       257      1229      1576      1577
 -1       353    8    0    1
 -2       101       257       256      1577      1578      1573
 -1       354    8    0    1
 -2       102       103       258      1230      1579      1580
 -1       355    8    0    1
 -2       102       258       257      1580      1581      1576
 -1       356    8    0    1
 -2       103       104       259      1231      1582      1583
 -1       357    8    0    1
 -2       103       259       258      1583      1584      1579
 -1       358    8    0    1
 -2       104       105       260      1232      1585      1586
 -1       359    8    0    1
 -2       104       260       259      1586      1587      1582
 -1       360    8    0    1
 -2       105       106       261      1233      1588      1589
 -1       361    8    0    1
 -2       105       261       260      1589      1590      1585
 -1       362    8    0    1
 -2       106       107       262      1234      1591      1592
 -1       363    8    0    1
 -2       106       262       261      1592      1593      1588
 -1       364    8    0    1
 -2       107       108       263      1235      1594      1595
 -1       365    8    0    1
 -2       107       263       262      1595      1596      1591
 -1       366    8    0    1
 -2       108       109       264      1236      1597      1598
 -1       367    8    0    1
 -2       108       264       263      1598      1599      1594
 -1       368    8    0    1
 -2       109       110       265      1237      1600      1601
 -1       369    8    0    1
 -2       109       265       264      1601      1602      1597
 -1       370    8    0    1
 -2       110       111       266      1238      1603      1604
 -1       371    8    0    1
 -2       110       266       265      1604      1605      1600
 -1       372    8    0    1
 -2       111       112       267      1239      1606      1607
 -1       373    8    0    1
 -2       111       267       266      1607      1608      1603
 -1       374    8    0    1
 -2       112       113       268      1240      1609      1610
 -1       375    8    0    1
 -2       112       268       267      1610      1611      1606
 -1       376    8    0    1
 -2       113       114       269      1241      1612      1613
 -1       377    8    0    1
 -2       113       269       268      1613      1614      1609
 -1       378    8    0    1
 -2       114       115       270      1242      1615      1616
 -1       379    8    0    1
 -2       114       270       269      1616      1617      1612
 -1       380    8    0    1
 -2       115       116       271      1243      1618      1619
 -1       381    8    0    1
 -2       115       271       270      1619      1620      1615
 -1       382    8    0    1
 -2       116       117       272      1244      1621      1622
 -1       383    8    0    1
 -2       116       272       271      1622      1623      1618
 -1       384    8    0    1
 -2       117       118       273      1245      1624      1625
 -1       385    8    0    1
 -2       117       273       272      1625      1626      1621
 -1       386    8    0    1
 -2       118       119       274      1246      1627      1628
 -1       387    8    0    1
 -2       118       274       273      1628      1629      1624
 -1       388    8    0    1
 -2       119       120       275      1247      1630      1631
 -1       389    8    0    1
 -2       119       275       274      1631      1632      1627
 -1       390    8    0    1
 -2       120         3       121      1248      1249      1633
 -1       391    8    0    1
 -2       121       122       276      1250      1634      1635
 -1       392    8    0    1
 -2       122       123       277      1251      1636      1637
 -1       393    8    0    1
 -2       122       277       276      1637      1638      1634
 -1       394    8    0    1
 -2       123       124       278      1252      1639      1640
 -1       395    8    0    1
 -2       123       278       277      1640      1641      1636
 -1       396    8    0    1
 -2       124       125       279      1253      1642      1643
 -1       397    8    0    1
 -2       124       279       278      1643      1644      1639
 -1       398    8    0    1
 -2       125       126       280      1254      1645      1646
 -1       399    8    0    1
 -2       125       280       279      1646      1647      1642
 -1       400    8    0    1
 -2       126       127       281      1255      1648      1649
 -1       401    8    0    1
 -2       126       281       280      1649      1650      1645
 -1       402    8    0    1
 -2       127       128       282      1256      1651      1652
 -1       403    8    0    1
 -2       127       282       281      1652      1653      1648
 -1       404    8    0    1
 -2       128       129       283      1257      1654      1655
 -1       405    8    0    1
 -2       128       283       282      1655      1656      1651
 -1       406    8    0    1
 -2       129       130       284      1258      1657      1658
 -1       407    8    0    1
 -2       129       284       283      1658      1659      1654
 -1       408    8    0    1
 -2       130       131       285      1259      1660      1661
 -1       409    8    0    1
 -2       130       285       284      1661      1662      1657
 -1       410    8    0    1
 -2       131       132       286      1260      1663      1664
 -1       411    8    0    1
 -2       131       286       285      1664      1665      1660
 -1       412    8    0    1
 -2       132       133       287      1261      1666      1667
 -1       413    8    0    1
 -2       132       287       286      1667      1668      1663
 -1       414    8    0    1
 -2       133       134       288      1262      1669      1670
 -1       415    8    0    1
 -2       133       288       287      1670      1671      1666
 -1       416    8    0    1
 -2       134       135       289      1263      1672      1673
 -1       417    8    0    1
 -2       134       289       288      1673      1674      1669
 -1       418    8    0    1
 -2       135       136       290      1264      1675      1676
 -1       419    8    0    1
 -2       289       135       290      1672      1676      1677
 -1       420    8    0    1
 -2       136       227       290      1488      1678      1675
 -1       421    8    0    1
 -2         2       137       291      1266      1679      1680
 -1       422    8    0    1
 -2       137       138       292      1267      1681      1682
 -1       423    8    0    1
 -2       138       139       293      1268      1683      1684
 -1       424    8    0    1
 -2       139       140       294      1269      1685      1686
 -1       425    8    0    1
 -2       140       141       295      1270      1687      1688
 -1       426    8    0    1
 -2       141       142       296      1271      1689      1690
 -1       427    8    0    1
 -2       142       143       297      1272      1691      1692
 -1       428    8    0    1
 -2       143       144       298      1273      1693      1694
 -1       429    8    0    1
 -2       144       145       299      1274      1695      1696
 -1       430    8    0    1
 -2       145       146       300      1275      1697      1698
 -1       431    8    0    1
 -2       146       147       301      1276      1699      1700
 -1       432    8    0    1
 -2       147       148       302      1277      1701      1702
 -1       433    8    0    1
 -2       148       149       303      1278      1703      1704
 -1       434    8    0    1
 -2       149       150       304      1279      1705      1706
 -1       435    8    0    1
 -2       150         1       305      1280      1707      1708
 -1       436    8    0    1
 -2         1       151       306      1281      1709      1710
 -1       437    8    0    1
 -2       151       152       307      1282      1711      1712
 -1       438    8    0    1
 -2       152       153       308      1283      1713      1714
 -1       439    8    0    1
 -2       153       154       309      1284      1715      1716
 -1       440    8    0    1
 -2       154       155       310      1285      1717      1718
 -1       441    8    0    1
 -2       154       310       309      1718      1719      1715
 -1       442    8    0    1
 -2       155       156       311      1286      1720      1721
 -1       443    8    0    1
 -2       156       157       312      1287      1722      1723
 -1       444    8    0    1
 -2       157       158       313      1288      1724      1725
 -1       445    8    0    1
 -2       158       159       314      1289      1726      1727
 -1       446    8    0    1
 -2       159       160       315      1290      1728      1729
 -1       447    8    0    1
 -2       160       161       316      1291      1730      1731
 -1       448    8    0    1
 -2       161       162       317      1292      1732      1733
 -1       449    8    0    1
 -2       162       163       318      1293      1734      1735
 -1       450    8    0    1
 -2       163         2       319      1294      1736      1737
 -1       451    8    0    1
 -2       294       140       295      1685      1688      1738
 -1       452    8    0    1
 -2       293       139       294      1683      1686      1739
 -1       453    8    0    1
 -2       120       121       275      1633      1740      1630
 -1       454    8    0    1
 -2       121       276       275      1635      1741      1740
 -1       455    8    0    1
 -2       291       137       292      1679      1682      1742
 -1       456    8    0    1
 -2       292       138       293      1681      1684      1743
 -1       457    8    0    1
 -2         2       291       319      1680      1744      1736
 -1       458    8    0    1
 -2       141       296       295      1690      1745      1687
 -1       459    8    0    1
 -2       142       297       296      1692      1746      1689
 -1       460    8    0    1
 -2       143       298       297      1694      1747      1691
 -1       461    8    0    1
 -2       144       299       298      1696      1748      1693
 -1       462    8    0    1
 -2       145       300       299      1698      1749      1695
 -1       463    8    0    1
 -2       146       301       300      1700      1750      1697
 -1       464    8    0    1
 -2       147       302       301      1702      1751      1699
 -1       465    8    0    1
 -2       148       303       302      1704      1752      1701
 -1       466    8    0    1
 -2       149       304       303      1706      1753      1703
 -1       467    8    0    1
 -2       150       305       304      1708      1754      1705
 -1       468    8    0    1
 -2         1       306       305      1710      1755      1707
 -1       469    8    0    1
 -2       151       307       306      1712      1756      1709
 -1       470    8    0    1
 -2       152       308       307      1714      1757      1711
 -1       471    8    0    1
 -2       153       309       308      1716      1758      1713
 -1       472    8    0    1
 -2       311       156       312      1720      1723      1759
 -1       473    8    0    1
 -2       157       313       312      1725      1760      1722
 -1       474    8    0    1
 -2       158       314       313      1727      1761      1724
 -1       475    8    0    1
 -2       159       315       314      1729      1762      1726
 -1       476    8    0    1
 -2       160       316       315      1731      1763      1728
 -1       477    8    0    1
 -2       161       317       316      1733      1764      1730
 -1       478    8    0    1
 -2       162       318       317      1735      1765      1732
 -1       479    8    0    1
 -2       163       319       318      1737      1766      1734
 -1       480    8    0    1
 -2        23         7       164      1295      1297      1767
 -1       481    8    0    1
 -2       155       311       310      1721      1768      1717
 -1       482    8    0    1
 -2       165       166       320      1303      1769      1770
 -1       483    8    0    1
 -2       164       165       321      1300      1771      1772
 -1       484    8    0    1
 -2       165       320       321      1770      1773      1771
 -1       485    8    0    1
 -2       167       168       322      1309      1774      1775
 -1       486    8    0    1
 -2       168       169       323      1312      1776      1777
 -1       487    8    0    1
 -2       168       323       322      1777      1778      1774
 -1       488    8    0    1
 -2       169       170       324      1315      1779      1780
 -1       489    8    0    1
 -2       169       324       323      1780      1781      1776
 -1       490    8    0    1
 -2       170       171       325      1318      1782      1783
 -1       491    8    0    1
 -2       170       325       324      1783      1784      1779
 -1       492    8    0    1
 -2       171       172       326      1321      1785      1786
 -1       493    8    0    1
 -2       171       326       325      1786      1787      1782
 -1       494    8    0    1
 -2       172       173       327      1324      1788      1789
 -1       495    8    0    1
 -2       172       327       326      1789      1790      1785
 -1       496    8    0    1
 -2       173       174       328      1327      1791      1792
 -1       497    8    0    1
 -2       173       328       327      1792      1793      1788
 -1       498    8    0    1
 -2       174       175       329      1330      1794      1795
 -1       499    8    0    1
 -2       174       329       328      1795      1796      1791
 -1       500    8    0    1
 -2       175       176       330      1333      1797      1798
 -1       501    8    0    1
 -2       175       330       329      1798      1799      1794
 -1       502    8    0    1
 -2       176       177       331      1336      1800      1801
 -1       503    8    0    1
 -2       176       331       330      1801      1802      1797
 -1       504    8    0    1
 -2       177       178       332      1339      1803      1804
 -1       505    8    0    1
 -2       177       332       331      1804      1805      1800
 -1       506    8    0    1
 -2       178       179       333      1342      1806      1807
 -1       507    8    0    1
 -2       332       178       333      1803      1807      1808
 -1       508    8    0    1
 -2       179       228       333      1491      1809      1806
 -1       509    8    0    1
 -2       180        23       164      1344      1767      1810
 -1       510    8    0    1
 -2       228       229       334      1494      1811      1812
 -1       511    8    0    1
 -2       228       334       333      1812      1813      1809
 -1       512    8    0    1
 -2       310       311       335      1768      1814      1815
 -1       513    8    0    1
 -2       180       164       321      1810      1772      1816
 -1       514    8    0    1
 -2       182       181       336      1351      1817      1818
 -1       515    8    0    1
 -2       183       182       337      1354      1819      1820
 -1       516    8    0    1
 -2       182       336       337      1818      1821      1819
 -1       517    8    0    1
 -2       184       183       338      1357      1822      1823
 -1       518    8    0    1
 -2       183       337       338      1820      1824      1822
 -1       519    8    0    1
 -2       185       184       339      1360      1825      1826
 -1       520    8    0    1
 -2       184       338       339      1823      1827      1825
 -1       521    8    0    1
 -2       186       185       340      1363      1828      1829
 -1       522    8    0    1
 -2       185       339       340      1826      1830      1828
 -1       523    8    0    1
 -2       187       186       341      1366      1831      1832
 -1       524    8    0    1
 -2       186       340       341      1829      1833      1831
 -1       525    8    0    1
 -2       188       187       342      1369      1834      1835
 -1       526    8    0    1
 -2       187       341       342      1832      1836      1834
 -1       527    8    0    1
 -2       189       188       343      1372      1837      1838
 -1       528    8    0    1
 -2       188       342       343      1835      1839      1837
 -1       529    8    0    1
 -2       190       189       344      1375      1840      1841
 -1       530    8    0    1
 -2       189       343       344      1838      1842      1840
 -1       531    8    0    1
 -2       191       190       345      1378      1843      1844
 -1       532    8    0    1
 -2       190       344       345      1841      1845      1843
 -1       533    8    0    1
 -2       192       191       346      1381      1846      1847
 -1       534    8    0    1
 -2       191       345       346      1844      1848      1846
 -1       535    8    0    1
 -2       193       192       347      1384      1849      1850
 -1       536    8    0    1
 -2       192       346       347      1847      1851      1849
 -1       537    8    0    1
 -2       194       193       348      1387      1852      1853
 -1       538    8    0    1
 -2       193       347       348      1850      1854      1852
 -1       539    8    0    1
 -2       195       194       349      1390      1855      1856
 -1       540    8    0    1
 -2       194       348       349      1853      1857      1855
 -1       541    8    0    1
 -2       196       195       350      1393      1858      1859
 -1       542    8    0    1
 -2       195       349       350      1856      1860      1858
 -1       543    8    0    1
 -2       197       196       351      1396      1861      1862
 -1       544    8    0    1
 -2       196       350       351      1859      1863      1861
 -1       545    8    0    1
 -2       198       197       352      1399      1864      1865
 -1       546    8    0    1
 -2       197       351       352      1862      1866      1864
 -1       547    8    0    1
 -2       199       198       353      1402      1867      1868
 -1       548    8    0    1
 -2       198       352       353      1865      1869      1867
 -1       549    8    0    1
 -2       200       199       354      1405      1870      1871
 -1       550    8    0    1
 -2       199       353       354      1868      1872      1870
 -1       551    8    0    1
 -2       201       200       355      1408      1873      1874
 -1       552    8    0    1
 -2       200       354       355      1871      1875      1873
 -1       553    8    0    1
 -2       202       201       356      1411      1876      1877
 -1       554    8    0    1
 -2       201       355       356      1874      1878      1876
 -1       555    8    0    1
 -2       203       202       357      1414      1879      1880
 -1       556    8    0    1
 -2       202       356       357      1877      1881      1879
 -1       557    8    0    1
 -2       204       203       358      1417      1882      1883
 -1       558    8    0    1
 -2       203       357       358      1880      1884      1882
 -1       559    8    0    1
 -2       205       204       359      1420      1885      1886
 -1       560    8    0    1
 -2       204       358       359      1883      1887      1885
 -1       561    8    0    1
 -2       206       205       360      1423      1888      1889
 -1       562    8    0    1
 -2       205       359       360      1886      1890      1888
 -1       563    8    0    1
 -2       207       206       361      1426      1891      1892
 -1       564    8    0    1
 -2       206       360       361      1889      1893      1891
 -1       565    8    0    1
 -2       208       207       362      1429      1894      1895
 -1       566    8    0    1
 -2       207       361       362      1892      1896      1894
 -1       567    8    0    1
 -2       209       208       363      1432      1897      1898
 -1       568    8    0    1
 -2       208       362       363      1895      1899      1897
 -1       569    8    0    1
 -2       210       209       364      1435      1900      1901
 -1       570    8    0    1
 -2       209       363       364      1898      1902      1900
 -1       571    8    0    1
 -2       211       210       365      1438      1903      1904
 -1       572    8    0    1
 -2       210       364       365      1901      1905      1903
 -1       573    8    0    1
 -2       212       211       366      1441      1906      1907
 -1       574    8    0    1
 -2       211       365       366      1904      1908      1906
 -1       575    8    0    1
 -2       213       212       367      1444      1909      1910
 -1       576    8    0    1
 -2       212       366       367      1907      1911      1909
 -1       577    8    0    1
 -2       214       213       368      1447      1912      1913
 -1       578    8    0    1
 -2       213       367       368      1910      1914      1912
 -1       579    8    0    1
 -2       215       214       369      1450      1915      1916
 -1       580    8    0    1
 -2       214       368       369      1913      1917      1915
 -1       581    8    0    1
 -2       216       215       370      1453      1918      1919
 -1       582    8    0    1
 -2       215       369       370      1916      1920      1918
 -1       583    8    0    1
 -2       217       216       371      1456      1921      1922
 -1       584    8    0    1
 -2       216       370       371      1919      1923      1921
 -1       585    8    0    1
 -2       218       217       372      1459      1924      1925
 -1       586    8    0    1
 -2       217       371       372      1922      1926      1924
 -1       587    8    0    1
 -2       219       218       373      1462      1927      1928
 -1       588    8    0    1
 -2       218       372       373      1925      1929      1927
 -1       589    8    0    1
 -2       220       219       374      1465      1930      1931
 -1       590    8    0    1
 -2       219       373       374      1928      1932      1930
 -1       591    8    0    1
 -2       221       220       375      1468      1933      1934
 -1       592    8    0    1
 -2       220       374       375      1931      1935      1933
 -1       593    8    0    1
 -2       222       221       376      1471      1936      1937
 -1       594    8    0    1
 -2       221       375       376      1934      1938      1936
 -1       595    8    0    1
 -2       223       222       377      1474      1939      1940
 -1       596    8    0    1
 -2       222       376       377      1937      1941      1939
 -1       597    8    0    1
 -2       224       223       378      1477      1942      1943
 -1       598    8    0    1
 -2       223       377       378      1940      1944      1942
 -1       599    8    0    1
 -2       225       224       379      1480      1945      1946
 -1       600    8    0    1
 -2       224       378       379      1943      1947      1945
 -1       601    8    0    1
 -2       226       225       380      1483      1948      1949
 -1       602    8    0    1
 -2       225       379       380      1946      1950      1948
 -1       603    8    0    1
 -2       227       226       381      1486      1951      1952
 -1       604    8    0    1
 -2       290       227       381      1678      1952      1953
 -1       605    8    0    1
 -2       226       380       381      1949      1954      1951
 -1       606    8    0    1
 -2       229       230       382      1497      1955      1956
 -1       607    8    0    1
 -2       229       382       334      1956      1957      1811
 -1       608    8    0    1
 -2       230       231       383      1500      1958      1959
 -1       609    8    0    1
 -2       230       383       382      1959      1960      1955
 -1       610    8    0    1
 -2       231       232       384      1503      1961      1962
 -1       611    8    0    1
 -2       231       384       383      1962      1963      1958
 -1       612    8    0    1
 -2       232       233       385      1506      1964      1965
 -1       613    8    0    1
 -2       232       385       384      1965      1966      1961
 -1       614    8    0    1
 -2       233       234       386      1509      1967      1968
 -1       615    8    0    1
 -2       233       386       385      1968      1969      1964
 -1       616    8    0    1
 -2       234       235       387      1512      1970      1971
 -1       617    8    0    1
 -2       234       387       386      1971      1972      1967
 -1       618    8    0    1
 -2       235       236       388      1515      1973      1974
 -1       619    8    0    1
 -2       235       388       387      1974      1975      1970
 -1       620    8    0    1
 -2       236       237       389      1518      1976      1977
 -1       621    8    0    1
 -2       236       389       388      1977      1978      1973
 -1       622    8    0    1
 -2       237       238       390      1521      1979      1980
 -1       623    8    0    1
 -2       237       390       389      1980      1981      1976
 -1       624    8    0    1
 -2       238       239       391      1524      1982      1983
 -1       625    8    0    1
 -2       238       391       390      1983      1984      1979
 -1       626    8    0    1
 -2       239       240       392      1527      1985      1986
 -1       627    8    0    1
 -2       239       392       391      1986      1987      1982
 -1       628    8    0    1
 -2       240       241       393      1530      1988      1989
 -1       629    8    0    1
 -2       240       393       392      1989      1990      1985
 -1       630    8    0    1
 -2       241       242       394      1533      1991      1992
 -1       631    8    0    1
 -2       241       394       393      1992      1993      1988
 -1       632    8    0    1
 -2       242       243       395      1536      1994      1995
 -1       633    8    0    1
 -2       242       395       394      1995      1996      1991
 -1       634    8    0    1
 -2       243       244       396      1539      1997      1998
 -1       635    8    0    1
 -2       243       396       395      1998      1999      1994
 -1       636    8    0    1
 -2       244       245       397      1542      2000      2001
 -1       637    8    0    1
 -2       244       397       396      2001      2002      1997
 -1       638    8    0    1
 -2       245       246       398      1545      2003      2004
 -1       639    8    0    1
 -2       245       398       397      2004      2005      2000
 -1       640    8    0    1
 -2       246       247       399      1548      2006      2007
 -1       641    8    0    1
 -2       246       399       398      2007      2008      2003
 -1       642    8    0    1
 -2       247       248       400      1551      2009      2010
 -1       643    8    0    1
 -2       247       400       399      2010      2011      2006
 -1       644    8    0    1
 -2       248       249       401      1554      2012      2013
 -1       645    8    0    1
 -2       248       401       400      2013      2014      2009
 -1       646    8    0    1
 -2       249       250       402      1557      2015      2016
 -1       647    8    0    1
 -2       249       402       401      2016      2017      2012
 -1       648    8    0    1
 -2       250       251       403      1560      2018      2019
 -1       649    8    0    1
 -2       250       403       402      2019      2020      2015
 -1       650    8    0    1
 -2       251       252       404      1563      2021      2022
 -1       651    8    0    1
 -2       251       404       403      2022      2023      2018
 -1       652    8    0    1
 -2       252       253       405      1566      2024      2025
 -1       653    8    0    1
 -2       252       405       404      2025      2026      2021
 -1       654    8    0    1
 -2       253       254       406      1569      2027      2028
 -1       655    8    0    1
 -2       253       406       405      2028      2029      2024
 -1       656    8    0    1
 -2       254       255       407      1572      2030      2031
 -1       657    8    0    1
 -2       254       407       406      2031      2032      2027
 -1       658    8    0    1
 -2       255       256       408      1575      2033      2034
 -1       659    8    0    1
 -2       255       408       407      2034      2035      2030
 -1       660    8    0    1
 -2       256       257       409      1578      2036      2037
 -1       661    8    0    1
 -2       256       409       408      2037      2038      2033
 -1       662    8    0    1
 -2       257       258       410      1581      2039      2040
 -1       663    8    0    1
 -2       257       410       409      2040      2041      2036
 -1       664    8    0    1
 -2       258       259       411      1584      2042      2043
 -1       665    8    0    1
 -2       258       411       410      2043      2044      2039
 -1       666    8    0    1
 -2       259       260       412      1587      2045      2046
 -1       667    8    0    1
 -2       259       412       411      2046      2047      2042
 -1       668    8    0    1
 -2       260       261       413      1590      2048      2049
 -1       669    8    0    1
 -2       260       413       412      2049      2050      2045
 -1       670    8    0    1
 -2       261       262       414      1593      2051      2052
 -1       671    8    0    1
 -2       261       414       413      2052      2053      2048
 -1       672    8    0    1
 -2       262       263       415      1596      2054      2055
 -1       673    8    0    1
 -2       262       415       414      2055      2056      2051
 -1       674    8    0    1
 -2       263       264       416      1599      2057      2058
 -1       675    8    0    1
 -2       263       416       415      2058      2059      2054
 -1       676    8    0    1
 -2       264       265       417      1602      2060      2061
 -1       677    8    0    1
 -2       264       417       416      2061      2062      2057
 -1       678    8    0    1
 -2       265       266       418      1605      2063      2064
 -1       679    8    0    1
 -2       265       418       417      2064      2065      2060
 -1       680    8    0    1
 -2       266       267       419      1608      2066      2067
 -1       681    8    0    1
 -2       266       419       418      2067      2068      2063
 -1       682    8    0    1
 -2       267       268       420      1611      2069      2070
 -1       683    8    0    1
 -2       267       420       419      2070      2071      2066
 -1       684    8    0    1
 -2       268       269       421      1614      2072      2073
 -1       685    8    0    1
 -2       268       421       420      2073      2074      2069
 -1       686    8    0    1
 -2       269       270       422      1617      2075      2076
 -1       687    8    0    1
 -2       269       422       421      2076      2077      2072
 -1       688    8    0    1
 -2       270       271       423      1620      2078      2079
 -1       689    8    0    1
 -2       270       423       422      2079      2080      2075
 -1       690    8    0    1
 -2       271       272       424      1623      2081      2082
 -1       691    8    0    1
 -2       271       424       423      2082      2083      2078
 -1       692    8    0    1
 -2       272       273       425      1626      2084      2085
 -1       693    8    0    1
 -2       272       425       424      2085      2086      2081
 -1       694    8    0    1
 -2       273       274       426      1629      2087      2088
 -1       695    8    0    1
 -2       273       426       425      2088      2089      2084
 -1       696    8    0    1
 -2       274       275       427      1632      2090      2091
 -1       697    8    0    1
 -2       426       274       427      2087      2091      2092
 -1       698    8    0    1
 -2       275       276       427      1741      2093      2090
 -1       699    8    0    1
 -2       278       279       428      1644      2094      2095
 -1       700    8    0    1
 -2       277       278       429      1641      2096      2097
 -1       701    8    0    1
 -2       278       428       429      2095      2098      2096
 -1       702    8    0    1
 -2       276       277       430      1638      2099      2100
 -1       703    8    0    1
 -2       427       276       430      2093      2100      2101
 -1       704    8    0    1
 -2       277       429       430      2097      2102      2099
 -1       705    8    0    1
 -2       279       280       431      1647      2103      2104
 -1       706    8    0    1
 -2       279       431       428      2104      2105      2094
 -1       707    8    0    1
 -2       280       281       432      1650      2106      2107
 -1       708    8    0    1
 -2       280       432       431      2107      2108      2103
 -1       709    8    0    1
 -2       281       282       433      1653      2109      2110
 -1       710    8    0    1
 -2       281       433       432      2110      2111      2106
 -1       711    8    0    1
 -2       282       283       434      1656      2112      2113
 -1       712    8    0    1
 -2       282       434       433      2113      2114      2109
 -1       713    8    0    1
 -2       283       284       435      1659      2115      2116
 -1       714    8    0    1
 -2       283       435       434      2116      2117      2112
 -1       715    8    0    1
 -2       284       285       436      1662      2118      2119
 -1       716    8    0    1
 -2       284       436       435      2119      2120      2115
 -1       717    8    0    1
 -2       285       286       437      1665      2121      2122
 -1       718    8    0    1
 -2       285       437       436      2122      2123      2118
 -1       719    8    0    1
 -2       286       287       438      1668      2124      2125
 -1       720    8    0    1
 -2       286       438       437      2125      2126      2121
 -1       721    8    0    1
 -2       287       288       439      1671      2127      2128
 -1       722    8    0    1
 -2       287       439       438      2128      2129      2124
 -1       723    8    0    1
 -2       288       289       440      1674      2130      2131
 -1       724    8    0    1
 -2       288       440       439      2131      2132      2127
 -1       725    8    0    1
 -2       292       293       441      1743      2133      2134
 -1       726    8    0    1
 -2       319       291       442      1744      2135      2136
 -1       727    8    0    1
 -2       291       292       443      1742      2137      2138
 -1       728    8    0    1
 -2       291       443       442      2138      2139      2135
 -1       729    8    0    1
 -2       293       294       444      1739      2140      2141
 -1       730    8    0    1
 -2       309       310       445      1719      2142      2143
 -1       731    8    0    1
 -2       312       313       446      1760      2144      2145
 -1       732    8    0    1
 -2       294       295       447      1738      2146      2147
 -1       733    8    0    1
 -2       166       167       448      1306      2148      2149
 -1       734    8    0    1
 -2       320       166       448      1769      2149      2150
 -1       735    8    0    1
 -2       167       322       448      1775      2151      2148
 -1       736    8    0    1
 -2       296       297       449      1746      2152      2153
 -1       737    8    0    1
 -2       297       298       450      1747      2154      2155
 -1       738    8    0    1
 -2       298       299       451      1748      2156      2157
 -1       739    8    0    1
 -2       299       300       452      1749      2158      2159
 -1       740    8    0    1
 -2       300       301       453      1750      2160      2161
 -1       741    8    0    1
 -2       301       302       454      1751      2162      2163
 -1       742    8    0    1
 -2       302       303       455      1752      2164      2165
 -1       743    8    0    1
 -2       303       304       456      1753      2166      2167
 -1       744    8    0    1
 -2       304       305       457      1754      2168      2169
 -1       745    8    0    1
 -2       305       306       458      1755      2170      2171
 -1       746    8    0    1
 -2       306       307       459      1756      2172      2173
 -1       747    8    0    1
 -2       307       308       460      1757      2174      2175
 -1       748    8    0    1
 -2       308       309       461      1758      2176      2177
 -1       749    8    0    1
 -2       308       461       460      2177      2178      2174
 -1       750    8    0    1
 -2       311       312       462      1759      2179      2180
 -1       751    8    0    1
 -2       312       446       462      2145      2181      2179
 -1       752    8    0    1
 -2       313       314       463      1761      2182      2183
 -1       753    8    0    1
 -2       314       315       464      1762      2184      2185
 -1       754    8    0    1
 -2       315       316       465      1763      2186      2187
 -1       755    8    0    1
 -2       316       317       466      1764      2188      2189
 -1       756    8    0    1
 -2       317       318       467      1765      2190      2191
 -1       757    8    0    1
 -2       317       467       466      2191      2192      2188
 -1       758    8    0    1
 -2       318       319       468      1766      2193      2194
 -1       759    8    0    1
 -2       319       442       468      2136      2195      2193
 -1       760    8    0    1
 -2       295       296       469      1745      2196      2197
 -1       761    8    0    1
 -2       310       335       445      1815      2198      2142
 -1       762    8    0    1
 -2       335       311       462      1814      2180      2199
 -1       763    8    0    1
 -2       181       180       321      1348      1816      2200
 -1       764    8    0    1
 -2       336       181       321      1817      2200      2201
 -1       765    8    0    1
 -2       443       292       470      2137      2202      2203
 -1       766    8    0    1
 -2       292       441       470      2134      2204      2202
 -1       767    8    0    1
 -2       293       444       441      2141      2205      2133
 -1       768    8    0    1
 -2       440       289       290      2130      1677      2206
 -1       769    8    0    1
 -2       295       469       447      2197      2207      2146
 -1       770    8    0    1
 -2       444       294       447      2140      2147      2208
 -1       771    8    0    1
 -2       309       445       461      2143      2209      2176
 -1       772    8    0    1
 -2       467       318       471      2190      2210      2211
 -1       773    8    0    1
 -2       318       468       471      2194      2212      2210
 -1       774    8    0    1
 -2       465       316       472      2186      2213      2214
 -1       775    8    0    1
 -2       316       466       472      2189      2215      2213
 -1       776    8    0    1
 -2       464       315       465      2184      2187      2216
 -1       777    8    0    1
 -2       459       307       460      2172      2175      2217
 -1       778    8    0    1
 -2       458       306       459      2170      2173      2218
 -1       779    8    0    1
 -2       457       305       458      2168      2171      2219
 -1       780    8    0    1
 -2       456       304       473      2166      2220      2221
 -1       781    8    0    1
 -2       304       457       473      2169      2222      2220
 -1       782    8    0    1
 -2       455       303       456      2164      2167      2223
 -1       783    8    0    1
 -2       313       463       446      2183      2224      2144
 -1       784    8    0    1
 -2       454       302       455      2162      2165      2225
 -1       785    8    0    1
 -2       453       301       454      2160      2163      2226
 -1       786    8    0    1
 -2       452       300       453      2158      2161      2227
 -1       787    8    0    1
 -2       451       299       452      2156      2159      2228
 -1       788    8    0    1
 -2       450       298       451      2154      2157      2229
 -1       789    8    0    1
 -2       297       450       449      2155      2230      2152
 -1       790    8    0    1
 -2       463       314       464      2182      2185      2231
 -1       791    8    0    1
 -2       296       449       469      2153      2232      2196
 -1       792    8    0    1
 -2       334       382       474      1957      2233      2234
 -1       793    8    0    1
 -2       323       324       475      1781      2235      2236
 -1       794    8    0    1
 -2       322       323       476      1778      2237      2238
 -1       795    8    0    1
 -2       323       475       476      2236      2239      2237
 -1       796    8    0    1
 -2       325       326       477      1787      2240      2241
 -1       797    8    0    1
 -2       326       327       478      1790      2242      2243
 -1       798    8    0    1
 -2       326       478       477      2243      2244      2240
 -1       799    8    0    1
 -2       327       328       479      1793      2245      2246
 -1       800    8    0    1
 -2       327       479       478      2246      2247      2242
 -1       801    8    0    1
 -2       328       329       480      1796      2248      2249
 -1       802    8    0    1
 -2       328       480       479      2249      2250      2245
 -1       803    8    0    1
 -2       329       330       481      1799      2251      2252
 -1       804    8    0    1
 -2       329       481       480      2252      2253      2248
 -1       805    8    0    1
 -2       330       331       482      1802      2254      2255
 -1       806    8    0    1
 -2       330       482       481      2255      2256      2251
 -1       807    8    0    1
 -2       337       336       483      1821      2257      2258
 -1       808    8    0    1
 -2       335       462       484      2199      2259      2260
 -1       809    8    0    1
 -2       382       383       485      1960      2261      2262
 -1       810    8    0    1
 -2       382       485       474      2262      2263      2233
 -1       811    8    0    1
 -2       336       321       486      2201      2264      2265
 -1       812    8    0    1
 -2       483       336       486      2257      2265      2266
 -1       813    8    0    1
 -2       321       320       486      1773      2267      2264
 -1       814    8    0    1
 -2       338       337       487      1824      2268      2269
 -1       815    8    0    1
 -2       337       483       487      2258      2270      2268
 -1       816    8    0    1
 -2       339       338       488      1827      2271      2272
 -1       817    8    0    1
 -2       338       487       488      2269      2273      2271
 -1       818    8    0    1
 -2       340       339       489      1830      2274      2275
 -1       819    8    0    1
 -2       339       488       489      2272      2276      2274
 -1       820    8    0    1
 -2       341       340       490      1833      2277      2278
 -1       821    8    0    1
 -2       340       489       490      2275      2279      2277
 -1       822    8    0    1
 -2       342       341       491      1836      2280      2281
 -1       823    8    0    1
 -2       341       490       491      2278      2282      2280
 -1       824    8    0    1
 -2       343       342       492      1839      2283      2284
 -1       825    8    0    1
 -2       342       491       492      2281      2285      2283
 -1       826    8    0    1
 -2       344       343       493      1842      2286      2287
 -1       827    8    0    1
 -2       343       492       493      2284      2288      2286
 -1       828    8    0    1
 -2       345       344       494      1845      2289      2290
 -1       829    8    0    1
 -2       344       493       494      2287      2291      2289
 -1       830    8    0    1
 -2       346       345       495      1848      2292      2293
 -1       831    8    0    1
 -2       345       494       495      2290      2294      2292
 -1       832    8    0    1
 -2       347       346       496      1851      2295      2296
 -1       833    8    0    1
 -2       346       495       496      2293      2297      2295
 -1       834    8    0    1
 -2       348       347       497      1854      2298      2299
 -1       835    8    0    1
 -2       347       496       497      2296      2300      2298
 -1       836    8    0    1
 -2       349       348       498      1857      2301      2302
 -1       837    8    0    1
 -2       348       497       498      2299      2303      2301
 -1       838    8    0    1
 -2       350       349       499      1860      2304      2305
 -1       839    8    0    1
 -2       349       498       499      2302      2306      2304
 -1       840    8    0    1
 -2       351       350       500      1863      2307      2308
 -1       841    8    0    1
 -2       350       499       500      2305      2309      2307
 -1       842    8    0    1
 -2       352       351       501      1866      2310      2311
 -1       843    8    0    1
 -2       351       500       501      2308      2312      2310
 -1       844    8    0    1
 -2       353       352       502      1869      2313      2314
 -1       845    8    0    1
 -2       352       501       502      2311      2315      2313
 -1       846    8    0    1
 -2       354       353       503      1872      2316      2317
 -1       847    8    0    1
 -2       353       502       503      2314      2318      2316
 -1       848    8    0    1
 -2       355       354       504      1875      2319      2320
 -1       849    8    0    1
 -2       354       503       504      2317      2321      2319
 -1       850    8    0    1
 -2       356       355       505      1878      2322      2323
 -1       851    8    0    1
 -2       355       504       505      2320      2324      2322
 -1       852    8    0    1
 -2       357       356       506      1881      2325      2326
 -1       853    8    0    1
 -2       356       505       506      2323      2327      2325
 -1       854    8    0    1
 -2       358       357       507      1884      2328      2329
 -1       855    8    0    1
 -2       357       506       507      2326      2330      2328
 -1       856    8    0    1
 -2       359       358       508      1887      2331      2332
 -1       857    8    0    1
 -2       358       507       508      2329      2333      2331
 -1       858    8    0    1
 -2       360       359       509      1890      2334      2335
 -1       859    8    0    1
 -2       359       508       509      2332      2336      2334
 -1       860    8    0    1
 -2       361       360       510      1893      2337      2338
 -1       861    8    0    1
 -2       360       509       510      2335      2339      2337
 -1       862    8    0    1
 -2       362       361       511      1896      2340      2341
 -1       863    8    0    1
 -2       361       510       511      2338      2342      2340
 -1       864    8    0    1
 -2       363       362       512      1899      2343      2344
 -1       865    8    0    1
 -2       362       511       512      2341      2345      2343
 -1       866    8    0    1
 -2       364       363       513      1902      2346      2347
 -1       867    8    0    1
 -2       363       512       513      2344      2348      2346
 -1       868    8    0    1
 -2       365       364       514      1905      2349      2350
 -1       869    8    0    1
 -2       364       513       514      2347      2351      2349
 -1       870    8    0    1
 -2       366       365       515      1908      2352      2353
 -1       871    8    0    1
 -2       365       514       515      2350      2354      2352
 -1       872    8    0    1
 -2       367       366       516      1911      2355      2356
 -1       873    8    0    1
 -2       366       515       516      2353      2357      2355
 -1       874    8    0    1
 -2       368       367       517      1914      2358      2359
 -1       875    8    0    1
 -2       367       516       517      2356      2360      2358
 -1       876    8    0    1
 -2       369       368       518      1917      2361      2362
 -1       877    8    0    1
 -2       368       517       518      2359      2363      2361
 -1       878    8    0    1
 -2       370       369       519      1920      2364      2365
 -1       879    8    0    1
 -2       369       518       519      2362      2366      2364
 -1       880    8    0    1
 -2       371       370       520      1923      2367      2368
 -1       881    8    0    1
 -2       370       519       520      2365      2369      2367
 -1       882    8    0    1
 -2       372       371       521      1926      2370      2371
 -1       883    8    0    1
 -2       371       520       521      2368      2372      2370
 -1       884    8    0    1
 -2       373       372       522      1929      2373      2374
 -1       885    8    0    1
 -2       372       521       522      2371      2375      2373
 -1       886    8    0    1
 -2       374       373       523      1932      2376      2377
 -1       887    8    0    1
 -2       373       522       523      2374      2378      2376
 -1       888    8    0    1
 -2       375       374       524      1935      2379      2380
 -1       889    8    0    1
 -2       374       523       524      2377      2381      2379
 -1       890    8    0    1
 -2       376       375       525      1938      2382      2383
 -1       891    8    0    1
 -2       375       524       525      2380      2384      2382
 -1       892    8    0    1
 -2       377       376       526      1941      2385      2386
 -1       893    8    0    1
 -2       376       525       526      2383      2387      2385
 -1       894    8    0    1
 -2       378       377       527      1944      2388      2389
 -1       895    8    0    1
 -2       377       526       527      2386      2390      2388
 -1       896    8    0    1
 -2       379       378       528      1947      2391      2392
 -1       897    8    0    1
 -2       378       527       528      2389      2393      2391
 -1       898    8    0    1
 -2       380       379       529      1950      2394      2395
 -1       899    8    0    1
 -2       379       528       529      2392      2396      2394
 -1       900    8    0    1
 -2       384       385       530      1966      2397      2398
 -1       901    8    0    1
 -2       385       386       531      1969      2399      2400
 -1       902    8    0    1
 -2       385       531       530      2400      2401      2397
 -1       903    8    0    1
 -2       386       387       532      1972      2402      2403
 -1       904    8    0    1
 -2       386       532       531      2403      2404      2399
 -1       905    8    0    1
 -2       387       388       533      1975      2405      2406
 -1       906    8    0    1
 -2       387       533       532      2406      2407      2402
 -1       907    8    0    1
 -2       388       389       534      1978      2408      2409
 -1       908    8    0    1
 -2       388       534       533      2409      2410      2405
 -1       909    8    0    1
 -2       389       390       535      1981      2411      2412
 -1       910    8    0    1
 -2       389       535       534      2412      2413      2408
 -1       911    8    0    1
 -2       390       391       536      1984      2414      2415
 -1       912    8    0    1
 -2       390       536       535      2415      2416      2411
 -1       913    8    0    1
 -2       391       392       537      1987      2417      2418
 -1       914    8    0    1
 -2       391       537       536      2418      2419      2414
 -1       915    8    0    1
 -2       392       393       538      1990      2420      2421
 -1       916    8    0    1
 -2       392       538       537      2421      2422      2417
 -1       917    8    0    1
 -2       393       394       539      1993      2423      2424
 -1       918    8    0    1
 -2       393       539       538      2424      2425      2420
 -1       919    8    0    1
 -2       394       395       540      1996      2426      2427
 -1       920    8    0    1
 -2       394       540       539      2427      2428      2423
 -1       921    8    0    1
 -2       395       396       541      1999      2429      2430
 -1       922    8    0    1
 -2       395       541       540      2430      2431      2426
 -1       923    8    0    1
 -2       396       397       542      2002      2432      2433
 -1       924    8    0    1
 -2       396       542       541      2433      2434      2429
 -1       925    8    0    1
 -2       397       398       543      2005      2435      2436
 -1       926    8    0    1
 -2       397       543       542      2436      2437      2432
 -1       927    8    0    1
 -2       398       399       544      2008      2438      2439
 -1       928    8    0    1
 -2       398       544       543      2439      2440      2435
 -1       929    8    0    1
 -2       399       400       545      2011      2441      2442
 -1       930    8    0    1
 -2       399       545       544      2442      2443      2438
 -1       931    8    0    1
 -2       400       401       546      2014      2444      2445
 -1       932    8    0    1
 -2       400       546       545      2445      2446      2441
 -1       933    8    0    1
 -2       401       402       547      2017      2447      2448
 -1       934    8    0    1
 -2       401       547       546      2448      2449      2444
 -1       935    8    0    1
 -2       402       403       548      2020      2450      2451
 -1       936    8    0    1
 -2       402       548       547      2451      2452      2447
 -1       937    8    0    1
 -2       403       404       549      2023      2453      2454
 -1       938    8    0    1
 -2       403       549       548      2454      2455      2450
 -1       939    8    0    1
 -2       404       405       550      2026      2456      2457
 -1       940    8    0    1
 -2       404       550       549      2457      2458      2453
 -1       941    8    0    1
 -2       405       406       551      2029      2459      2460
 -1       942    8    0    1
 -2       405       551       550      2460      2461      2456
 -1       943    8    0    1
 -2       406       407       552      2032      2462      2463
 -1       944    8    0    1
 -2       406       552       551      2463      2464      2459
 -1       945    8    0    1
 -2       407       408       553      2035      2465      2466
 -1       946    8    0    1
 -2       407       553       552      2466      2467      2462
 -1       947    8    0    1
 -2       408       409       554      2038      2468      2469
 -1       948    8    0    1
 -2       408       554       553      2469      2470      2465
 -1       949    8    0    1
 -2       409       410       555      2041      2471      2472
 -1       950    8    0    1
 -2       409       555       554      2472      2473      2468
 -1       951    8    0    1
 -2       410       411       556      2044      2474      2475
 -1       952    8    0    1
 -2       410       556       555      2475      2476      2471
 -1       953    8    0    1
 -2       411       412       557      2047      2477      2478
 -1       954    8    0    1
 -2       411       557       556      2478      2479      2474
 -1       955    8    0    1
 -2       412       413       558      2050      2480      2481
 -1       956    8    0    1
 -2       412       558       557      2481      2482      2477
 -1       957    8    0    1
 -2       413       414       559      2053      2483      2484
 -1       958    8    0    1
 -2       413       559       558      2484      2485      2480
 -1       959    8    0    1
 -2       414       415       560      2056      2486      2487
 -1       960    8    0    1
 -2       414       560       559      2487      2488      2483
 -1       961    8    0    1
 -2       415       416       561      2059      2489      2490
 -1       962    8    0    1
 -2       415       561       560      2490      2491      2486
 -1       963    8    0    1
 -2       416       417       562      2062      2492      2493
 -1       964    8    0    1
 -2       416       562       561      2493      2494      2489
 -1       965    8    0    1
 -2       417       418       563      2065      2495      2496
 -1       966    8    0    1
 -2       417       563       562      2496      2497      2492
 -1       967    8    0    1
 -2       418       419       564      2068      2498      2499
 -1       968    8    0    1
 -2       418       564       563      2499      2500      2495
 -1       969    8    0    1
 -2       419       420       565      2071      2501      2502
 -1       970    8    0    1
 -2       419       565       564      2502      2503      2498
 -1       971    8    0    1
 -2       420       421       566      2074      2504      2505
 -1       972    8    0    1
 -2       420       566       565      2505      2506      2501
 -1       973    8    0    1
 -2       421       422       567      2077      2507      2508
 -1       974    8    0    1
 -2       421       567       566      2508      2509      2504
 -1       975    8    0    1
 -2       422       423       568      2080      2510      2511
 -1       976    8    0    1
 -2       422       568       567      2511      2512      2507
 -1       977    8    0    1
 -2       423       424       569      2083      2513      2514
 -1       978    8    0    1
 -2       423       569       568      2514      2515      2510
 -1       979    8    0    1
 -2       424       425       570      2086      2516      2517
 -1       980    8    0    1
 -2       424       570       569      2517      2518      2513
 -1       981    8    0    1
 -2       425       426       571      2089      2519      2520
 -1       982    8    0    1
 -2       425       571       570      2520      2521      2516
 -1       983    8    0    1
 -2       426       427       430      2092      2101      2522
 -1       984    8    0    1
 -2       431       432       572      2108      2523      2524
 -1       985    8    0    1
 -2       432       433       573      2111      2525      2526
 -1       986    8    0    1
 -2       432       573       572      2526      2527      2523
 -1       987    8    0    1
 -2       429       428       574      2098      2528      2529
 -1       988    8    0    1
 -2       428       431       575      2105      2530      2531
 -1       989    8    0    1
 -2       574       428       575      2528      2531      2532
 -1       990    8    0    1
 -2       431       572       575      2524      2533      2530
 -1       991    8    0    1
 -2       433       434       576      2114      2534      2535
 -1       992    8    0    1
 -2       433       576       573      2535      2536      2525
 -1       993    8    0    1
 -2       434       435       577      2117      2537      2538
 -1       994    8    0    1
 -2       434       577       576      2538      2539      2534
 -1       995    8    0    1
 -2       435       436       578      2120      2540      2541
 -1       996    8    0    1
 -2       435       578       577      2541      2542      2537
 -1       997    8    0    1
 -2       436       437       579      2123      2543      2544
 -1       998    8    0    1
 -2       436       579       578      2544      2545      2540
 -1       999    8    0    1
 -2       437       438       580      2126      2546      2547
 -1      1000    8    0    1
 -2       437       580       579      2547      2548      2543
 -1      1001    8    0    1
 -2       438       439       581      2129      2549      2550
 -1      1002    8    0    1
 -2       438       581       580      2550      2551      2546
 -1      1003    8    0    1
 -2       439       440       582      2132      2552      2553
 -1      1004    8    0    1
 -2       439       582       581      2553      2554      2549
 -1      1005    8    0    1
 -2       441       444       583      2205      2555      2556
 -1      1006    8    0    1
 -2       440       290       381      2206      1953      2557
 -1      1007    8    0    1
 -2       447       469       584      2207      2558      2559
 -1      1008    8    0    1
 -2       383       384       585      1963      2560      2561
 -1      1009    8    0    1
 -2       384       530       585      2398      2562      2560
 -1      1010    8    0    1
 -2       442       443       586      2139      2563      2564
 -1      1011    8    0    1
 -2       461       445       587      2209      2565      2566
 -1      1012    8    0    1
 -2       444       447       588      2208      2567      2568
 -1      1013    8    0    1
 -2       454       455       589      2225      2569      2570
 -1      1014    8    0    1
 -2       324       325       590      1784      2571      2572
 -1      1015    8    0    1
 -2       475       324       590      2235      2572      2573
 -1      1016    8    0    1
 -2       325       477       590      2241      2574      2571
 -1      1017    8    0    1
 -2       449       450       591      2230      2575      2576
 -1      1018    8    0    1
 -2       450       451       592      2229      2577      2578
 -1      1019    8    0    1
 -2       451       452       593      2228      2579      2580
 -1      1020    8    0    1
 -2       452       453       594      2227      2581      2582
 -1      1021    8    0    1
 -2       453       454       595      2226      2583      2584
 -1      1022    8    0    1
 -2       446       463       596      2224      2585      2586
 -1      1023    8    0    1
 -2       455       456       597      2223      2587      2588
 -1      1024    8    0    1
 -2       457       458       598      2219      2589      2590
 -1      1025    8    0    1
 -2       458       459       599      2218      2591      2592
 -1      1026    8    0    1
 -2       460       461       600      2178      2593      2594
 -1      1027    8    0    1
 -2       462       446       601      2181      2595      2596
 -1      1028    8    0    1
 -2       463       464       602      2231      2597      2598
 -1      1029    8    0    1
 -2       469       449       603      2232      2599      2600
 -1      1030    8    0    1
 -2       459       460       604      2217      2601      2602
 -1      1031    8    0    1
 -2       464       465       605      2216      2603      2604
 -1      1032    8    0    1
 -2       466       467       606      2192      2605      2606
 -1      1033    8    0    1
 -2       468       442       607      2195      2607      2608
 -1      1034    8    0    1
 -2       333       334       608      1813      2609      2610
 -1      1035    8    0    1
 -2       332       333       608      1808      2610      2611
 -1      1036    8    0    1
 -2       334       474       608      2234      2612      2609
 -1      1037    8    0    1
 -2       445       335       609      2198      2613      2614
 -1      1038    8    0    1
 -2       449       591       603      2576      2615      2599
 -1      1039    8    0    1
 -2       322       476       610      2238      2616      2617
 -1      1040    8    0    1
 -2       322       610       448      2617      2618      2151
 -1      1041    8    0    1
 -2       442       586       607      2564      2619      2607
 -1      1042    8    0    1
 -2       331       332       608      1805      2611      2620
 -1      1043    8    0    1
 -2       609       335       484      2613      2260      2621
 -1      1044    8    0    1
 -2       604       460       600      2601      2594      2622
 -1      1045    8    0    1
 -2       486       320       448      2267      2150      2623
 -1      1046    8    0    1
 -2       602       464       605      2597      2604      2624
 -1      1047    8    0    1
 -2       470       441       611      2204      2625      2626
 -1      1048    8    0    1
 -2       441       583       611      2556      2627      2625
 -1      1049    8    0    1
 -2       447       584       588      2559      2628      2567
 -1      1050    8    0    1
 -2       601       446       596      2595      2586      2629
 -1      1051    8    0    1
 -2       426       430       571      2522      2630      2519
 -1      1052    8    0    1
 -2       430       429       571      2102      2631      2630
 -1      1053    8    0    1
 -2       600       461       587      2593      2566      2632
 -1      1054    8    0    1
 -2       583       444       588      2555      2568      2633
 -1      1055    8    0    1
 -2       440       381       612      2557      2634      2635
 -1      1056    8    0    1
 -2       582       440       612      2552      2635      2636
 -1      1057    8    0    1
 -2       381       380       612      1954      2637      2634
 -1      1058    8    0    1
 -2       599       459       604      2591      2602      2638
 -1      1059    8    0    1
 -2       584       469       613      2558      2639      2640
 -1      1060    8    0    1
 -2       469       603       613      2600      2641      2639
 -1      1061    8    0    1
 -2       383       585       485      2561      2642      2261
 -1      1062    8    0    1
 -2       586       443       614      2563      2643      2644
 -1      1063    8    0    1
 -2       443       470       614      2203      2645      2643
 -1      1064    8    0    1
 -2       598       458       615      2589      2646      2647
 -1      1065    8    0    1
 -2       458       599       615      2592      2648      2646
 -1      1066    8    0    1
 -2       597       456       473      2587      2221      2649
 -1      1067    8    0    1
 -2       471       468       616      2212      2650      2651
 -1      1068    8    0    1
 -2       468       607       616      2608      2652      2650
 -1      1069    8    0    1
 -2       331       608       482      2620      2653      2254
 -1      1070    8    0    1
 -2       606       467       617      2605      2654      2655
 -1      1071    8    0    1
 -2       467       471       617      2211      2656      2654
 -1      1072    8    0    1
 -2       605       465       472      2603      2214      2657
 -1      1073    8    0    1
 -2       472       466       606      2215      2606      2658
 -1      1074    8    0    1
 -2       596       463       602      2585      2598      2659
 -1      1075    8    0    1
 -2       595       454       589      2583      2570      2660
 -1      1076    8    0    1
 -2       594       453       595      2581      2584      2661
 -1      1077    8    0    1
 -2       593       452       594      2579      2582      2662
 -1      1078    8    0    1
 -2       473       457       598      2222      2590      2663
 -1      1079    8    0    1
 -2       589       455       597      2569      2588      2664
 -1      1080    8    0    1
 -2       587       445       618      2565      2665      2666
 -1      1081    8    0    1
 -2       445       609       618      2614      2667      2665
 -1      1082    8    0    1
 -2       484       462       601      2259      2596      2668
 -1      1083    8    0    1
 -2       592       451       593      2577      2580      2669
 -1      1084    8    0    1
 -2       380       529       612      2395      2670      2637
 -1      1085    8    0    1
 -2       450       592       591      2578      2671      2575
 -1      1086    8    0    1
 -2       571       429       574      2631      2529      2672
 -1      1087    8    0    1
 -2       478       479       619      2247      2673      2674
 -1      1088    8    0    1
 -2       477       478       620      2244      2675      2676
 -1      1089    8    0    1
 -2       478       619       620      2674      2677      2675
 -1      1090    8    0    1
 -2       480       481       621      2253      2678      2679
 -1      1091    8    0    1
 -2       481       482       622      2256      2680      2681
 -1      1092    8    0    1
 -2       481       622       621      2681      2682      2678
 -1      1093    8    0    1
 -2       487       483       623      2270      2683      2684
 -1      1094    8    0    1
 -2       604       600       624      2622      2685      2686
 -1      1095    8    0    1
 -2       474       485       625      2263      2687      2688
 -1      1096    8    0    1
 -2       532       533       626      2407      2689      2690
 -1      1097    8    0    1
 -2       488       487       627      2273      2691      2692
 -1      1098    8    0    1
 -2       487       623       627      2684      2693      2691
 -1      1099    8    0    1
 -2       489       488       628      2276      2694      2695
 -1      1100    8    0    1
 -2       488       627       628      2692      2696      2694
 -1      1101    8    0    1
 -2       490       489       629      2279      2697      2698
 -1      1102    8    0    1
 -2       489       628       629      2695      2699      2697
 -1      1103    8    0    1
 -2       491       490       630      2282      2700      2701
 -1      1104    8    0    1
 -2       490       629       630      2698      2702      2700
 -1      1105    8    0    1
 -2       492       491       631      2285      2703      2704
 -1      1106    8    0    1
 -2       491       630       631      2701      2705      2703
 -1      1107    8    0    1
 -2       493       492       632      2288      2706      2707
 -1      1108    8    0    1
 -2       492       631       632      2704      2708      2706
 -1      1109    8    0    1
 -2       494       493       633      2291      2709      2710
 -1      1110    8    0    1
 -2       493       632       633      2707      2711      2709
 -1      1111    8    0    1
 -2       495       494       634      2294      2712      2713
 -1      1112    8    0    1
 -2       494       633       634      2710      2714      2712
 -1      1113    8    0    1
 -2       496       495       635      2297      2715      2716
 -1      1114    8    0    1
 -2       495       634       635      2713      2717      2715
 -1      1115    8    0    1
 -2       497       496       636      2300      2718      2719
 -1      1116    8    0    1
 -2       496       635       636      2716      2720      2718
 -1      1117    8    0    1
 -2       498       497       637      2303      2721      2722
 -1      1118    8    0    1
 -2       497       636       637      2719      2723      2721
 -1      1119    8    0    1
 -2       499       498       638      2306      2724      2725
 -1      1120    8    0    1
 -2       498       637       638      2722      2726      2724
 -1      1121    8    0    1
 -2       500       499       639      2309      2727      2728
 -1      1122    8    0    1
 -2       499       638       639      2725      2729      2727
 -1      1123    8    0    1
 -2       501       500       640      2312      2730      2731
 -1      1124    8    0    1
 -2       500       639       640      2728      2732      2730
 -1      1125    8    0    1
 -2       502       501       641      2315      2733      2734
 -1      1126    8    0    1
 -2       501       640       641      2731      2735      2733
 -1      1127    8    0    1
 -2       503       502       642      2318      2736      2737
 -1      1128    8    0    1
 -2       502       641       642      2734      2738      2736
 -1      1129    8    0    1
 -2       504       503       643      2321      2739      2740
 -1      1130    8    0    1
 -2       503       642       643      2737      2741      2739
 -1      1131    8    0    1
 -2       505       504       644      2324      2742      2743
 -1      1132    8    0    1
 -2       504       643       644      2740      2744      2742
 -1      1133    8    0    1
 -2       506       505       645      2327      2745      2746
 -1      1134    8    0    1
 -2       505       644       645      2743      2747      2745
 -1      1135    8    0    1
 -2       507       506       646      2330      2748      2749
 -1      1136    8    0    1
 -2       506       645       646      2746      2750      2748
 -1      1137    8    0    1
 -2       508       507       647      2333      2751      2752
 -1      1138    8    0    1
 -2       507       646       647      2749      2753      2751
 -1      1139    8    0    1
 -2       509       508       648      2336      2754      2755
 -1      1140    8    0    1
 -2       508       647       648      2752      2756      2754
 -1      1141    8    0    1
 -2       510       509       649      2339      2757      2758
 -1      1142    8    0    1
 -2       509       648       649      2755      2759      2757
 -1      1143    8    0    1
 -2       511       510       650      2342      2760      2761
 -1      1144    8    0    1
 -2       510       649       650      2758      2762      2760
 -1      1145    8    0    1
 -2       512       511       651      2345      2763      2764
 -1      1146    8    0    1
 -2       511       650       651      2761      2765      2763
 -1      1147    8    0    1
 -2       513       512       652      2348      2766      2767
 -1      1148    8    0    1
 -2       512       651       652      2764      2768      2766
 -1      1149    8    0    1
 -2       514       513       653      2351      2769      2770
 -1      1150    8    0    1
 -2       513       652       653      2767      2771      2769
 -1      1151    8    0    1
 -2       515       514       654      2354      2772      2773
 -1      1152    8    0    1
 -2       514       653       654      2770      2774      2772
 -1      1153    8    0    1
 -2       516       515       655      2357      2775      2776
 -1      1154    8    0    1
 -2       515       654       655      2773      2777      2775
 -1      1155    8    0    1
 -2       517       516       656      2360      2778      2779
 -1      1156    8    0    1
 -2       516       655       656      2776      2780      2778
 -1      1157    8    0    1
 -2       518       517       657      2363      2781      2782
 -1      1158    8    0    1
 -2       517       656       657      2779      2783      2781
 -1      1159    8    0    1
 -2       519       518       658      2366      2784      2785
 -1      1160    8    0    1
 -2       518       657       658      2782      2786      2784
 -1      1161    8    0    1
 -2       520       519       659      2369      2787      2788
 -1      1162    8    0    1
 -2       519       658       659      2785      2789      2787
 -1      1163    8    0    1
 -2       521       520       660      2372      2790      2791
 -1      1164    8    0    1
 -2       520       659       660      2788      2792      2790
 -1      1165    8    0    1
 -2       522       521       661      2375      2793      2794
 -1      1166    8    0    1
 -2       521       660       661      2791      2795      2793
 -1      1167    8    0    1
 -2       523       522       662      2378      2796      2797
 -1      1168    8    0    1
 -2       522       661       662      2794      2798      2796
 -1      1169    8    0    1
 -2       524       523       663      2381      2799      2800
 -1      1170    8    0    1
 -2       523       662       663      2797      2801      2799
 -1      1171    8    0    1
 -2       525       524       664      2384      2802      2803
 -1      1172    8    0    1
 -2       524       663       664      2800      2804      2802
 -1      1173    8    0    1
 -2       526       525       665      2387      2805      2806
 -1      1174    8    0    1
 -2       525       664       665      2803      2807      2805
 -1      1175    8    0    1
 -2       527       526       666      2390      2808      2809
 -1      1176    8    0    1
 -2       526       665       666      2806      2810      2808
 -1      1177    8    0    1
 -2       528       527       667      2393      2811      2812
 -1      1178    8    0    1
 -2       527       666       667      2809      2813      2811
 -1      1179    8    0    1
 -2       529       528       668      2396      2814      2815
 -1      1180    8    0    1
 -2       528       667       668      2812      2816      2814
 -1      1181    8    0    1
 -2       531       532       669      2404      2817      2818
 -1      1182    8    0    1
 -2       532       626       669      2690      2819      2817
 -1      1183    8    0    1
 -2       599       604       670      2638      2820      2821
 -1      1184    8    0    1
 -2       530       531       671      2401      2822      2823
 -1      1185    8    0    1
 -2       531       669       671      2818      2824      2822
 -1      1186    8    0    1
 -2       533       534       672      2410      2825      2826
 -1      1187    8    0    1
 -2       533       672       626      2826      2827      2689
 -1      1188    8    0    1
 -2       534       535       673      2413      2828      2829
 -1      1189    8    0    1
 -2       534       673       672      2829      2830      2825
 -1      1190    8    0    1
 -2       535       536       674      2416      2831      2832
 -1      1191    8    0    1
 -2       535       674       673      2832      2833      2828
 -1      1192    8    0    1
 -2       536       537       675      2419      2834      2835
 -1      1193    8    0    1
 -2       536       675       674      2835      2836      2831
 -1      1194    8    0    1
 -2       537       538       676      2422      2837      2838
 -1      1195    8    0    1
 -2       537       676       675      2838      2839      2834
 -1      1196    8    0    1
 -2       538       539       677      2425      2840      2841
 -1      1197    8    0    1
 -2       538       677       676      2841      2842      2837
 -1      1198    8    0    1
 -2       539       540       678      2428      2843      2844
 -1      1199    8    0    1
 -2       539       678       677      2844      2845      2840
 -1      1200    8    0    1
 -2       540       541       679      2431      2846      2847
 -1      1201    8    0    1
 -2       540       679       678      2847      2848      2843
 -1      1202    8    0    1
 -2       541       542       680      2434      2849      2850
 -1      1203    8    0    1
 -2       541       680       679      2850      2851      2846
 -1      1204    8    0    1
 -2       542       543       681      2437      2852      2853
 -1      1205    8    0    1
 -2       542       681       680      2853      2854      2849
 -1      1206    8    0    1
 -2       543       544       682      2440      2855      2856
 -1      1207    8    0    1
 -2       543       682       681      2856      2857      2852
 -1      1208    8    0    1
 -2       544       545       683      2443      2858      2859
 -1      1209    8    0    1
 -2       544       683       682      2859      2860      2855
 -1      1210    8    0    1
 -2       545       546       684      2446      2861      2862
 -1      1211    8    0    1
 -2       545       684       683      2862      2863      2858
 -1      1212    8    0    1
 -2       546       547       685      2449      2864      2865
 -1      1213    8    0    1
 -2       546       685       684      2865      2866      2861
 -1      1214    8    0    1
 -2       547       548       686      2452      2867      2868
 -1      1215    8    0    1
 -2       547       686       685      2868      2869      2864
 -1      1216    8    0    1
 -2       548       549       687      2455      2870      2871
 -1      1217    8    0    1
 -2       548       687       686      2871      2872      2867
 -1      1218    8    0    1
 -2       549       550       688      2458      2873      2874
 -1      1219    8    0    1
 -2       549       688       687      2874      2875      2870
 -1      1220    8    0    1
 -2       550       551       689      2461      2876      2877
 -1      1221    8    0    1
 -2       550       689       688      2877      2878      2873
 -1      1222    8    0    1
 -2       551       552       690      2464      2879      2880
 -1      1223    8    0    1
 -2       551       690       689      2880      2881      2876
 -1      1224    8    0    1
 -2       552       553       691      2467      2882      2883
 -1      1225    8    0    1
 -2       552       691       690      2883      2884      2879
 -1      1226    8    0    1
 -2       553       554       692      2470      2885      2886
 -1      1227    8    0    1
 -2       553       692       691      2886      2887      2882
 -1      1228    8    0    1
 -2       554       555       693      2473      2888      2889
 -1      1229    8    0    1
 -2       554       693       692      2889      2890      2885
 -1      1230    8    0    1
 -2       555       556       694      2476      2891      2892
 -1      1231    8    0    1
 -2       555       694       693      2892      2893      2888
 -1      1232    8    0    1
 -2       556       557       695      2479      2894      2895
 -1      1233    8    0    1
 -2       556       695       694      2895      2896      2891
 -1      1234    8    0    1
 -2       557       558       696      2482      2897      2898
 -1      1235    8    0    1
 -2       557       696       695      2898      2899      2894
 -1      1236    8    0    1
 -2       558       559       697      2485      2900      2901
 -1      1237    8    0    1
 -2       558       697       696      2901      2902      2897
 -1      1238    8    0    1
 -2       559       560       698      2488      2903      2904
 -1      1239    8    0    1
 -2       559       698       697      2904      2905      2900
 -1      1240    8    0    1
 -2       560       561       699      2491      2906      2907
 -1      1241    8    0    1
 -2       560       699       698      2907      2908      2903
 -1      1242    8    0    1
 -2       561       562       700      2494      2909      2910
 -1      1243    8    0    1
 -2       561       700       699      2910      2911      2906
 -1      1244    8    0    1
 -2       562       563       701      2497      2912      2913
 -1      1245    8    0    1
 -2       562       701       700      2913      2914      2909
 -1      1246    8    0    1
 -2       563       564       702      2500      2915      2916
 -1      1247    8    0    1
 -2       563       702       701      2916      2917      2912
 -1      1248    8    0    1
 -2       564       565       703      2503      2918      2919
 -1      1249    8    0    1
 -2       564       703       702      2919      2920      2915
 -1      1250    8    0    1
 -2       565       566       704      2506      2921      2922
 -1      1251    8    0    1
 -2       565       704       703      2922      2923      2918
 -1      1252    8    0    1
 -2       566       567       705      2509      2924      2925
 -1      1253    8    0    1
 -2       566       705       704      2925      2926      2921
 -1      1254    8    0    1
 -2       567       568       706      2512      2927      2928
 -1      1255    8    0    1
 -2       567       706       705      2928      2929      2924
 -1      1256    8    0    1
 -2       568       569       707      2515      2930      2931
 -1      1257    8    0    1
 -2       568       707       706      2931      2932      2927
 -1      1258    8    0    1
 -2       569       570       708      2518      2933      2934
 -1      1259    8    0    1
 -2       569       708       707      2934      2935      2930
 -1      1260    8    0    1
 -2       570       571       709      2521      2936      2937
 -1      1261    8    0    1
 -2       708       570       709      2933      2937      2938
 -1      1262    8    0    1
 -2       571       574       709      2672      2939      2936
 -1      1263    8    0    1
 -2       576       577       710      2539      2940      2941
 -1      1264    8    0    1
 -2       572       573       711      2527      2942      2943
 -1      1265    8    0    1
 -2       577       578       712      2542      2944      2945
 -1      1266    8    0    1
 -2       577       712       710      2945      2946      2940
 -1      1267    8    0    1
 -2       573       576       713      2536      2947      2948
 -1      1268    8    0    1
 -2       711       573       713      2942      2948      2949
 -1      1269    8    0    1
 -2       576       710       713      2941      2950      2947
 -1      1270    8    0    1
 -2       585       530       714      2562      2951      2952
 -1      1271    8    0    1
 -2       530       671       714      2823      2953      2951
 -1      1272    8    0    1
 -2       578       579       715      2545      2954      2955
 -1      1273    8    0    1
 -2       578       715       712      2955      2956      2944
 -1      1274    8    0    1
 -2       579       580       716      2548      2957      2958
 -1      1275    8    0    1
 -2       579       716       715      2958      2959      2954
 -1      1276    8    0    1
 -2       580       581       717      2551      2960      2961
 -1      1277    8    0    1
 -2       580       717       716      2961      2962      2957
 -1      1278    8    0    1
 -2       588       584       718      2628      2963      2964
 -1      1279    8    0    1
 -2       591       592       719      2671      2965      2966
 -1      1280    8    0    1
 -2       608       474       482      2612      2967      2653
 -1      1281    8    0    1
 -2       583       588       720      2633      2968      2969
 -1      1282    8    0    1
 -2       472       606       721      2658      2970      2971
 -1      1283    8    0    1
 -2       605       472       722      2657      2972      2973
 -1      1284    8    0    1
 -2       472       721       722      2971      2974      2972
 -1      1285    8    0    1
 -2       582       612       723      2636      2975      2976
 -1      1286    8    0    1
 -2       612       529       723      2670      2977      2975
 -1      1287    8    0    1
 -2       607       586       724      2619      2978      2979
 -1      1288    8    0    1
 -2       594       595       725      2661      2980      2981
 -1      1289    8    0    1
 -2       602       605       726      2624      2982      2983
 -1      1290    8    0    1
 -2       479       480       727      2250      2984      2985
 -1      1291    8    0    1
 -2       619       479       727      2673      2985      2986
 -1      1292    8    0    1
 -2       480       621       727      2679      2987      2984
 -1      1293    8    0    1
 -2       476       475       728      2239      2988      2989
 -1      1294    8    0    1
 -2       473       598       729      2663      2990      2991
 -1      1295    8    0    1
 -2       593       594       730      2662      2992      2993
 -1      1296    8    0    1
 -2       600       587       731      2632      2994      2995
 -1      1297    8    0    1
 -2       589       597       732      2664      2996      2997
 -1      1298    8    0    1
 -2       597       473       733      2649      2998      2999
 -1      1299    8    0    1
 -2       473       729       733      2991      3000      2998
 -1      1300    8    0    1
 -2       486       448       610      2623      2618      3001
 -1      1301    8    0    1
 -2       592       593       734      2669      3002      3003
 -1      1302    8    0    1
 -2       593       730       734      2993      3004      3002
 -1      1303    8    0    1
 -2       595       589       735      2660      3005      3006
 -1      1304    8    0    1
 -2       485       585       736      2642      3007      3008
 -1      1305    8    0    1
 -2       625       485       736      2687      3008      3009
 -1      1306    8    0    1
 -2       585       714       736      2952      3010      3007
 -1      1307    8    0    1
 -2       596       602       737      2659      3011      3012
 -1      1308    8    0    1
 -2       602       726       737      2983      3013      3011
 -1      1309    8    0    1
 -2       609       484       738      2621      3014      3015
 -1      1310    8    0    1
 -2       603       591       739      2615      3016      3017
 -1      1311    8    0    1
 -2       610       476       740      2616      3018      3019
 -1      1312    8    0    1
 -2       476       728       740      2989      3020      3018
 -1      1313    8    0    1
 -2       477       620       741      2676      3021      3022
 -1      1314    8    0    1
 -2       477       741       590      3022      3023      2574
 -1      1315    8    0    1
 -2       529       668       723      2815      3024      2977
 -1      1316    8    0    1
 -2       606       617       742      2655      3025      3026
 -1      1317    8    0    1
 -2       606       742       721      3026      3027      2970
 -1      1318    8    0    1
 -2       604       624       670      2686      3028      2820
 -1      1319    8    0    1
 -2       599       670       615      2821      3029      2648
 -1      1320    8    0    1
 -2       592       734       719      3003      3030      2965
 -1      1321    8    0    1
 -2       611       583       743      2627      3031      3032
 -1      1322    8    0    1
 -2       583       720       743      2969      3033      3031
 -1      1323    8    0    1
 -2       709       574       744      2939      3034      3035
 -1      1324    8    0    1
 -2       574       575       744      2532      3036      3034
 -1      1325    8    0    1
 -2       588       718       720      2964      3037      2968
 -1      1326    8    0    1
 -2       718       584       745      2963      3038      3039
 -1      1327    8    0    1
 -2       584       613       745      2640      3040      3038
 -1      1328    8    0    1
 -2       581       582       723      2554      2976      3041
 -1      1329    8    0    1
 -2       591       719       739      2966      3042      3016
 -1      1330    8    0    1
 -2       482       474       625      2967      2688      3043
 -1      1331    8    0    1
 -2       613       603       739      2641      3017      3044
 -1      1332    8    0    1
 -2       732       597       733      2996      2999      3045
 -1      1333    8    0    1
 -2       614       470       746      2645      3046      3047
 -1      1334    8    0    1
 -2       470       611       746      2626      3048      3046
 -1      1335    8    0    1
 -2       731       587       747      2994      3049      3050
 -1      1336    8    0    1
 -2       587       618       747      2666      3051      3049
 -1      1337    8    0    1
 -2       616       607       748      2652      3052      3053
 -1      1338    8    0    1
 -2       607       724       748      2979      3054      3052
 -1      1339    8    0    1
 -2       730       594       749      2992      3055      3056
 -1      1340    8    0    1
 -2       594       725       749      2981      3057      3055
 -1      1341    8    0    1
 -2       617       471       750      2656      3058      3059
 -1      1342    8    0    1
 -2       471       616       750      2651      3060      3058
 -1      1343    8    0    1
 -2       726       605       722      2982      2973      3061
 -1      1344    8    0    1
 -2       725       595       735      2980      3006      3062
 -1      1345    8    0    1
 -2       598       615       751      2647      3063      3064
 -1      1346    8    0    1
 -2       598       751       729      3064      3065      2990
 -1      1347    8    0    1
 -2       601       596       752      2629      3066      3067
 -1      1348    8    0    1
 -2       724       586       614      2978      2644      3068
 -1      1349    8    0    1
 -2       575       572       753      2533      3069      3070
 -1      1350    8    0    1
 -2       744       575       753      3036      3070      3071
 -1      1351    8    0    1
 -2       572       711       753      2943      3072      3069
 -1      1352    8    0    1
 -2       475       590       754      2573      3073      3074
 -1      1353    8    0    1
 -2       728       475       754      2988      3074      3075
 -1      1354    8    0    1
 -2       590       741       754      3023      3076      3073
 -1      1355    8    0    1
 -2       624       600       731      2685      2995      3077
 -1      1356    8    0    1
 -2       622       482       625      2680      3043      3078
 -1      1357    8    0    1
 -2       486       610       755      3001      3079      3080
 -1      1358    8    0    1
 -2       483       486       755      2266      3080      3081
 -1      1359    8    0    1
 -2       610       740       755      3019      3082      3079
 -1      1360    8    0    1
 -2       589       732       735      2997      3083      3005
 -1      1361    8    0    1
 -2       483       755       623      3081      3084      2683
 -1      1362    8    0    1
 -2       581       723       756      3041      3085      3086
 -1      1363    8    0    1
 -2       717       581       756      2960      3086      3087
 -1      1364    8    0    1
 -2       723       668       756      3024      3088      3085
 -1      1365    8    0    1
 -2       484       601       757      2668      3089      3090
 -1      1366    8    0    1
 -2       757       601       752      3089      3067      3091
 -1      1367    8    0    1
 -2       484       757       738      3090      3092      3014
 -1      1368    8    0    1
 -2       621       622       758      2682      3093      3094
 -1      1369    8    0    1
 -2       613       739       759      3044      3095      3096
 -1      1370    8    0    1
 -2       626       672       760      2827      3097      3098
 -1      1371    8    0    1
 -2       628       627       761      2696      3099      3100
 -1      1372    8    0    1
 -2       629       628       762      2699      3101      3102
 -1      1373    8    0    1
 -2       628       761       762      3100      3103      3101
 -1      1374    8    0    1
 -2       630       629       763      2702      3104      3105
 -1      1375    8    0    1
 -2       629       762       763      3102      3106      3104
 -1      1376    8    0    1
 -2       631       630       764      2705      3107      3108
 -1      1377    8    0    1
 -2       630       763       764      3105      3109      3107
 -1      1378    8    0    1
 -2       632       631       765      2708      3110      3111
 -1      1379    8    0    1
 -2       631       764       765      3108      3112      3110
 -1      1380    8    0    1
 -2       633       632       766      2711      3113      3114
 -1      1381    8    0    1
 -2       632       765       766      3111      3115      3113
 -1      1382    8    0    1
 -2       634       633       767      2714      3116      3117
 -1      1383    8    0    1
 -2       633       766       767      3114      3118      3116
 -1      1384    8    0    1
 -2       636       635       747      2720      3119      3120
 -1      1385    8    0    1
 -2       637       636       738      2723      3121      3122
 -1      1386    8    0    1
 -2       640       639       737      2732      3123      3124
 -1      1387    8    0    1
 -2       642       641       768      2738      3125      3126
 -1      1388    8    0    1
 -2       643       642       769      2741      3127      3128
 -1      1389    8    0    1
 -2       642       768       769      3126      3129      3127
 -1      1390    8    0    1
 -2       644       643       770      2744      3130      3131
 -1      1391    8    0    1
 -2       643       769       770      3128      3132      3130
 -1      1392    8    0    1
 -2       645       644       771      2747      3133      3134
 -1      1393    8    0    1
 -2       644       770       771      3131      3135      3133
 -1      1394    8    0    1
 -2       646       645       772      2750      3136      3137
 -1      1395    8    0    1
 -2       645       771       772      3134      3138      3136
 -1      1396    8    0    1
 -2       647       646       773      2753      3139      3140
 -1      1397    8    0    1
 -2       646       772       773      3137      3141      3139
 -1      1398    8    0    1
 -2       648       647       774      2756      3142      3143
 -1      1399    8    0    1
 -2       647       773       774      3140      3144      3142
 -1      1400    8    0    1
 -2       649       648       775      2759      3145      3146
 -1      1401    8    0    1
 -2       648       774       775      3143      3147      3145
 -1      1402    8    0    1
 -2       650       649       776      2762      3148      3149
 -1      1403    8    0    1
 -2       649       775       776      3146      3150      3148
 -1      1404    8    0    1
 -2       651       650       777      2765      3151      3152
 -1      1405    8    0    1
 -2       650       776       777      3149      3153      3151
 -1      1406    8    0    1
 -2       652       651       778      2768      3154      3155
 -1      1407    8    0    1
 -2       651       777       778      3152      3156      3154
 -1      1408    8    0    1
 -2       653       652       779      2771      3157      3158
 -1      1409    8    0    1
 -2       652       778       779      3155      3159      3157
 -1      1410    8    0    1
 -2       654       653       780      2774      3160      3161
 -1      1411    8    0    1
 -2       653       779       780      3158      3162      3160
 -1      1412    8    0    1
 -2       655       654       781      2777      3163      3164
 -1      1413    8    0    1
 -2       654       780       781      3161      3165      3163
 -1      1414    8    0    1
 -2       656       655       782      2780      3166      3167
 -1      1415    8    0    1
 -2       655       781       782      3164      3168      3166
 -1      1416    8    0    1
 -2       657       656       783      2783      3169      3170
 -1      1417    8    0    1
 -2       656       782       783      3167      3171      3169
 -1      1418    8    0    1
 -2       658       657       784      2786      3172      3173
 -1      1419    8    0    1
 -2       657       783       784      3170      3174      3172
 -1      1420    8    0    1
 -2       659       658       785      2789      3175      3176
 -1      1421    8    0    1
 -2       658       784       785      3173      3177      3175
 -1      1422    8    0    1
 -2       660       659       786      2792      3178      3179
 -1      1423    8    0    1
 -2       659       785       786      3176      3180      3178
 -1      1424    8    0    1
 -2       661       660       787      2795      3181      3182
 -1      1425    8    0    1
 -2       660       786       787      3179      3183      3181
 -1      1426    8    0    1
 -2       662       661       788      2798      3184      3185
 -1      1427    8    0    1
 -2       661       787       788      3182      3186      3184
 -1      1428    8    0    1
 -2       663       662       789      2801      3187      3188
 -1      1429    8    0    1
 -2       662       788       789      3185      3189      3187
 -1      1430    8    0    1
 -2       664       663       790      2804      3190      3191
 -1      1431    8    0    1
 -2       663       789       790      3188      3192      3190
 -1      1432    8    0    1
 -2       665       664       791      2807      3193      3194
 -1      1433    8    0    1
 -2       664       790       791      3191      3195      3193
 -1      1434    8    0    1
 -2       666       665       792      2810      3196      3197
 -1      1435    8    0    1
 -2       665       791       792      3194      3198      3196
 -1      1436    8    0    1
 -2       667       666       793      2813      3199      3200
 -1      1437    8    0    1
 -2       666       792       793      3197      3201      3199
 -1      1438    8    0    1
 -2       668       667       794      2816      3202      3203
 -1      1439    8    0    1
 -2       756       668       794      3088      3203      3204
 -1      1440    8    0    1
 -2       667       793       794      3200      3205      3202
 -1      1441    8    0    1
 -2       669       626       795      2819      3206      3207
 -1      1442    8    0    1
 -2       626       760       795      3098      3208      3206
 -1      1443    8    0    1
 -2       615       670       796      3029      3209      3210
 -1      1444    8    0    1
 -2       712       715       797      2956      3211      3212
 -1      1445    8    0    1
 -2       673       674       798      2833      3213      3214
 -1      1446    8    0    1
 -2       674       675       799      2836      3215      3216
 -1      1447    8    0    1
 -2       674       799       798      3216      3217      3213
 -1      1448    8    0    1
 -2       675       676       800      2839      3218      3219
 -1      1449    8    0    1
 -2       675       800       799      3219      3220      3215
 -1      1450    8    0    1
 -2       676       677       749      2842      3221      3222
 -1      1451    8    0    1
 -2       677       678       734      2845      3223      3224
 -1      1452    8    0    1
 -2       678       679       719      2848      3225      3226
 -1      1453    8    0    1
 -2       680       681       759      2854      3227      3228
 -1      1454    8    0    1
 -2       681       682       745      2857      3229      3230
 -1      1455    8    0    1
 -2       683       684       801      2863      3231      3232
 -1      1456    8    0    1
 -2       684       685       802      2866      3233      3234
 -1      1457    8    0    1
 -2       684       802       801      3234      3235      3231
 -1      1458    8    0    1
 -2       685       686       803      2869      3236      3237
 -1      1459    8    0    1
 -2       685       803       802      3237      3238      3233
 -1      1460    8    0    1
 -2       686       687       804      2872      3239      3240
 -1      1461    8    0    1
 -2       686       804       803      3240      3241      3236
 -1      1462    8    0    1
 -2       687       688       805      2875      3242      3243
 -1      1463    8    0    1
 -2       687       805       804      3243      3244      3239
 -1      1464    8    0    1
 -2       688       689       806      2878      3245      3246
 -1      1465    8    0    1
 -2       688       806       805      3246      3247      3242
 -1      1466    8    0    1
 -2       689       690       807      2881      3248      3249
 -1      1467    8    0    1
 -2       689       807       806      3249      3250      3245
 -1      1468    8    0    1
 -2       690       691       808      2884      3251      3252
 -1      1469    8    0    1
 -2       690       808       807      3252      3253      3248
 -1      1470    8    0    1
 -2       691       692       809      2887      3254      3255
 -1      1471    8    0    1
 -2       691       809       808      3255      3256      3251
 -1      1472    8    0    1
 -2       692       693       810      2890      3257      3258
 -1      1473    8    0    1
 -2       692       810       809      3258      3259      3254
 -1      1474    8    0    1
 -2       693       694       811      2893      3260      3261
 -1      1475    8    0    1
 -2       693       811       810      3261      3262      3257
 -1      1476    8    0    1
 -2       694       695       812      2896      3263      3264
 -1      1477    8    0    1
 -2       694       812       811      3264      3265      3260
 -1      1478    8    0    1
 -2       695       696       813      2899      3266      3267
 -1      1479    8    0    1
 -2       695       813       812      3267      3268      3263
 -1      1480    8    0    1
 -2       696       697       814      2902      3269      3270
 -1      1481    8    0    1
 -2       696       814       813      3270      3271      3266
 -1      1482    8    0    1
 -2       697       698       815      2905      3272      3273
 -1      1483    8    0    1
 -2       697       815       814      3273      3274      3269
 -1      1484    8    0    1
 -2       698       699       816      2908      3275      3276
 -1      1485    8    0    1
 -2       698       816       815      3276      3277      3272
 -1      1486    8    0    1
 -2       699       700       817      2911      3278      3279
 -1      1487    8    0    1
 -2       699       817       816      3279      3280      3275
 -1      1488    8    0    1
 -2       700       701       818      2914      3281      3282
 -1      1489    8    0    1
 -2       700       818       817      3282      3283      3278
 -1      1490    8    0    1
 -2       701       702       819      2917      3284      3285
 -1      1491    8    0    1
 -2       701       819       818      3285      3286      3281
 -1      1492    8    0    1
 -2       702       703       820      2920      3287      3288
 -1      1493    8    0    1
 -2       702       820       819      3288      3289      3284
 -1      1494    8    0    1
 -2       703       704       821      2923      3290      3291
 -1      1495    8    0    1
 -2       703       821       820      3291      3292      3287
 -1      1496    8    0    1
 -2       704       705       822      2926      3293      3294
 -1      1497    8    0    1
 -2       704       822       821      3294      3295      3290
 -1      1498    8    0    1
 -2       705       706       823      2929      3296      3297
 -1      1499    8    0    1
 -2       705       823       822      3297      3298      3293
 -1      1500    8    0    1
 -2       706       707       824      2932      3299      3300
 -1      1501    8    0    1
 -2       706       824       823      3300      3301      3296
 -1      1502    8    0    1
 -2       707       708       825      2935      3302      3303
 -1      1503    8    0    1
 -2       707       825       824      3303      3304      3299
 -1      1504    8    0    1
 -2       708       709       826      2938      3305      3306
 -1      1505    8    0    1
 -2       825       708       826      3302      3306      3307
 -1      1506    8    0    1
 -2       709       744       826      3035      3308      3305
 -1      1507    8    0    1
 -2       714       671       827      2953      3309      3310
 -1      1508    8    0    1
 -2       624       731       828      3077      3311      3312
 -1      1509    8    0    1
 -2       710       712       829      2946      3313      3314
 -1      1510    8    0    1
 -2       712       797       829      3212      3315      3313
 -1      1511    8    0    1
 -2       720       718       830      3037      3316      3317
 -1      1512    8    0    1
 -2       716       717       831      2962      3318      3319
 -1      1513    8    0    1
 -2       733       729       832      3000      3320      3321
 -1      1514    8    0    1
 -2       719       679       739      3225      3322      3042
 -1      1515    8    0    1
 -2       734       678       719      3223      3226      3030
 -1      1516    8    0    1
 -2       725       735       833      3062      3323      3324
 -1      1517    8    0    1
 -2       670       624       834      3028      3325      3326
 -1      1518    8    0    1
 -2       752       596       737      3066      3012      3327
 -1      1519    8    0    1
 -2       715       716       835      2959      3328      3329
 -1      1520    8    0    1
 -2       797       715       835      3211      3329      3330
 -1      1521    8    0    1
 -2       716       831       835      3319      3331      3328
 -1      1522    8    0    1
 -2       671       669       836      2824      3332      3333
 -1      1523    8    0    1
 -2       671       836       827      3333      3334      3309
 -1      1524    8    0    1
 -2       627       623       837      2693      3335      3336
 -1      1525    8    0    1
 -2       627       837       761      3336      3337      3099
 -1      1526    8    0    1
 -2       618       609       838      2667      3338      3339
 -1      1527    8    0    1
 -2       724       614       839      3068      3340      3341
 -1      1528    8    0    1
 -2       672       673       840      2830      3342      3343
 -1      1529    8    0    1
 -2       672       840       760      3343      3344      3097
 -1      1530    8    0    1
 -2       737       726       640      3013      3345      3124
 -1      1531    8    0    1
 -2       738       757       637      3092      3346      3122
 -1      1532    8    0    1
 -2       620       619       841      2677      3347      3348
 -1      1533    8    0    1
 -2       622       625       842      3078      3349      3350
 -1      1534    8    0    1
 -2       758       622       842      3093      3350      3351
 -1      1535    8    0    1
 -2       625       736       842      3009      3352      3349
 -1      1536    8    0    1
 -2       726       722       768      3061      3353      3354
 -1      1537    8    0    1
 -2       623       755       843      3084      3355      3356
 -1      1538    8    0    1
 -2       755       740       843      3082      3357      3355
 -1      1539    8    0    1
 -2       640       726       641      3345      3358      2735
 -1      1540    8    0    1
 -2       732       733       844      3045      3359      3360
 -1      1541    8    0    1
 -2       735       732       845      3083      3361      3362
 -1      1542    8    0    1
 -2       739       679       680      3322      2851      3363
 -1      1543    8    0    1
 -2       641       726       768      3358      3354      3125
 -1      1544    8    0    1
 -2       739       680       759      3363      3228      3095
 -1      1545    8    0    1
 -2       741       620       846      3021      3364      3365
 -1      1546    8    0    1
 -2       620       841       846      3348      3366      3364
 -1      1547    8    0    1
 -2       742       617       847      3025      3367      3368
 -1      1548    8    0    1
 -2       617       750       847      3059      3369      3367
 -1      1549    8    0    1
 -2       613       759       745      3096      3370      3040
 -1      1550    8    0    1
 -2       717       756       848      3087      3371      3372
 -1      1551    8    0    1
 -2       831       717       848      3318      3372      3373
 -1      1552    8    0    1
 -2       756       794       848      3204      3374      3371
 -1      1553    8    0    1
 -2       832       729       849      3320      3375      3376
 -1      1554    8    0    1
 -2       729       751       849      3065      3377      3375
 -1      1555    8    0    1
 -2       615       796       751      3210      3378      3063
 -1      1556    8    0    1
 -2       743       720       850      3033      3379      3380
 -1      1557    8    0    1
 -2       720       830       850      3317      3381      3379
 -1      1558    8    0    1
 -2       747       635       851      3119      3382      3383
 -1      1559    8    0    1
 -2       731       747       851      3050      3383      3384
 -1      1560    8    0    1
 -2       635       634       851      2717      3385      3382
 -1      1561    8    0    1
 -2       637       757       638      3346      3386      2726
 -1      1562    8    0    1
 -2       732       844       845      3360      3387      3361
 -1      1563    8    0    1
 -2       669       795       836      3207      3388      3332
 -1      1564    8    0    1
 -2       731       851       828      3384      3389      3311
 -1      1565    8    0    1
 -2       673       798       840      3214      3390      3342
 -1      1566    8    0    1
 -2       800       676       749      3218      3222      3391
 -1      1567    8    0    1
 -2       833       735       845      3323      3362      3392
 -1      1568    8    0    1
 -2       682       683       852      2860      3393      3394
 -1      1569    8    0    1
 -2       711       713       853      2949      3395      3396
 -1      1570    8    0    1
 -2       624       828       834      3312      3397      3325
 -1      1571    8    0    1
 -2       728       754       854      3075      3398      3399
 -1      1572    8    0    1
 -2       830       718       855      3316      3400      3401
 -1      1573    8    0    1
 -2       718       745       855      3039      3402      3400
 -1      1574    8    0    1
 -2       713       710       856      2950      3403      3404
 -1      1575    8    0    1
 -2       853       713       856      3395      3404      3405
 -1      1576    8    0    1
 -2       710       829       856      3314      3406      3403
 -1      1577    8    0    1
 -2       611       743       857      3032      3407      3408
 -1      1578    8    0    1
 -2       611       857       746      3408      3409      3048
 -1      1579    8    0    1
 -2       733       832       844      3321      3410      3359
 -1      1580    8    0    1
 -2       740       728       858      3020      3411      3412
 -1      1581    8    0    1
 -2       843       740       858      3357      3412      3413
 -1      1582    8    0    1
 -2       728       854       858      3399      3414      3411
 -1      1583    8    0    1
 -2       725       833       800      3324      3415      3416
 -1      1584    8    0    1
 -2       748       724       859      3054      3417      3418
 -1      1585    8    0    1
 -2       724       839       859      3341      3419      3417
 -1      1586    8    0    1
 -2       749       725       800      3057      3416      3391
 -1      1587    8    0    1
 -2       750       616       860      3060      3420      3421
 -1      1588    8    0    1
 -2       616       748       860      3053      3422      3420
 -1      1589    8    0    1
 -2       727       621       861      2987      3423      3424
 -1      1590    8    0    1
 -2       621       758       861      3094      3425      3423
 -1      1591    8    0    1
 -2       722       721       862      2974      3426      3427
 -1      1592    8    0    1
 -2       721       742       863      3027      3428      3429
 -1      1593    8    0    1
 -2       721       863       862      3429      3430      3426
 -1      1594    8    0    1
 -2       839       614       746      3340      3047      3431
 -1      1595    8    0    1
 -2       837       623       843      3335      3356      3432
 -1      1596    8    0    1
 -2       838       609       738      3338      3015      3433
 -1      1597    8    0    1
 -2       768       722       862      3353      3427      3434
 -1      1598    8    0    1
 -2       753       711       864      3072      3435      3436
 -1      1599    8    0    1
 -2       711       853       864      3396      3437      3435
 -1      1600    8    0    1
 -2       619       727       865      2986      3438      3439
 -1      1601    8    0    1
 -2       841       619       865      3347      3439      3440
 -1      1602    8    0    1
 -2       727       861       865      3424      3441      3438
 -1      1603    8    0    1
 -2       618       838       747      3339      3442      3051
 -1      1604    8    0    1
 -2       851       634       767      3385      3117      3443
 -1      1605    8    0    1
 -2       638       757       752      3386      3091      3444
 -1      1606    8    0    1
 -2       852       683       801      3393      3232      3445
 -1      1607    8    0    1
 -2       736       714       866      3010      3446      3447
 -1      1608    8    0    1
 -2       842       736       866      3352      3447      3448
 -1      1609    8    0    1
 -2       714       827       866      3310      3449      3446
 -1      1610    8    0    1
 -2       754       741       867      3076      3450      3451
 -1      1611    8    0    1
 -2       754       867       854      3451      3452      3398
 -1      1612    8    0    1
 -2       638       752       639      3444      3453      2729
 -1      1613    8    0    1
 -2       763       762       868      3106      3454      3455
 -1      1614    8    0    1
 -2       764       763       869      3109      3456      3457
 -1      1615    8    0    1
 -2       763       868       869      3455      3458      3456
 -1      1616    8    0    1
 -2       765       764       870      3112      3459      3460
 -1      1617    8    0    1
 -2       764       869       870      3457      3461      3459
 -1      1618    8    0    1
 -2       766       765       871      3115      3462      3463
 -1      1619    8    0    1
 -2       765       870       871      3460      3464      3462
 -1      1620    8    0    1
 -2       767       766       872      3118      3465      3466
 -1      1621    8    0    1
 -2       766       871       872      3463      3467      3465
 -1      1622    8    0    1
 -2       845       844       873      3387      3468      3469
 -1      1623    8    0    1
 -2       771       770       874      3135      3470      3471
 -1      1624    8    0    1
 -2       772       771       875      3138      3472      3473
 -1      1625    8    0    1
 -2       771       874       875      3471      3474      3472
 -1      1626    8    0    1
 -2       773       772       876      3141      3475      3476
 -1      1627    8    0    1
 -2       772       875       876      3473      3477      3475
 -1      1628    8    0    1
 -2       774       773       877      3144      3478      3479
 -1      1629    8    0    1
 -2       773       876       877      3476      3480      3478
 -1      1630    8    0    1
 -2       775       774       878      3147      3481      3482
 -1      1631    8    0    1
 -2       774       877       878      3479      3483      3481
 -1      1632    8    0    1
 -2       776       775       879      3150      3484      3485
 -1      1633    8    0    1
 -2       775       878       879      3482      3486      3484
 -1      1634    8    0    1
 -2       777       776       880      3153      3487      3488
 -1      1635    8    0    1
 -2       776       879       880      3485      3489      3487
 -1      1636    8    0    1
 -2       778       777       881      3156      3490      3491
 -1      1637    8    0    1
 -2       777       880       881      3488      3492      3490
 -1      1638    8    0    1
 -2       779       778       882      3159      3493      3494
 -1      1639    8    0    1
 -2       778       881       882      3491      3495      3493
 -1      1640    8    0    1
 -2       780       779       883      3162      3496      3497
 -1      1641    8    0    1
 -2       779       882       883      3494      3498      3496
 -1      1642    8    0    1
 -2       781       780       884      3165      3499      3500
 -1      1643    8    0    1
 -2       780       883       884      3497      3501      3499
 -1      1644    8    0    1
 -2       782       781       885      3168      3502      3503
 -1      1645    8    0    1
 -2       781       884       885      3500      3504      3502
 -1      1646    8    0    1
 -2       783       782       886      3171      3505      3506
 -1      1647    8    0    1
 -2       782       885       886      3503      3507      3505
 -1      1648    8    0    1
 -2       784       783       887      3174      3508      3509
 -1      1649    8    0    1
 -2       783       886       887      3506      3510      3508
 -1      1650    8    0    1
 -2       785       784       888      3177      3511      3512
 -1      1651    8    0    1
 -2       784       887       888      3509      3513      3511
 -1      1652    8    0    1
 -2       786       785       889      3180      3514      3515
 -1      1653    8    0    1
 -2       785       888       889      3512      3516      3514
 -1      1654    8    0    1
 -2       787       786       890      3183      3517      3518
 -1      1655    8    0    1
 -2       786       889       890      3515      3519      3517
 -1      1656    8    0    1
 -2       788       787       891      3186      3520      3521
 -1      1657    8    0    1
 -2       787       890       891      3518      3522      3520
 -1      1658    8    0    1
 -2       789       788       892      3189      3523      3524
 -1      1659    8    0    1
 -2       788       891       892      3521      3525      3523
 -1      1660    8    0    1
 -2       790       789       893      3192      3526      3527
 -1      1661    8    0    1
 -2       789       892       893      3524      3528      3526
 -1      1662    8    0    1
 -2       791       790       894      3195      3529      3530
 -1      1663    8    0    1
 -2       790       893       894      3527      3531      3529
 -1      1664    8    0    1
 -2       792       791       895      3198      3532      3533
 -1      1665    8    0    1
 -2       791       894       895      3530      3534      3532
 -1      1666    8    0    1
 -2       793       792       896      3201      3535      3536
 -1      1667    8    0    1
 -2       792       895       896      3533      3537      3535
 -1      1668    8    0    1
 -2       828       851       767      3389      3443      3538
 -1      1669    8    0    1
 -2       796       670       834      3209      3326      3539
 -1      1670    8    0    1
 -2       798       799       897      3217      3540      3541
 -1      1671    8    0    1
 -2       749       677       730      3221      3542      3056
 -1      1672    8    0    1
 -2       677       734       730      3224      3004      3542
 -1      1673    8    0    1
 -2       681       745       759      3230      3370      3227
 -1      1674    8    0    1
 -2       801       802       898      3235      3543      3544
 -1      1675    8    0    1
 -2       804       805       899      3244      3545      3546
 -1      1676    8    0    1
 -2       805       806       900      3247      3547      3548
 -1      1677    8    0    1
 -2       805       900       899      3548      3549      3545
 -1      1678    8    0    1
 -2       806       807       901      3250      3550      3551
 -1      1679    8    0    1
 -2       806       901       900      3551      3552      3547
 -1      1680    8    0    1
 -2       807       808       902      3253      3553      3554
 -1      1681    8    0    1
 -2       807       902       901      3554      3555      3550
 -1      1682    8    0    1
 -2       808       809       903      3256      3556      3557
 -1      1683    8    0    1
 -2       808       903       902      3557      3558      3553
 -1      1684    8    0    1
 -2       809       810       904      3259      3559      3560
 -1      1685    8    0    1
 -2       809       904       903      3560      3561      3556
 -1      1686    8    0    1
 -2       810       811       905      3262      3562      3563
 -1      1687    8    0    1
 -2       810       905       904      3563      3564      3559
 -1      1688    8    0    1
 -2       811       812       906      3265      3565      3566
 -1      1689    8    0    1
 -2       811       906       905      3566      3567      3562
 -1      1690    8    0    1
 -2       812       813       907      3268      3568      3569
 -1      1691    8    0    1
 -2       812       907       906      3569      3570      3565
 -1      1692    8    0    1
 -2       813       814       908      3271      3571      3572
 -1      1693    8    0    1
 -2       813       908       907      3572      3573      3568
 -1      1694    8    0    1
 -2       814       815       909      3274      3574      3575
 -1      1695    8    0    1
 -2       814       909       908      3575      3576      3571
 -1      1696    8    0    1
 -2       815       816       910      3277      3577      3578
 -1      1697    8    0    1
 -2       815       910       909      3578      3579      3574
 -1      1698    8    0    1
 -2       816       817       911      3280      3580      3581
 -1      1699    8    0    1
 -2       816       911       910      3581      3582      3577
 -1      1700    8    0    1
 -2       817       818       912      3283      3583      3584
 -1      1701    8    0    1
 -2       817       912       911      3584      3585      3580
 -1      1702    8    0    1
 -2       818       819       913      3286      3586      3587
 -1      1703    8    0    1
 -2       818       913       912      3587      3588      3583
 -1      1704    8    0    1
 -2       819       820       914      3289      3589      3590
 -1      1705    8    0    1
 -2       819       914       913      3590      3591      3586
 -1      1706    8    0    1
 -2       820       821       915      3292      3592      3593
 -1      1707    8    0    1
 -2       820       915       914      3593      3594      3589
 -1      1708    8    0    1
 -2       821       822       916      3295      3595      3596
 -1      1709    8    0    1
 -2       821       916       915      3596      3597      3592
 -1      1710    8    0    1
 -2       822       823       917      3298      3598      3599
 -1      1711    8    0    1
 -2       822       917       916      3599      3600      3595
 -1      1712    8    0    1
 -2       823       824       918      3301      3601      3602
 -1      1713    8    0    1
 -2       823       918       917      3602      3603      3598
 -1      1714    8    0    1
 -2       824       825       919      3304      3604      3605
 -1      1715    8    0    1
 -2       824       919       918      3605      3606      3601
 -1      1716    8    0    1
 -2       840       798       920      3390      3607      3608
 -1      1717    8    0    1
 -2       798       897       920      3541      3609      3607
 -1      1718    8    0    1
 -2       834       828       872      3397      3610      3611
 -1      1719    8    0    1
 -2       829       797       921      3315      3612      3613
 -1      1720    8    0    1
 -2       828       767       872      3538      3466      3610
 -1      1721    8    0    1
 -2       639       752       737      3453      3327      3123
 -1      1722    8    0    1
 -2       827       836       922      3334      3614      3615
 -1      1723    8    0    1
 -2       803       804       923      3241      3616      3617
 -1      1724    8    0    1
 -2       804       899       923      3546      3618      3616
 -1      1725    8    0    1
 -2       802       803       924      3238      3619      3620
 -1      1726    8    0    1
 -2       898       802       924      3543      3620      3621
 -1      1727    8    0    1
 -2       803       923       924      3617      3622      3619
 -1      1728    8    0    1
 -2       745       682       852      3229      3394      3623
 -1      1729    8    0    1
 -2       844       832       925      3410      3624      3625
 -1      1730    8    0    1
 -2       796       834       926      3539      3626      3627
 -1      1731    8    0    1
 -2       839       746       927      3431      3628      3629
 -1      1732    8    0    1
 -2       833       845       897      3392      3630      3631
 -1      1733    8    0    1
 -2       760       840       928      3344      3632      3633
 -1      1734    8    0    1
 -2       840       920       928      3608      3634      3632
 -1      1735    8    0    1
 -2       799       800       833      3220      3415      3635
 -1      1736    8    0    1
 -2       744       753       929      3071      3636      3637
 -1      1737    8    0    1
 -2       826       744       929      3308      3637      3638
 -1      1738    8    0    1
 -2       753       864       929      3436      3639      3636
 -1      1739    8    0    1
 -2       768       862       769      3434      3640      3129
 -1      1740    8    0    1
 -2       751       796       930      3378      3641      3642
 -1      1741    8    0    1
 -2       751       930       849      3642      3643      3377
 -1      1742    8    0    1
 -2       837       843       931      3432      3644      3645
 -1      1743    8    0    1
 -2       843       858       931      3413      3646      3644
 -1      1744    8    0    1
 -2       836       795       932      3388      3647      3648
 -1      1745    8    0    1
 -2       836       932       922      3648      3649      3614
 -1      1746    8    0    1
 -2       795       760       933      3208      3650      3651
 -1      1747    8    0    1
 -2       760       928       933      3633      3652      3650
 -1      1748    8    0    1
 -2       762       761       934      3103      3653      3654
 -1      1749    8    0    1
 -2       762       934       868      3654      3655      3454
 -1      1750    8    0    1
 -2       769       862       863      3640      3430      3656
 -1      1751    8    0    1
 -2       799       833       897      3635      3631      3540
 -1      1752    8    0    1
 -2       847       750       935      3369      3657      3658
 -1      1753    8    0    1
 -2       750       860       935      3421      3659      3657
 -1      1754    8    0    1
 -2       837       931       761      3645      3660      3337
 -1      1755    8    0    1
 -2       769       863       770      3656      3661      3132
 -1      1756    8    0    1
 -2       845       873       897      3469      3662      3630
 -1      1757    8    0    1
 -2       873       844       925      3468      3625      3663
 -1      1758    8    0    1
 -2       742       847       863      3368      3664      3428
 -1      1759    8    0    1
 -2       832       849       936      3376      3665      3666
 -1      1760    8    0    1
 -2       832       936       925      3666      3667      3624
 -1      1761    8    0    1
 -2       794       793       937      3205      3668      3669
 -1      1762    8    0    1
 -2       848       794       937      3374      3669      3670
 -1      1763    8    0    1
 -2       793       896       937      3536      3671      3668
 -1      1764    8    0    1
 -2       857       743       938      3407      3672      3673
 -1      1765    8    0    1
 -2       743       850       938      3380      3674      3672
 -1      1766    8    0    1
 -2       866       827       939      3449      3675      3676
 -1      1767    8    0    1
 -2       827       922       939      3615      3677      3675
 -1      1768    8    0    1
 -2       846       841       940      3366      3678      3679
 -1      1769    8    0    1
 -2       841       865       941      3440      3680      3681
 -1      1770    8    0    1
 -2       841       941       940      3681      3682      3678
 -1      1771    8    0    1
 -2       825       826       929      3307      3638      3683
 -1      1772    8    0    1
 -2       770       863       874      3661      3684      3470
 -1      1773    8    0    1
 -2       829       921       942      3613      3685      3686
 -1      1774    8    0    1
 -2       829       942       856      3686      3687      3406
 -1      1775    8    0    1
 -2       746       857       927      3409      3688      3628
 -1      1776    8    0    1
 -2       858       854       943      3414      3689      3690
 -1      1777    8    0    1
 -2       858       943       931      3690      3691      3646
 -1      1778    8    0    1
 -2       831       848       944      3373      3692      3693
 -1      1779    8    0    1
 -2       848       937       944      3670      3694      3692
 -1      1780    8    0    1
 -2       741       846       867      3365      3695      3450
 -1      1781    8    0    1
 -2       859       839       945      3419      3696      3697
 -1      1782    8    0    1
 -2       796       926       930      3627      3698      3641
 -1      1783    8    0    1
 -2       839       927       945      3629      3699      3696
 -1      1784    8    0    1
 -2       748       859       946      3418      3700      3701
 -1      1785    8    0    1
 -2       748       946       860      3701      3702      3422
 -1      1786    8    0    1
 -2       853       856       947      3405      3703      3704
 -1      1787    8    0    1
 -2       856       942       947      3687      3705      3703
 -1      1788    8    0    1
 -2       761       931       934      3660      3706      3653
 -1      1789    8    0    1
 -2       861       758       948      3425      3707      3708
 -1      1790    8    0    1
 -2       853       947       949      3704      3709      3710
 -1      1791    8    0    1
 -2       853       949       864      3710      3711      3437
 -1      1792    8    0    1
 -2       834       872       950      3611      3712      3713
 -1      1793    8    0    1
 -2       926       834       950      3626      3713      3714
 -1      1794    8    0    1
 -2       872       871       950      3467      3715      3712
 -1      1795    8    0    1
 -2       795       933       932      3651      3716      3647
 -1      1796    8    0    1
 -2       835       831       944      3331      3693      3717
 -1      1797    8    0    1
 -2       738       636       838      3121      3718      3433
 -1      1798    8    0    1
 -2       838       636       747      3718      3120      3442
 -1      1799    8    0    1
 -2       825       929       919      3683      3719      3604
 -1      1800    8    0    1
 -2       943       854       951      3689      3720      3721
 -1      1801    8    0    1
 -2       854       867       951      3452      3722      3720
 -1      1802    8    0    1
 -2       921       797       952      3612      3723      3724
 -1      1803    8    0    1
 -2       797       835       952      3330      3725      3723
 -1      1804    8    0    1
 -2       852       801       953      3445      3726      3727
 -1      1805    8    0    1
 -2       953       801       898      3726      3544      3728
 -1      1806    8    0    1
 -2       850       830       953      3381      3729      3730
 -1      1807    8    0    1
 -2       869       868       954      3458      3731      3732
 -1      1808    8    0    1
 -2       870       869       955      3461      3733      3734
 -1      1809    8    0    1
 -2       869       954       955      3732      3735      3733
 -1      1810    8    0    1
 -2       871       870       956      3464      3736      3737
 -1      1811    8    0    1
 -2       870       955       956      3734      3738      3736
 -1      1812    8    0    1
 -2       932       933       957      3716      3739      3740
 -1      1813    8    0    1
 -2       875       874       958      3474      3741      3742
 -1      1814    8    0    1
 -2       928       920       959      3634      3743      3744
 -1      1815    8    0    1
 -2       897       873       920      3662      3745      3609
 -1      1816    8    0    1
 -2       876       875       960      3477      3746      3747
 -1      1817    8    0    1
 -2       875       958       960      3742      3748      3746
 -1      1818    8    0    1
 -2       877       876       961      3480      3749      3750
 -1      1819    8    0    1
 -2       876       960       961      3747      3751      3749
 -1      1820    8    0    1
 -2       878       877       962      3483      3752      3753
 -1      1821    8    0    1
 -2       877       961       962      3750      3754      3752
 -1      1822    8    0    1
 -2       879       878       963      3486      3755      3756
 -1      1823    8    0    1
 -2       878       962       963      3753      3757      3755
 -1      1824    8    0    1
 -2       880       879       964      3489      3758      3759
 -1      1825    8    0    1
 -2       879       963       964      3756      3760      3758
 -1      1826    8    0    1
 -2       881       880       965      3492      3761      3762
 -1      1827    8    0    1
 -2       880       964       965      3759      3763      3761
 -1      1828    8    0    1
 -2       882       881       966      3495      3764      3765
 -1      1829    8    0    1
 -2       881       965       966      3762      3766      3764
 -1      1830    8    0    1
 -2       883       882       967      3498      3767      3768
 -1      1831    8    0    1
 -2       882       966       967      3765      3769      3767
 -1      1832    8    0    1
 -2       884       883       968      3501      3770      3771
 -1      1833    8    0    1
 -2       883       967       968      3768      3772      3770
 -1      1834    8    0    1
 -2       885       884       969      3504      3773      3774
 -1      1835    8    0    1
 -2       884       968       969      3771      3775      3773
 -1      1836    8    0    1
 -2       886       885       970      3507      3776      3777
 -1      1837    8    0    1
 -2       885       969       970      3774      3778      3776
 -1      1838    8    0    1
 -2       887       886       971      3510      3779      3780
 -1      1839    8    0    1
 -2       886       970       971      3777      3781      3779
 -1      1840    8    0    1
 -2       888       887       972      3513      3782      3783
 -1      1841    8    0    1
 -2       887       971       972      3780      3784      3782
 -1      1842    8    0    1
 -2       889       888       973      3516      3785      3786
 -1      1843    8    0    1
 -2       888       972       973      3783      3787      3785
 -1      1844    8    0    1
 -2       890       889       974      3519      3788      3789
 -1      1845    8    0    1
 -2       889       973       974      3786      3790      3788
 -1      1846    8    0    1
 -2       891       890       975      3522      3791      3792
 -1      1847    8    0    1
 -2       890       974       975      3789      3793      3791
 -1      1848    8    0    1
 -2       892       891       976      3525      3794      3795
 -1      1849    8    0    1
 -2       891       975       976      3792      3796      3794
 -1      1850    8    0    1
 -2       893       892       977      3528      3797      3798
 -1      1851    8    0    1
 -2       892       976       977      3795      3799      3797
 -1      1852    8    0    1
 -2       894       893       978      3531      3800      3801
 -1      1853    8    0    1
 -2       893       977       978      3798      3802      3800
 -1      1854    8    0    1
 -2       895       894       979      3534      3803      3804
 -1      1855    8    0    1
 -2       894       978       979      3801      3805      3803
 -1      1856    8    0    1
 -2       896       895       980      3537      3806      3807
 -1      1857    8    0    1
 -2       895       979       980      3804      3808      3806
 -1      1858    8    0    1
 -2       901       902       981      3555      3809      3810
 -1      1859    8    0    1
 -2       900       901       982      3552      3811      3812
 -1      1860    8    0    1
 -2       901       981       982      3810      3813      3811
 -1      1861    8    0    1
 -2       899       900       983      3549      3814      3815
 -1      1862    8    0    1
 -2       900       982       983      3812      3816      3814
 -1      1863    8    0    1
 -2       902       903       984      3558      3817      3818
 -1      1864    8    0    1
 -2       902       984       981      3818      3819      3809
 -1      1865    8    0    1
 -2       903       904       985      3561      3820      3821
 -1      1866    8    0    1
 -2       903       985       984      3821      3822      3817
 -1      1867    8    0    1
 -2       904       905       986      3564      3823      3824
 -1      1868    8    0    1
 -2       904       986       985      3824      3825      3820
 -1      1869    8    0    1
 -2       905       906       987      3567      3826      3827
 -1      1870    8    0    1
 -2       905       987       986      3827      3828      3823
 -1      1871    8    0    1
 -2       906       907       988      3570      3829      3830
 -1      1872    8    0    1
 -2       906       988       987      3830      3831      3826
 -1      1873    8    0    1
 -2       907       908       989      3573      3832      3833
 -1      1874    8    0    1
 -2       907       989       988      3833      3834      3829
 -1      1875    8    0    1
 -2       908       909       990      3576      3835      3836
 -1      1876    8    0    1
 -2       908       990       989      3836      3837      3832
 -1      1877    8    0    1
 -2       909       910       991      3579      3838      3839
 -1      1878    8    0    1
 -2       909       991       990      3839      3840      3835
 -1      1879    8    0    1
 -2       910       911       992      3582      3841      3842
 -1      1880    8    0    1
 -2       910       992       991      3842      3843      3838
 -1      1881    8    0    1
 -2       911       912       993      3585      3844      3845
 -1      1882    8    0    1
 -2       911       993       992      3845      3846      3841
 -1      1883    8    0    1
 -2       912       913       994      3588      3847      3848
 -1      1884    8    0    1
 -2       912       994       993      3848      3849      3844
 -1      1885    8    0    1
 -2       913       914       995      3591      3850      3851
 -1      1886    8    0    1
 -2       913       995       994      3851      3852      3847
 -1      1887    8    0    1
 -2       914       915       996      3594      3853      3854
 -1      1888    8    0    1
 -2       914       996       995      3854      3855      3850
 -1      1889    8    0    1
 -2       915       916       997      3597      3856      3857
 -1      1890    8    0    1
 -2       915       997       996      3857      3858      3853
 -1      1891    8    0    1
 -2       916       917       998      3600      3859      3860
 -1      1892    8    0    1
 -2       916       998       997      3860      3861      3856
 -1      1893    8    0    1
 -2       917       918       999      3603      3862      3863
 -1      1894    8    0    1
 -2       917       999       998      3863      3864      3859
 -1      1895    8    0    1
 -2       873       925       959      3663      3865      3866
 -1      1896    8    0    1
 -2       923       899      1000      3618      3867      3868
 -1      1897    8    0    1
 -2       899       983      1000      3815      3869      3867
 -1      1898    8    0    1
 -2       830       855       953      3401      3870      3729
 -1      1899    8    0    1
 -2       927       857      1001      3688      3871      3872
 -1      1900    8    0    1
 -2       857       938      1001      3673      3873      3871
 -1      1901    8    0    1
 -2       745       852       855      3623      3874      3402
 -1      1902    8    0    1
 -2       931       943       934      3691      3875      3706
 -1      1903    8    0    1
 -2       867       846      1002      3695      3876      3877
 -1      1904    8    0    1
 -2       951       867      1002      3722      3877      3878
 -1      1905    8    0    1
 -2       846       940      1002      3679      3879      3876
 -1      1906    8    0    1
 -2       850       953      1003      3730      3880      3881
 -1      1907    8    0    1
 -2       938       850      1003      3674      3881      3882
 -1      1908    8    0    1
 -2       953       898      1003      3728      3883      3880
 -1      1909    8    0    1
 -2       930       926      1004      3698      3884      3885
 -1      1910    8    0    1
 -2       948       758       866      3707      3886      3887
 -1      1911    8    0    1
 -2       868       934      1005      3655      3888      3889
 -1      1912    8    0    1
 -2       868      1005       954      3889      3890      3731
 -1      1913    8    0    1
 -2       865       861      1006      3441      3891      3892
 -1      1914    8    0    1
 -2       865      1006       941      3892      3893      3680
 -1      1915    8    0    1
 -2       929       864       919      3639      3894      3719
 -1      1916    8    0    1
 -2       859       945      1007      3697      3895      3896
 -1      1917    8    0    1
 -2       859      1007       946      3896      3897      3700
 -1      1918    8    0    1
 -2       945       927      1008      3699      3898      3899
 -1      1919    8    0    1
 -2       927      1001      1008      3872      3900      3898
 -1      1920    8    0    1
 -2       849       930      1009      3643      3901      3902
 -1      1921    8    0    1
 -2       849      1009       936      3902      3903      3665
 -1      1922    8    0    1
 -2       758       842       866      3351      3448      3886
 -1      1923    8    0    1
 -2       874       863       847      3684      3664      3904
 -1      1924    8    0    1
 -2       835       944       952      3717      3905      3725
 -1      1925    8    0    1
 -2       933       928      1010      3652      3906      3907
 -1      1926    8    0    1
 -2       928       959      1010      3744      3908      3906
 -1      1927    8    0    1
 -2       852       953       855      3727      3870      3874
 -1      1928    8    0    1
 -2       861       948      1006      3708      3909      3891
 -1      1929    8    0    1
 -2       922       932      1011      3649      3910      3911
 -1      1930    8    0    1
 -2       932       957      1011      3740      3912      3910
 -1      1931    8    0    1
 -2       920       873       959      3745      3866      3743
 -1      1932    8    0    1
 -2       919       864       949      3894      3711      3913
 -1      1933    8    0    1
 -2       934       943      1012      3875      3914      3915
 -1      1934    8    0    1
 -2      1005       934      1012      3888      3915      3916
 -1      1935    8    0    1
 -2       943       951      1012      3721      3917      3914
 -1      1936    8    0    1
 -2       874       847       958      3904      3918      3741
 -1      1937    8    0    1
 -2       948       866       939      3887      3676      3919
 -1      1938    8    0    1
 -2      1004       926       950      3884      3714      3920
 -1      1939    8    0    1
 -2       871       956       950      3737      3921      3715
 -1      1940    8    0    1
 -2       957       933      1010      3739      3907      3922
 -1      1941    8    0    1
 -2      1006       948      1013      3909      3923      3924
 -1      1942    8    0    1
 -2       948       939      1013      3919      3925      3923
 -1      1943    8    0    1
 -2       937       896       944      3671      3926      3694
 -1      1944    8    0    1
 -2       939       922      1013      3677      3927      3925
 -1      1945    8    0    1
 -2      1003       898      1014      3883      3928      3929
 -1      1946    8    0    1
 -2       898       924      1014      3621      3930      3928
 -1      1947    8    0    1
 -2       940       941      1015      3682      3931      3932
 -1      1948    8    0    1
 -2       940      1015      1016      3932      3933      3934
 -1      1949    8    0    1
 -2       959       925      1017      3865      3935      3936
 -1      1950    8    0    1
 -2       918       919      1018      3606      3937      3938
 -1      1951    8    0    1
 -2       896       980       944      3807      3939      3926
 -1      1952    8    0    1
 -2       942       921      1019      3685      3940      3941
 -1      1953    8    0    1
 -2       923      1000      1020      3868      3942      3943
 -1      1954    8    0    1
 -2       923      1020       924      3943      3944      3622
 -1      1955    8    0    1
 -2      1013       922      1011      3927      3911      3945
 -1      1956    8    0    1
 -2       860       946      1021      3702      3946      3947
 -1      1957    8    0    1
 -2      1002       940      1016      3879      3934      3948
 -1      1958    8    0    1
 -2       945      1008      1022      3899      3949      3950
 -1      1959    8    0    1
 -2       947       942      1023      3705      3951      3952
 -1      1960    8    0    1
 -2       942      1019      1023      3941      3953      3951
 -1      1961    8    0    1
 -2       949       947      1024      3709      3954      3955
 -1      1962    8    0    1
 -2       947      1023      1024      3952      3956      3954
 -1      1963    8    0    1
 -2       925       936      1017      3667      3957      3935
 -1      1964    8    0    1
 -2       935       860      1021      3659      3947      3958
 -1      1965    8    0    1
 -2      1007       945      1022      3895      3950      3959
 -1      1966    8    0    1
 -2      1009       930      1004      3901      3885      3960
 -1      1967    8    0    1
 -2       921       952      1025      3724      3961      3962
 -1      1968    8    0    1
 -2       921      1025      1019      3962      3963      3940
 -1      1969    8    0    1
 -2       952       944       980      3905      3939      3964
 -1      1970    8    0    1
 -2       918      1018       999      3938      3965      3862
 -1      1971    8    0    1
 -2      1018       919       949      3937      3913      3966
 -1      1972    8    0    1
 -2       941      1006      1026      3893      3967      3968
 -1      1973    8    0    1
 -2      1015       941      1026      3931      3968      3969
 -1      1974    8    0    1
 -2      1006      1013      1026      3924      3970      3967
 -1      1975    8    0    1
 -2       956       955      1027      3738      3971      3972
 -1      1976    8    0    1
 -2      1016      1015      1028      3933      3973      3974
 -1      1977    8    0    1
 -2       960       958      1029      3748      3975      3976
 -1      1978    8    0    1
 -2       961       960      1030      3751      3977      3978
 -1      1979    8    0    1
 -2       960      1029      1030      3976      3979      3977
 -1      1980    8    0    1
 -2       962       961      1031      3754      3980      3981
 -1      1981    8    0    1
 -2       961      1030      1031      3978      3982      3980
 -1      1982    8    0    1
 -2       963       962      1032      3757      3983      3984
 -1      1983    8    0    1
 -2       962      1031      1032      3981      3985      3983
 -1      1984    8    0    1
 -2       964       963      1033      3760      3986      3987
 -1      1985    8    0    1
 -2       963      1032      1033      3984      3988      3986
 -1      1986    8    0    1
 -2       965       964      1034      3763      3989      3990
 -1      1987    8    0    1
 -2       964      1033      1034      3987      3991      3989
 -1      1988    8    0    1
 -2       966       965      1035      3766      3992      3993
 -1      1989    8    0    1
 -2       965      1034      1035      3990      3994      3992
 -1      1990    8    0    1
 -2       967       966      1036      3769      3995      3996
 -1      1991    8    0    1
 -2       966      1035      1036      3993      3997      3995
 -1      1992    8    0    1
 -2       968       967      1037      3772      3998      3999
 -1      1993    8    0    1
 -2       967      1036      1037      3996      4000      3998
 -1      1994    8    0    1
 -2       969       968      1038      3775      4001      4002
 -1      1995    8    0    1
 -2       968      1037      1038      3999      4003      4001
 -1      1996    8    0    1
 -2       970       969      1039      3778      4004      4005
 -1      1997    8    0    1
 -2       969      1038      1039      4002      4006      4004
 -1      1998    8    0    1
 -2       971       970      1040      3781      4007      4008
 -1      1999    8    0    1
 -2       970      1039      1040      4005      4009      4007
 -1      2000    8    0    1
 -2       972       971      1041      3784      4010      4011
 -1      2001    8    0    1
 -2       971      1040      1041      4008      4012      4010
 -1      2002    8    0    1
 -2       973       972      1042      3787      4013      4014
 -1      2003    8    0    1
 -2       972      1041      1042      4011      4015      4013
 -1      2004    8    0    1
 -2       974       973      1043      3790      4016      4017
 -1      2005    8    0    1
 -2       973      1042      1043      4014      4018      4016
 -1      2006    8    0    1
 -2       975       974      1044      3793      4019      4020
 -1      2007    8    0    1
 -2       974      1043      1044      4017      4021      4019
 -1      2008    8    0    1
 -2       976       975      1045      3796      4022      4023
 -1      2009    8    0    1
 -2       975      1044      1045      4020      4024      4022
 -1      2010    8    0    1
 -2       977       976      1046      3799      4025      4026
 -1      2011    8    0    1
 -2       976      1045      1046      4023      4027      4025
 -1      2012    8    0    1
 -2       978       977      1047      3802      4028      4029
 -1      2013    8    0    1
 -2       977      1046      1047      4026      4030      4028
 -1      2014    8    0    1
 -2       979       978      1048      3805      4031      4032
 -1      2015    8    0    1
 -2       978      1047      1048      4029      4033      4031
 -1      2016    8    0    1
 -2       980       979      1049      3808      4034      4035
 -1      2017    8    0    1
 -2       979      1048      1049      4032      4036      4034
 -1      2018    8    0    1
 -2       984       985      1050      3822      4037      4038
 -1      2019    8    0    1
 -2       981       984      1051      3819      4039      4040
 -1      2020    8    0    1
 -2       984      1050      1051      4038      4041      4039
 -1      2021    8    0    1
 -2      1009      1004      1052      3960      4042      4043
 -1      2022    8    0    1
 -2       983       982      1053      3816      4044      4045
 -1      2023    8    0    1
 -2       959      1017      1010      3936      4046      3908
 -1      2024    8    0    1
 -2       985       986      1054      3825      4047      4048
 -1      2025    8    0    1
 -2       985      1054      1050      4048      4049      4037
 -1      2026    8    0    1
 -2       986       987      1055      3828      4050      4051
 -1      2027    8    0    1
 -2       986      1055      1054      4051      4052      4047
 -1      2028    8    0    1
 -2       987       988      1056      3831      4053      4054
 -1      2029    8    0    1
 -2       987      1056      1055      4054      4055      4050
 -1      2030    8    0    1
 -2       988       989      1057      3834      4056      4057
 -1      2031    8    0    1
 -2       988      1057      1056      4057      4058      4053
 -1      2032    8    0    1
 -2       989       990      1058      3837      4059      4060
 -1      2033    8    0    1
 -2       989      1058      1057      4060      4061      4056
 -1      2034    8    0    1
 -2       990       991      1059      3840      4062      4063
 -1      2035    8    0    1
 -2       990      1059      1058      4063      4064      4059
 -1      2036    8    0    1
 -2       991       992      1060      3843      4065      4066
 -1      2037    8    0    1
 -2       991      1060      1059      4066      4067      4062
 -1      2038    8    0    1
 -2       992       993      1061      3846      4068      4069
 -1      2039    8    0    1
 -2       992      1061      1060      4069      4070      4065
 -1      2040    8    0    1
 -2       993       994      1062      3849      4071      4072
 -1      2041    8    0    1
 -2       993      1062      1061      4072      4073      4068
 -1      2042    8    0    1
 -2       994       995      1063      3852      4074      4075
 -1      2043    8    0    1
 -2       994      1063      1062      4075      4076      4071
 -1      2044    8    0    1
 -2       995       996      1064      3855      4077      4078
 -1      2045    8    0    1
 -2       995      1064      1063      4078      4079      4074
 -1      2046    8    0    1
 -2       996       997      1065      3858      4080      4081
 -1      2047    8    0    1
 -2       996      1065      1064      4081      4082      4077
 -1      2048    8    0    1
 -2       997       998      1066      3861      4083      4084
 -1      2049    8    0    1
 -2       997      1066      1065      4084      4085      4080
 -1      2050    8    0    1
 -2       998       999      1067      3864      4086      4087
 -1      2051    8    0    1
 -2       998      1067      1066      4087      4088      4083
 -1      2052    8    0    1
 -2      1018       949      1024      3966      3955      4089
 -1      2053    8    0    1
 -2       999      1018      1024      3965      4089      4090
 -1      2054    8    0    1
 -2       952       980      1025      3964      4091      3961
 -1      2055    8    0    1
 -2      1023      1019      1068      3953      4092      4093
 -1      2056    8    0    1
 -2      1001       938      1069      3873      4094      4095
 -1      2057    8    0    1
 -2       938      1003      1069      3882      4096      4094
 -1      2058    8    0    1
 -2      1021       946      1070      3946      4097      4098
 -1      2059    8    0    1
 -2       946      1007      1070      3897      4099      4097
 -1      2060    8    0    1
 -2      1002      1016      1071      3948      4100      4101
 -1      2061    8    0    1
 -2      1002      1071       951      4101      4102      3878
 -1      2062    8    0    1
 -2      1013      1011      1026      3945      4103      3970
 -1      2063    8    0    1
 -2      1022      1008      1072      3949      4104      4105
 -1      2064    8    0    1
 -2      1017       936      1073      3957      4106      4107
 -1      2065    8    0    1
 -2       936      1009      1073      3903      4108      4106
 -1      2066    8    0    1
 -2       954      1005      1074      3890      4109      4110
 -1      2067    8    0    1
 -2       957      1010      1075      3922      4111      4112
 -1      2068    8    0    1
 -2      1007      1022      1076      3959      4113      4114
 -1      2069    8    0    1
 -2      1007      1076      1070      4114      4115      4099
 -1      2070    8    0    1
 -2      1004       950       956      3920      3921      4116
 -1      2071    8    0    1
 -2      1000       983      1077      3869      4117      4118
 -1      2072    8    0    1
 -2       983      1053      1077      4045      4119      4117
 -1      2073    8    0    1
 -2       982       981      1078      3813      4120      4121
 -1      2074    8    0    1
 -2       981      1051      1078      4040      4122      4120
 -1      2075    8    0    1
 -2      1008      1001      1079      3900      4123      4124
 -1      2076    8    0    1
 -2      1072      1008      1079      4104      4124      4125
 -1      2077    8    0    1
 -2      1001      1069      1079      4095      4126      4123
 -1      2078    8    0    1
 -2       955       954      1080      3735      4127      4128
 -1      2079    8    0    1
 -2      1027       955      1080      3971      4128      4129
 -1      2080    8    0    1
 -2       954      1074      1080      4110      4130      4127
 -1      2081    8    0    1
 -2      1011       957      1081      3912      4131      4132
 -1      2082    8    0    1
 -2       957      1075      1081      4112      4133      4131
 -1      2083    8    0    1
 -2      1010      1017      1075      4046      4134      4111
 -1      2084    8    0    1
 -2      1004       956      1027      4116      3972      4135
 -1      2085    8    0    1
 -2      1022      1072      1082      4105      4136      4137
 -1      2086    8    0    1
 -2      1028      1015      1083      3973      4138      4139
 -1      2087    8    0    1
 -2      1015      1026      1083      3969      4140      4138
 -1      2088    8    0    1
 -2      1016      1028      1084      3974      4141      4142
 -1      2089    8    0    1
 -2      1003      1014      1069      3929      4143      4096
 -1      2090    8    0    1
 -2       935      1021      1085      3958      4144      4145
 -1      2091    8    0    1
 -2       980      1049      1025      4035      4146      4091
 -1      2092    8    0    1
 -2      1009      1052      1073      4043      4147      4108
 -1      2093    8    0    1
 -2      1012       951      1071      3917      4102      4148
 -1      2094    8    0    1
 -2      1052      1004      1027      4042      4135      4149
 -1      2095    8    0    1
 -2      1014       924      1020      3930      3944      4150
 -1      2096    8    0    1
 -2       982      1078      1053      4121      4151      4044
 -1      2097    8    0    1
 -2      1067       999      1024      4086      4090      4152
 -1      2098    8    0    1
 -2      1076      1022      1082      4113      4137      4153
 -1      2099    8    0    1
 -2      1068      1019      1086      4092      4154      4155
 -1      2100    8    0    1
 -2      1019      1025      1086      3963      4156      4154
 -1      2101    8    0    1
 -2      1071      1016      1084      4100      4142      4157
 -1      2102    8    0    1
 -2      1017      1073      1075      4107      4158      4134
 -1      2103    8    0    1
 -2      1074      1005      1012      4109      3916      4159
 -1      2104    8    0    1
 -2      1024      1023      1067      3956      4160      4152
 -1      2105    8    0    1
 -2      1067      1023      1068      4160      4093      4161
 -1      2106    8    0    1
 -2      1000      1077      1072      4118      4162      4163
 -1      2107    8    0    1
 -2      1021      1070      1029      4098      4164      4165
 -1      2108    8    0    1
 -2      1026      1011      1083      4103      4166      4140
 -1      2109    8    0    1
 -2      1011      1081      1083      4132      4167      4166
 -1      2110    8    0    1
 -2      1020      1000      1072      3942      4163      4168
 -1      2111    8    0    1
 -2      1028      1083      1087      4139      4169      4170
 -1      2112    8    0    1
 -2      1083      1081      1087      4167      4171      4169
 -1      2113    8    0    1
 -2      1084      1028      1088      4141      4172      4173
 -1      2114    8    0    1
 -2      1028      1087      1088      4170      4174      4172
 -1      2115    8    0    1
 -2      1069      1014      1079      4143      4175      4126
 -1      2116    8    0    1
 -2      1085      1021      1029      4144      4165      4176
 -1      2117    8    0    1
 -2      1025      1049      1086      4146      4177      4156
 -1      2118    8    0    1
 -2      1031      1030      1089      3982      4178      4179
 -1      2119    8    0    1
 -2      1032      1031      1090      3985      4180      4181
 -1      2120    8    0    1
 -2      1031      1089      1090      4179      4182      4180
 -1      2121    8    0    1
 -2      1033      1032      1091      3988      4183      4184
 -1      2122    8    0    1
 -2      1032      1090      1091      4181      4185      4183
 -1      2123    8    0    1
 -2      1034      1033      1092      3991      4186      4187
 -1      2124    8    0    1
 -2      1033      1091      1092      4184      4188      4186
 -1      2125    8    0    1
 -2      1035      1034      1093      3994      4189      4190
 -1      2126    8    0    1
 -2      1034      1092      1093      4187      4191      4189
 -1      2127    8    0    1
 -2      1036      1035      1094      3997      4192      4193
 -1      2128    8    0    1
 -2      1035      1093      1094      4190      4194      4192
 -1      2129    8    0    1
 -2      1037      1036      1095      4000      4195      4196
 -1      2130    8    0    1
 -2      1036      1094      1095      4193      4197      4195
 -1      2131    8    0    1
 -2      1038      1037      1096      4003      4198      4199
 -1      2132    8    0    1
 -2      1037      1095      1096      4196      4200      4198
 -1      2133    8    0    1
 -2      1039      1038      1097      4006      4201      4202
 -1      2134    8    0    1
 -2      1038      1096      1097      4199      4203      4201
 -1      2135    8    0    1
 -2      1040      1039      1098      4009      4204      4205
 -1      2136    8    0    1
 -2      1039      1097      1098      4202      4206      4204
 -1      2137    8    0    1
 -2      1041      1040      1099      4012      4207      4208
 -1      2138    8    0    1
 -2      1040      1098      1099      4205      4209      4207
 -1      2139    8    0    1
 -2      1042      1041      1100      4015      4210      4211
 -1      2140    8    0    1
 -2      1041      1099      1100      4208      4212      4210
 -1      2141    8    0    1
 -2      1043      1042      1101      4018      4213      4214
 -1      2142    8    0    1
 -2      1042      1100      1101      4211      4215      4213
 -1      2143    8    0    1
 -2      1044      1043      1102      4021      4216      4217
 -1      2144    8    0    1
 -2      1043      1101      1102      4214      4218      4216
 -1      2145    8    0    1
 -2      1045      1044      1103      4024      4219      4220
 -1      2146    8    0    1
 -2      1044      1102      1103      4217      4221      4219
 -1      2147    8    0    1
 -2      1046      1045      1104      4027      4222      4223
 -1      2148    8    0    1
 -2      1045      1103      1104      4220      4224      4222
 -1      2149    8    0    1
 -2      1047      1046      1105      4030      4225      4226
 -1      2150    8    0    1
 -2      1046      1104      1105      4223      4227      4225
 -1      2151    8    0    1
 -2      1048      1047      1106      4033      4228      4229
 -1      2152    8    0    1
 -2      1047      1105      1106      4226      4230      4228
 -1      2153    8    0    1
 -2      1049      1048      1107      4036      4231      4232
 -1      2154    8    0    1
 -2      1086      1049      1107      4177      4232      4233
 -1      2155    8    0    1
 -2      1048      1106      1107      4229      4234      4231
 -1      2156    8    0    1
 -2      1054      1055      1108      4052      4235      4236
 -1      2157    8    0    1
 -2      1081      1075      1087      4133      4237      4171
 -1      2158    8    0    1
 -2      1055      1056      1109      4055      4238      4239
 -1      2159    8    0    1
 -2      1055      1109      1108      4239      4240      4235
 -1      2160    8    0    1
 -2      1056      1057      1110      4058      4241      4242
 -1      2161    8    0    1
 -2      1056      1110      1109      4242      4243      4238
 -1      2162    8    0    1
 -2      1057      1058      1111      4061      4244      4245
 -1      2163    8    0    1
 -2      1057      1111      1110      4245      4246      4241
 -1      2164    8    0    1
 -2      1058      1059      1112      4064      4247      4248
 -1      2165    8    0    1
 -2      1058      1112      1111      4248      4249      4244
 -1      2166    8    0    1
 -2      1059      1060      1113      4067      4250      4251
 -1      2167    8    0    1
 -2      1059      1113      1112      4251      4252      4247
 -1      2168    8    0    1
 -2      1060      1061      1114      4070      4253      4254
 -1      2169    8    0    1
 -2      1060      1114      1113      4254      4255      4250
 -1      2170    8    0    1
 -2      1061      1062      1115      4073      4256      4257
 -1      2171    8    0    1
 -2      1061      1115      1114      4257      4258      4253
 -1      2172    8    0    1
 -2      1062      1063      1116      4076      4259      4260
 -1      2173    8    0    1
 -2      1062      1116      1115      4260      4261      4256
 -1      2174    8    0    1
 -2      1063      1064      1117      4079      4262      4263
 -1      2175    8    0    1
 -2      1063      1117      1116      4263      4264      4259
 -1      2176    8    0    1
 -2      1064      1065      1118      4082      4265      4266
 -1      2177    8    0    1
 -2      1064      1118      1117      4266      4267      4262
 -1      2178    8    0    1
 -2      1065      1066      1119      4085      4268      4269
 -1      2179    8    0    1
 -2      1065      1119      1118      4269      4270      4265
 -1      2180    8    0    1
 -2      1066      1067      1120      4088      4271      4272
 -1      2181    8    0    1
 -2      1119      1066      1120      4268      4272      4273
 -1      2182    8    0    1
 -2      1067      1068      1120      4161      4274      4271
 -1      2183    8    0    1
 -2      1073      1052      1121      4147      4275      4276
 -1      2184    8    0    1
 -2       958       847       935      3918      3658      4277
 -1      2185    8    0    1
 -2      1053      1078      1122      4151      4278      4279
 -1      2186    8    0    1
 -2      1082      1072      1077      4136      4162      4280
 -1      2187    8    0    1
 -2      1012      1071      1074      4148      4281      4159
 -1      2188    8    0    1
 -2      1029      1070      1123      4164      4282      4283
 -1      2189    8    0    1
 -2      1030      1029      1123      3979      4283      4284
 -1      2190    8    0    1
 -2      1070      1076      1123      4115      4285      4282
 -1      2191    8    0    1
 -2      1074      1071      1084      4281      4157      4286
 -1      2192    8    0    1
 -2      1074      1084      1124      4286      4287      4288
 -1      2193    8    0    1
 -2      1080      1074      1124      4130      4288      4289
 -1      2194    8    0    1
 -2      1084      1088      1124      4173      4290      4287
 -1      2195    8    0    1
 -2      1077      1053      1125      4119      4291      4292
 -1      2196    8    0    1
 -2      1053      1122      1125      4279      4293      4291
 -1      2197    8    0    1
 -2      1078      1051      1126      4122      4294      4295
 -1      2198    8    0    1
 -2      1078      1126      1122      4295      4296      4278
 -1      2199    8    0    1
 -2      1020      1072      1079      4168      4125      4297
 -1      2200    8    0    1
 -2      1075      1073      1121      4158      4276      4298
 -1      2201    8    0    1
 -2      1050      1054      1127      4049      4299      4300
 -1      2202    8    0    1
 -2      1054      1108      1127      4236      4301      4299
 -1      2203    8    0    1
 -2      1076      1082      1089      4153      4302      4303
 -1      2204    8    0    1
 -2      1051      1050      1128      4041      4304      4305
 -1      2205    8    0    1
 -2      1050      1127      1128      4300      4306      4304
 -1      2206    8    0    1
 -2      1082      1077      1125      4280      4292      4307
 -1      2207    8    0    1
 -2      1087      1075      1121      4237      4298      4308
 -1      2208    8    0    1
 -2      1120      1068      1107      4274      4309      4310
 -1      2209    8    0    1
 -2      1014      1020      1079      4150      4297      4175
 -1      2210    8    0    1
 -2      1068      1086      1107      4155      4233      4309
 -1      2211    8    0    1
 -2      1126      1051      1128      4294      4305      4311
 -1      2212    8    0    1
 -2      1082      1125      1089      4307      4312      4302
 -1      2213    8    0    1
 -2      1052      1027      1129      4149      4313      4314
 -1      2214    8    0    1
 -2      1052      1129      1121      4314      4315      4275
 -1      2215    8    0    1
 -2      1129      1027      1080      4313      4129      4316
 -1      2216    8    0    1
 -2      1108      1109      1130      4240      4317      4318
 -1      2217    8    0    1
 -2      1088      1087      1121      4174      4308      4319
 -1      2218    8    0    1
 -2      1090      1089      1125      4182      4312      4320
 -1      2219    8    0    1
 -2      1089      1030      1123      4178      4284      4321
 -1      2220    8    0    1
 -2      1091      1090      1122      4185      4322      4323
 -1      2221    8    0    1
 -2      1092      1091      1126      4188      4324      4325
 -1      2222    8    0    1
 -2      1093      1092      1128      4191      4326      4327
 -1      2223    8    0    1
 -2      1094      1093      1127      4194      4328      4329
 -1      2224    8    0    1
 -2      1096      1095      1130      4200      4330      4331
 -1      2225    8    0    1
 -2      1097      1096      1131      4203      4332      4333
 -1      2226    8    0    1
 -2      1098      1097      1111      4206      4334      4335
 -1      2227    8    0    1
 -2      1099      1098      1112      4209      4336      4337
 -1      2228    8    0    1
 -2      1100      1099      1113      4212      4338      4339
 -1      2229    8    0    1
 -2      1101      1100      1114      4215      4340      4341
 -1      2230    8    0    1
 -2      1102      1101      1115      4218      4342      4343
 -1      2231    8    0    1
 -2      1103      1102      1116      4221      4344      4345
 -1      2232    8    0    1
 -2      1104      1103      1117      4224      4346      4347
 -1      2233    8    0    1
 -2      1105      1104      1118      4227      4348      4349
 -1      2234    8    0    1
 -2      1106      1105      1119      4230      4350      4351
 -1      2235    8    0    1
 -2      1126      1128      1092      4311      4326      4325
 -1      2236    8    0    1
 -2      1122      1126      1091      4296      4324      4323
 -1      2237    8    0    1
 -2      1111      1112      1098      4249      4336      4335
 -1      2238    8    0    1
 -2      1112      1113      1099      4252      4338      4337
 -1      2239    8    0    1
 -2      1113      1114      1100      4255      4340      4339
 -1      2240    8    0    1
 -2      1114      1115      1101      4258      4342      4341
 -1      2241    8    0    1
 -2      1115      1116      1102      4261      4344      4343
 -1      2242    8    0    1
 -2      1116      1117      1103      4264      4346      4345
 -1      2243    8    0    1
 -2      1117      1118      1104      4267      4348      4347
 -1      2244    8    0    1
 -2      1118      1119      1105      4270      4350      4349
 -1      2245    8    0    1
 -2      1119      1120      1106      4273      4352      4351
 -1      2246    8    0    1
 -2      1125      1122      1090      4293      4322      4320
 -1      2247    8    0    1
 -2      1109      1110      1131      4243      4353      4354
 -1      2248    8    0    1
 -2      1128      1127      1093      4306      4328      4327
 -1      2249    8    0    1
 -2      1127      1108      1094      4301      4355      4329
 -1      2250    8    0    1
 -2      1088      1121      1129      4319      4315      4356
 -1      2251    8    0    1
 -2      1076      1089      1123      4303      4321      4285
 -1      2252    8    0    1
 -2      1094      1108      1095      4355      4357      4197
 -1      2253    8    0    1
 -2      1088      1129      1124      4356      4358      4290
 -1      2254    8    0    1
 -2      1096      1130      1131      4331      4359      4332
 -1      2255    8    0    1
 -2      1106      1120      1107      4352      4310      4234
 -1      2256    8    0    1
 -2      1110      1111      1097      4246      4334      4360
 -1      2257    8    0    1
 -2      1109      1131      1130      4354      4359      4317
 -1      2258    8    0    1
 -2      1129      1080      1124      4316      4289      4358
 -1      2259    8    0    1
 -2       958       935      1085      4277      4145      4361
 -1      2260    8    0    1
 -2      1029       958      1085      3975      4361      4176
 -1      2261    8    0    1
 -2      1110      1097      1131      4360      4333      4353
 -1      2262    8    0    1
 -2      1095      1108      1130      4357      4318      4330
 -3
    1PSTEP                         1           1           1          
  100CL  101 1.000000000        4361                     0    1           1
 -4  DISP        4    1
 -5  D1          1    2    1    0
 -5  D2          1    2    2    0
 -5  D3          1    2    3    0
 -5  ALL         1    2    0    0    1ALL
 -1         1 2.95217E-03-1.16522E-04-1.27740E-14
 -1         2 7.34088E-03-7.05810E-05-2.27975E-14
 -1         3 1.51118E-02 3.54024E-04-1.41442E-13
 -1         4 1.52930E-02-1.07679E-03-1.49629E-13
 -1         5 0.00000E+00 0.00000E+00 0.00000E+00
 -1         6 0.00000E+00 0.00000E+00 0.00000E+00
 -1         7 0.00000E+00 0.00000E+00 0.00000E+00
 -1         8 0.00000E+00 0.00000E+00 0.00000E+00
 -1         9 0.00000E+00 0.00000E+00 0.00000E+00
 -1        10 0.00000E+00 0.00000E+00 0.00000E+00
 -1        11 0.00000E+00 0.00000E+00 0.00000E+00
 -1        12 0.00000E+00 0.00000E+00 0.00000E+00
 -1        13 0.00000E+00 0.00000E+00 0.00000E+00
 -1        14 0.00000E+00 0.00000E+00 0.00000E+00
 -1        15 0.00000E+00 0.00000E+00 0.00000E+00
 -1        16 0.00000E+00 0.00000E+00 0.00000E+00
 -1        17 0.00000E+00 0.00000E+00 0.00000E+00
 -1        18 0.00000E+00 0.00000E+00 0.00000E+00
 -1        19 0.00000E+00 0.00000E+00 0.00000E+00
 -1        20 0.00000E+00 0.00000E+00 0.00000E+00
 -1        21 0.00000E+00 0.00000E+00 0.00000E+00
 -1        22 0.00000E+00 0.00000E+00 0.00000E+00
 -1        23 4.11072E-04-2.49274E-04 2.70373E-17
 -1        24 7.10615E-04-3.75634E-04-1.10738E-16
 -1        25 9.94541E-04-4.59897E-04-4.06708E-16
 -1        26 1.27866E-03-5.17696E-04-8.56056E-16
 -1        27 1.56829E-03-5.59287E-04-1.45455E-15
 -1        28 1.86666E-03-5.91663E-04-2.20014E-15
 -1        29 2.17602E-03-6.20903E-04-3.09138E-15
 -1        30 2.49772E-03-6.52989E-04-4.12260E-15
 -1        31 2.83193E-03-6.94084E-04-5.29413E-15
 -1        32 3.17693E-03-7.50265E-04-6.60522E-15
 -1        33 3.52824E-03-8.26461E-04-8.05598E-15
 -1        34 3.87802E-03-9.24352E-04-9.64343E-15
 -1        35 4.21563E-03-1.03939E-03-1.13781E-14
 -1        36 4.53047E-03-1.15824E-03-1.32615E-14
 -1        37 4.81704E-03-1.25930E-03-1.52914E-14
 -1        38 5.07996E-03-1.31874E-03-1.74730E-14
 -1        39 5.33442E-03-1.32092E-03-1.97940E-14
 -1        40 5.59999E-03-1.26668E-03-2.22467E-14
 -1        41 5.89122E-03-1.17296E-03-2.48311E-14
 -1        42 6.21189E-03-1.06404E-03-2.75408E-14
 -1        43 6.55604E-03-9.61373E-04-3.03684E-14
 -1        44 6.91305E-03-8.78013E-04-3.33096E-14
 -1        45 7.27265E-03-8.18507E-04-3.63630E-14
 -1        46 7.62746E-03-7.81631E-04-3.95308E-14
 -1        47 7.97341E-03-7.63382E-04-4.28053E-14
 -1        48 8.30906E-03-7.59078E-04-4.61858E-14
 -1        49 8.63459E-03-7.64458E-04-4.96615E-14
 -1        50 8.95108E-03-7.76097E-04-5.32366E-14
 -1        51 9.25994E-03-7.91445E-04-5.69125E-14
 -1        52 9.56261E-03-8.08707E-04-6.06866E-14
 -1        53 9.86043E-03-8.26684E-04-6.45400E-14
 -1        54 1.01545E-02-8.44614E-04-6.84799E-14
 -1        55 1.04458E-02-8.62050E-04-7.24989E-14
 -1        56 1.07351E-02-8.78759E-04-7.65836E-14
 -1        57 1.10229E-02-8.94652E-04-8.07282E-14
 -1        58 1.13098E-02-9.09729E-04-8.49288E-14
 -1        59 1.15959E-02-9.24043E-04-8.91984E-14
 -1        60 1.18816E-02-9.37677E-04-9.35165E-14
 -1        61 1.21670E-02-9.50723E-04-9.78924E-14
 -1        62 1.24524E-02-9.63277E-04-1.02324E-13
 -1        63 1.27376E-02-9.75429E-04-1.06841E-13
 -1        64 1.30229E-02-9.87260E-04-1.11442E-13
 -1        65 1.33082E-02-9.98844E-04-1.16125E-13
 -1        66 1.35936E-02-1.01024E-03-1.20877E-13
 -1        67 1.38791E-02-1.02151E-03-1.25669E-13
 -1        68 1.41646E-02-1.03270E-03-1.30480E-13
 -1        69 1.44502E-02-1.04385E-03-1.35313E-13
 -1        70 1.47359E-02-1.05499E-03-1.40147E-13
 -1        71 1.50216E-02-1.06615E-03-1.44999E-13
 -1        72 4.13274E-04 2.50274E-04 7.68056E-17
 -1        73 7.10413E-04 3.78996E-04 3.20856E-17
 -1        74 9.94722E-04 4.62883E-04-1.34024E-16
 -1        75 1.27853E-03 5.21244E-04-4.26772E-16
 -1        76 1.56723E-03 5.63615E-04-8.46806E-16
 -1        77 1.86390E-03 5.96864E-04-1.39593E-15
 -1        78 2.17039E-03 6.26864E-04-2.07331E-15
 -1        79 2.48756E-03 6.59192E-04-2.87775E-15
 -1        80 2.81502E-03 6.99294E-04-3.81056E-15
 -1        81 3.15057E-03 7.52129E-04-4.86969E-15
 -1        82 3.48968E-03 8.21154E-04-6.05618E-15
 -1        83 3.82524E-03 9.06582E-04-7.37017E-15
 -1        84 4.14850E-03 1.00324E-03-8.81106E-15
 -1        85 4.45147E-03 1.09915E-03-1.03843E-14
 -1        86 4.73082E-03 1.17665E-03-1.20969E-14
 -1        87 4.99108E-03 1.21733E-03-1.39495E-14
 -1        88 5.24463E-03 1.20948E-03-1.59413E-14
 -1        89 5.50703E-03 1.15370E-03-1.80711E-14
 -1        90 5.79031E-03 1.06265E-03-2.03444E-14
 -1        91 6.09853E-03 9.55211E-04-2.27608E-14
 -1        92 6.42799E-03 8.49088E-04-2.53188E-14
 -1        93 6.77071E-03 7.56213E-04-2.80158E-14
 -1        94 7.11817E-03 6.81921E-04-3.08503E-14
 -1        95 7.46366E-03 6.26518E-04-3.38108E-14
 -1        96 7.80300E-03 5.87480E-04-3.68881E-14
 -1        97 8.13421E-03 5.61219E-04-4.00692E-14
 -1        98 8.45694E-03 5.44162E-04-4.33522E-14
 -1        99 8.77172E-03 5.33265E-04-4.67343E-14
 -1       100 9.07960E-03 5.26154E-04-5.02148E-14
 -1       101 9.38175E-03 5.21097E-04-5.38004E-14
 -1       102 9.67929E-03 5.16898E-04-5.74778E-14
 -1       103 9.97327E-03 5.12775E-04-6.12393E-14
 -1       104 1.02645E-02 5.08254E-04-6.50839E-14
 -1       105 1.05538E-02 5.03078E-04-6.90146E-14
 -1       106 1.08416E-02 4.97135E-04-7.30492E-14
 -1       107 1.11285E-02 4.90410E-04-7.71948E-14
 -1       108 1.14146E-02 4.82944E-04-8.14452E-14
 -1       109 1.17003E-02 4.74811E-04-8.57806E-14
 -1       110 1.19858E-02 4.66099E-04-9.01973E-14
 -1       111 1.22711E-02 4.56901E-04-9.46901E-14
 -1       112 1.25564E-02 4.47303E-04-9.92438E-14
 -1       113 1.28417E-02 4.37387E-04-1.03855E-13
 -1       114 1.31270E-02 4.27223E-04-1.08528E-13
 -1       115 1.34124E-02 4.16876E-04-1.13233E-13
 -1       116 1.36979E-02 4.06399E-04-1.17944E-13
 -1       117 1.39834E-02 3.95840E-04-1.22667E-13
 -1       118 1.42690E-02 3.85240E-04-1.27418E-13
 -1       119 1.45547E-02 3.74635E-04-1.32179E-13
 -1       120 1.48404E-02 3.64052E-04-1.36941E-13
 -1       121 1.51222E-02 2.69741E-04-1.41977E-13
 -1       122 1.51325E-02 1.85443E-04-1.42525E-13
 -1       123 1.51428E-02 1.01108E-04-1.43064E-13
 -1       124 1.51532E-02 1.67224E-05-1.43605E-13
 -1       125 1.51635E-02-6.77151E-05-1.44131E-13
 -1       126 1.51738E-02-1.50766E-04-1.44648E-13
 -1       127 1.51843E-02-2.35283E-04-1.45172E-13
 -1       128 1.51949E-02-3.19823E-04-1.45691E-13
 -1       129 1.52056E-02-4.04370E-04-1.46202E-13
 -1       130 1.52164E-02-4.88909E-04-1.46687E-13
 -1       131 1.52272E-02-5.73426E-04-1.47154E-13
 -1       132 1.52380E-02-6.56476E-04-1.47604E-13
 -1       133 1.52490E-02-7.40913E-04-1.48039E-13
 -1       134 1.52601E-02-8.25298E-04-1.48458E-13
 -1       135 1.52711E-02-9.09632E-04-1.48860E-13
 -1       136 1.52822E-02-9.93930E-04-1.49247E-13
 -1       137 7.28803E-03 1.03046E-04-2.25524E-14
 -1       138 7.12460E-03 2.80402E-04-2.20144E-14
 -1       139 6.86869E-03 4.40818E-04-2.12562E-14
 -1       140 6.54052E-03 5.74496E-04-2.03495E-14
 -1       141 6.14408E-03 6.82258E-04-1.93122E-14
 -1       142 5.71195E-03 7.53502E-04-1.82445E-14
 -1       143 5.21479E-03 7.88239E-04-1.70790E-14
 -1       144 4.75885E-03 7.78689E-04-1.60708E-14
 -1       145 4.31058E-03 7.29439E-04-1.51297E-14
 -1       146 3.89761E-03 6.43044E-04-1.43070E-14
 -1       147 3.53524E-03 5.22498E-04-1.36247E-14
 -1       148 3.25818E-03 3.82241E-04-1.31390E-14
 -1       149 3.06542E-03 2.25754E-04-1.28334E-14
 -1       150 2.95954E-03 5.43178E-05-1.27074E-14
 -1       151 3.04610E-03-2.95955E-04-1.30443E-14
 -1       152 3.23057E-03-4.59635E-04-1.34908E-14
 -1       153 3.49944E-03-6.07982E-04-1.41068E-14
 -1       154 3.84392E-03-7.35931E-04-1.48891E-14
 -1       155 4.28282E-03-8.42326E-04-1.58825E-14
 -1       156 4.77172E-03-9.05065E-04-1.69956E-14
 -1       157 5.23681E-03-9.20682E-04-1.80583E-14
 -1       158 5.73782E-03-8.90289E-04-1.92233E-14
 -1       159 6.19287E-03-8.16797E-04-2.02839E-14
 -1       160 6.58421E-03-7.09312E-04-2.11988E-14
 -1       161 6.92127E-03-5.66391E-04-2.19822E-14
 -1       162 7.15131E-03-4.12959E-04-2.24974E-14
 -1       163 7.29873E-03-2.40256E-04-2.27862E-14
 -1       164 2.45906E-04-1.13436E-04-3.71576E-17
 -1       165 2.29988E-04-8.05427E-05-5.62565E-17
 -1       166 2.22089E-04-5.79973E-05-6.60110E-17
 -1       167 2.16653E-04-4.10948E-05-7.06595E-17
 -1       168 2.12631E-04-2.80880E-05-7.24078E-17
 -1       169 2.09678E-04-1.73911E-05-7.26111E-17
 -1       170 2.07897E-04-8.32470E-06-7.15370E-17
 -1       171 2.07342E-04-2.77617E-08-6.98836E-17
 -1       172 2.08025E-04 8.33853E-06-6.73662E-17
 -1       173 2.09902E-04 1.76005E-05-6.40357E-17
 -1       174 2.12839E-04 2.83837E-05-5.95159E-17
 -1       175 2.16916E-04 4.19418E-05-5.26854E-17
 -1       176 2.22313E-04 5.92503E-05-4.25956E-17
 -1       177 2.30125E-04 8.22494E-05-2.68984E-17
 -1       178 2.44795E-04 1.15802E-04-1.68051E-18
 -1       179 3.02495E-04 1.74156E-04 2.62580E-17
 -1       180 4.78569E-04-2.42806E-04-9.93773E-17
 -1       181 7.87157E-04-3.46604E-04-3.41785E-16
 -1       182 1.08547E-03-4.16074E-04-7.30535E-16
 -1       183 1.38202E-03-4.63911E-04-1.26472E-15
 -1       184 1.68121E-03-4.98392E-04-1.94249E-15
 -1       185 1.98597E-03-5.26147E-04-2.76274E-15
 -1       186 2.29819E-03-5.53349E-04-3.72231E-15
 -1       187 2.61885E-03-5.86327E-04-4.81865E-15
 -1       188 2.94788E-03-6.31668E-04-6.05100E-15
 -1       189 3.28377E-03-6.95641E-04-7.42037E-15
 -1       190 3.62325E-03-7.82622E-04-8.92589E-15
 -1       191 3.96116E-03-8.92287E-04-1.05698E-14
 -1       192 4.29122E-03-1.01612E-03-1.23598E-14
 -1       193 4.60812E-03-1.13534E-03-1.42960E-14
 -1       194 4.91070E-03-1.22378E-03-1.63823E-14
 -1       195 5.20413E-03-1.25764E-03-1.86146E-14
 -1       196 5.49845E-03-1.22774E-03-2.09851E-14
 -1       197 5.80349E-03-1.14501E-03-2.34909E-14
 -1       198 6.12395E-03-1.03418E-03-2.61275E-14
 -1       199 6.45827E-03-9.21403E-04-2.88849E-14
 -1       200 6.80104E-03-8.25061E-04-3.17587E-14
 -1       201 7.14607E-03-7.53428E-04-3.47428E-14
 -1       202 7.48841E-03-7.07036E-04-3.78387E-14
 -1       203 7.82493E-03-6.82227E-04-4.10470E-14
 -1       204 8.15415E-03-6.73933E-04-4.43603E-14
 -1       205 8.47578E-03-6.77273E-04-4.77759E-14
 -1       206 8.79028E-03-6.88217E-04-5.12875E-14
 -1       207 9.09849E-03-7.03723E-04-5.48989E-14
 -1       208 9.40137E-03-7.21632E-04-5.86079E-14
 -1       209 9.69991E-03-7.40496E-04-6.24108E-14
 -1       210 9.99498E-03-7.59392E-04-6.62955E-14
 -1       211 1.02874E-02-7.77774E-04-7.02603E-14
 -1       212 1.05777E-02-7.95352E-04-7.43022E-14
 -1       213 1.08664E-02-8.12010E-04-7.84067E-14
 -1       214 1.11541E-02-8.27740E-04-8.25726E-14
 -1       215 1.14410E-02-8.42596E-04-8.68051E-14
 -1       216 1.17273E-02-8.56670E-04-9.10936E-14
 -1       217 1.20132E-02-8.70066E-04-9.54380E-14
 -1       218 1.22989E-02-8.82893E-04-9.98374E-14
 -1       219 1.25845E-02-8.95253E-04-1.04310E-13
 -1       220 1.28700E-02-9.07238E-04-1.08863E-13
 -1       221 1.31555E-02-9.18931E-04-1.13494E-13
 -1       222 1.34410E-02-9.30404E-04-1.18196E-13
 -1       223 1.37265E-02-9.41718E-04-1.22956E-13
 -1       224 1.40121E-02-9.52926E-04-1.27744E-13
 -1       225 1.42977E-02-9.64073E-04-1.32559E-13
 -1       226 1.45834E-02-9.75200E-04-1.37389E-13
 -1       227 1.48690E-02-9.86341E-04-1.42232E-13
 -1       228 6.17417E-04 3.05291E-04-4.33308E-17
 -1       229 9.18439E-04 3.93210E-04-2.27283E-16
 -1       230 1.21359E-03 4.53292E-04-5.32973E-16
 -1       231 1.50905E-03 4.95822E-04-9.63829E-16
 -1       232 1.80847E-03 5.28095E-04-1.52098E-15
 -1       233 2.11407E-03 5.56244E-04-2.20525E-15
 -1       234 2.42700E-03 5.86074E-04-3.01637E-15
 -1       235 2.74739E-03 6.23331E-04-3.95324E-15
 -1       236 3.07406E-03 6.73433E-04-5.01463E-15
 -1       237 3.40436E-03 7.40518E-04-6.20218E-15
 -1       238 3.73401E-03 8.25672E-04-7.51677E-15
 -1       239 4.05761E-03 9.24541E-04-8.95820E-15
 -1       240 4.37004E-03 1.02541E-03-1.05323E-14
 -1       241 4.66870E-03 1.10981E-03-1.22438E-14
 -1       242 4.95567E-03 1.15737E-03-1.40948E-14
 -1       243 5.23796E-03 1.15412E-03-1.60853E-14
 -1       244 5.52488E-03 1.09940E-03-1.82172E-14
 -1       245 5.82392E-03 1.00622E-03-2.04890E-14
 -1       246 6.13776E-03 8.94967E-04-2.29017E-14
 -1       247 6.46431E-03 7.84919E-04-2.54601E-14
 -1       248 6.79868E-03 6.89003E-04-2.81547E-14
 -1       249 7.13555E-03 6.12894E-04-3.09846E-14
 -1       250 7.47054E-03 5.56800E-04-3.39383E-14
 -1       251 7.80079E-03 5.17905E-04-3.70089E-14
 -1       252 8.12486E-03 4.92313E-04-4.01888E-14
 -1       253 8.44237E-03 4.76195E-04-4.34698E-14
 -1       254 8.75361E-03 4.66324E-04-4.68508E-14
 -1       255 9.05926E-03 4.60212E-04-5.03283E-14
 -1       256 9.36017E-03 4.56062E-04-5.39094E-14
 -1       257 9.65716E-03 4.52648E-04-5.75829E-14
 -1       258 9.95105E-03 4.49182E-04-6.13424E-14
 -1       259 1.02425E-02 4.45196E-04-6.51874E-14
 -1       260 1.05321E-02 4.40444E-04-6.91214E-14
 -1       261 1.08204E-02 4.34831E-04-7.31519E-14
 -1       262 1.11077E-02 4.28356E-04-7.72880E-14
 -1       263 1.13943E-02 4.21077E-04-8.15222E-14
 -1       264 1.16804E-02 4.13079E-04-8.58416E-14
 -1       265 1.19662E-02 4.04464E-04-9.02400E-14
 -1       266 1.22518E-02 3.95331E-04-9.47147E-14
 -1       267 1.25373E-02 3.85775E-04-9.92555E-14
 -1       268 1.28227E-02 3.75884E-04-1.03856E-13
 -1       269 1.31082E-02 3.65733E-04-1.08515E-13
 -1       270 1.33937E-02 3.55389E-04-1.13206E-13
 -1       271 1.36792E-02 3.44909E-04-1.17914E-13
 -1       272 1.39648E-02 3.34342E-04-1.22636E-13
 -1       273 1.42504E-02 3.23732E-04-1.27380E-13
 -1       274 1.45361E-02 3.13116E-04-1.32138E-13
 -1       275 1.48218E-02 3.02525E-04-1.36896E-13
 -1       276 1.48799E-02 2.36727E-04-1.38141E-13
 -1       277 1.48902E-02 1.52409E-04-1.38674E-13
 -1       278 1.49005E-02 6.80595E-05-1.39206E-13
 -1       279 1.49109E-02-1.63238E-05-1.39735E-13
 -1       280 1.49211E-02-9.93081E-05-1.40248E-13
 -1       281 1.49315E-02-1.83749E-04-1.40766E-13
 -1       282 1.49421E-02-2.68209E-04-1.41275E-13
 -1       283 1.49527E-02-3.52679E-04-1.41771E-13
 -1       284 1.49635E-02-4.37149E-04-1.42255E-13
 -1       285 1.49743E-02-5.21609E-04-1.42724E-13
 -1       286 1.49850E-02-6.04619E-04-1.43172E-13
 -1       287 1.49961E-02-6.89034E-04-1.43608E-13
 -1       288 1.50071E-02-7.73417E-04-1.44029E-13
 -1       289 1.50182E-02-8.57766E-04-1.44435E-13
 -1       290 1.49436E-02-9.22061E-04-1.43335E-13
 -1       291 7.34753E-03-2.66529E-05-2.37516E-14
 -1       292 7.19649E-03 6.50347E-05-2.35320E-14
 -1       293 6.91956E-03 2.20449E-04-2.25193E-14
 -1       294 6.57276E-03 3.96006E-04-2.14467E-14
 -1       295 6.17225E-03 5.70777E-04-2.03348E-14
 -1       296 5.79518E-03 7.33995E-04-1.90154E-14
 -1       297 5.39660E-03 8.42367E-04-1.76990E-14
 -1       298 5.01335E-03 8.61109E-04-1.64300E-14
 -1       299 4.63911E-03 7.97822E-04-1.53086E-14
 -1       300 4.25281E-03 6.66329E-04-1.43079E-14
 -1       301 3.86812E-03 4.92206E-04-1.34306E-14
 -1       302 3.49793E-03 3.24827E-04-1.28181E-14
 -1       303 3.20118E-03 1.79002E-04-1.23821E-14
 -1       304 2.99632E-03 5.34973E-05-1.20575E-14
 -1       305 2.91717E-03-3.73396E-05-1.21107E-14
 -1       306 2.97611E-03-1.34815E-04-1.22916E-14
 -1       307 3.16874E-03-2.53284E-04-1.26840E-14
 -1       308 3.45943E-03-3.99297E-04-1.32720E-14
 -1       309 3.84092E-03-5.54735E-04-1.39309E-14
 -1       310 4.17103E-03-7.26847E-04-1.48625E-14
 -1       311 4.64561E-03-9.14378E-04-1.62560E-14
 -1       312 5.03663E-03-9.90394E-04-1.75397E-14
 -1       313 5.42280E-03-9.81453E-04-1.88903E-14
 -1       314 5.83557E-03-8.70453E-04-2.01972E-14
 -1       315 6.23543E-03-7.08899E-04-2.13985E-14
 -1       316 6.61660E-03-5.15635E-04-2.25567E-14
 -1       317 6.96958E-03-3.59050E-04-2.32364E-14
 -1       318 7.21964E-03-2.08185E-04-2.40267E-14
 -1       319 7.35342E-03-1.19224E-04-2.39048E-14
 -1       320 4.63198E-04-1.36793E-04-2.23203E-16
 -1       321 4.86107E-04-1.86440E-04-1.93642E-16
 -1       322 4.36420E-04-6.98204E-05-2.47439E-16
 -1       323 4.27991E-04-4.60387E-05-2.49895E-16
 -1       324 4.22353E-04-2.61285E-05-2.48814E-16
 -1       325 4.19598E-04-8.43442E-06-2.45125E-16
 -1       326 4.19797E-04 8.62600E-06-2.38894E-16
 -1       327 4.22909E-04 2.66038E-05-2.30064E-16
 -1       328 4.28668E-04 4.66632E-05-2.18443E-16
 -1       329 4.37163E-04 7.10568E-05-2.02532E-16
 -1       330 4.48513E-04 1.01285E-04-1.80591E-16
 -1       331 4.63874E-04 1.39851E-04-1.49349E-16
 -1       332 4.87605E-04 1.91137E-04-1.04134E-16
 -1       333 5.45356E-04 2.44022E-04-8.10577E-17
 -1       334 8.48302E-04 3.33262E-04-2.75713E-16
 -1       335 4.48136E-03-8.29661E-04-1.52587E-14
 -1       336 8.88600E-04-3.11851E-04-5.95251E-16
 -1       337 1.18769E-03-3.67579E-04-1.06980E-15
 -1       338 1.48658E-03-4.06420E-04-1.68447E-15
 -1       339 1.78749E-03-4.35039E-04-2.43799E-15
 -1       340 2.09235E-03-4.59544E-04-3.32865E-15
 -1       341 2.40274E-03-4.86079E-04-4.35370E-15
 -1       342 2.71989E-03-5.21153E-04-5.51084E-15
 -1       343 3.04464E-03-5.71558E-04-6.80065E-15
 -1       344 3.37705E-03-6.43559E-04-8.22456E-15
 -1       345 3.71574E-03-7.40919E-04-9.78304E-15
 -1       346 4.05712E-03-8.61399E-04-1.14804E-14
 -1       347 4.39529E-03-9.92434E-04-1.33236E-14
 -1       348 4.72427E-03-1.10898E-03-1.53138E-14
 -1       349 5.04276E-03-1.17935E-03-1.74537E-14
 -1       350 5.35700E-03-1.18078E-03-1.97383E-14
 -1       351 5.67685E-03-1.11449E-03-2.21649E-14
 -1       352 6.00800E-03-1.00481E-03-2.47267E-14
 -1       353 6.34862E-03-8.83688E-04-2.74150E-14
 -1       354 6.69260E-03-7.75565E-04-3.02217E-14
 -1       355 7.03419E-03-6.92505E-04-3.31399E-14
 -1       356 7.36998E-03-6.36714E-04-3.61665E-14
 -1       357 7.69868E-03-6.04956E-04-3.93064E-14
 -1       358 8.02030E-03-5.91984E-04-4.25528E-14
 -1       359 8.33540E-03-5.92501E-04-4.59032E-14
 -1       360 8.64476E-03-6.02014E-04-4.93518E-14
 -1       361 8.94920E-03-6.17061E-04-5.29006E-14
 -1       362 9.24951E-03-6.35145E-04-5.65492E-14
 -1       363 9.54641E-03-6.54557E-04-6.02915E-14
 -1       364 9.84055E-03-6.74191E-04-6.41227E-14
 -1       365 1.01325E-02-6.93376E-04-6.80354E-14
 -1       366 1.04227E-02-7.11745E-04-7.20293E-14
 -1       367 1.07116E-02-7.29133E-04-7.60960E-14
 -1       368 1.09995E-02-7.45509E-04-8.02273E-14
 -1       369 1.12867E-02-7.60920E-04-8.44179E-14
 -1       370 1.15733E-02-7.75457E-04-8.86731E-14
 -1       371 1.18595E-02-7.89232E-04-9.29895E-14
 -1       372 1.21455E-02-8.02360E-04-9.73566E-14
 -1       373 1.24313E-02-8.14956E-04-1.01788E-13
 -1       374 1.27170E-02-8.27121E-04-1.06295E-13
 -1       375 1.30026E-02-8.38948E-04-1.10880E-13
 -1       376 1.32882E-02-8.50515E-04-1.15541E-13
 -1       377 1.35738E-02-8.61891E-04-1.20257E-13
 -1       378 1.38595E-02-8.73135E-04-1.25019E-13
 -1       379 1.41451E-02-8.84295E-04-1.29810E-13
 -1       380 1.44308E-02-8.95415E-04-1.34626E-13
 -1       381 1.46872E-02-9.08727E-04-1.38973E-13
 -1       382 1.14734E-03 3.95040E-04-5.88461E-16
 -1       383 1.44539E-03 4.38352E-04-1.02415E-15
 -1       384 1.74537E-03 4.70402E-04-1.58461E-15
 -1       385 2.04941E-03 4.97372E-04-2.27023E-15
 -1       386 2.35892E-03 5.25137E-04-3.08157E-15
 -1       387 2.67462E-03 5.59563E-04-4.01819E-15
 -1       388 2.99640E-03 6.06347E-04-5.07793E-15
 -1       389 3.32310E-03 6.70214E-04-6.26245E-15
 -1       390 3.65226E-03 7.53257E-04-7.57224E-15
 -1       391 3.98000E-03 8.52456E-04-9.00876E-15
 -1       392 4.30170E-03 9.57185E-04-1.05764E-14
 -1       393 4.61380E-03 1.04879E-03-1.22819E-14
 -1       394 4.91630E-03 1.10485E-03-1.41264E-14
 -1       395 5.21408E-03 1.10823E-03-1.61116E-14
 -1       396 5.51486E-03 1.05621E-03-1.82381E-14
 -1       397 5.82489E-03 9.61981E-04-2.05063E-14
 -1       398 6.14582E-03 8.47714E-04-2.29146E-14
 -1       399 6.47502E-03 7.34417E-04-2.54649E-14
 -1       400 6.80802E-03 6.35943E-04-2.81540E-14
 -1       401 7.14062E-03 5.58196E-04-3.09762E-14
 -1       402 7.46987E-03 5.01270E-04-3.39228E-14
 -1       403 7.79410E-03 4.62140E-04-3.69859E-14
 -1       404 8.11266E-03 4.36708E-04-4.01587E-14
 -1       405 8.42556E-03 4.20993E-04-4.34338E-14
 -1       406 8.73321E-03 4.11650E-04-4.68093E-14
 -1       407 9.03622E-03 4.06111E-04-5.02799E-14
 -1       408 9.33529E-03 4.02524E-04-5.38564E-14
 -1       409 9.63110E-03 3.99632E-04-5.75237E-14
 -1       410 9.92427E-03 3.96630E-04-6.12794E-14
 -1       411 1.02154E-02 3.93041E-04-6.51207E-14
 -1       412 1.05049E-02 3.88620E-04-6.90495E-14
 -1       413 1.07931E-02 3.83278E-04-7.30734E-14
 -1       414 1.10805E-02 3.77019E-04-7.71995E-14
 -1       415 1.13673E-02 3.69908E-04-8.14213E-14
 -1       416 1.16535E-02 3.62040E-04-8.57248E-14
 -1       417 1.19395E-02 3.53521E-04-9.01076E-14
 -1       418 1.22253E-02 3.44459E-04-9.45687E-14
 -1       419 1.25109E-02 3.34954E-04-9.90959E-14
 -1       420 1.27965E-02 3.25097E-04-1.03685E-13
 -1       421 1.30821E-02 3.14968E-04-1.08331E-13
 -1       422 1.33677E-02 3.04636E-04-1.13013E-13
 -1       423 1.36533E-02 2.94161E-04-1.17712E-13
 -1       424 1.39389E-02 2.83593E-04-1.22430E-13
 -1       425 1.42245E-02 2.72977E-04-1.27173E-13
 -1       426 1.45102E-02 2.62352E-04-1.31929E-13
 -1       427 1.46950E-02 2.49532E-04-1.35035E-13
 -1       428 1.46582E-02 3.50798E-05-1.35341E-13
 -1       429 1.46479E-02 1.19425E-04-1.34814E-13
 -1       430 1.46715E-02 1.84485E-04-1.34927E-13
 -1       431 1.46684E-02-4.78585E-05-1.35853E-13
 -1       432 1.46788E-02-1.32245E-04-1.36365E-13
 -1       433 1.46893E-02-2.16646E-04-1.36866E-13
 -1       434 1.46999E-02-3.01056E-04-1.37356E-13
 -1       435 1.47106E-02-3.85469E-04-1.37838E-13
 -1       436 1.47214E-02-4.69878E-04-1.38305E-13
 -1       437 1.47321E-02-5.52849E-04-1.38753E-13
 -1       438 1.47431E-02-6.37236E-04-1.39191E-13
 -1       439 1.47541E-02-7.21604E-04-1.39613E-13
 -1       440 1.47652E-02-8.05950E-04-1.40027E-13
 -1       441 7.02967E-03 8.99930E-05-2.39663E-14
 -1       442 7.38464E-03-7.60047E-05-2.50755E-14
 -1       443 7.31341E-03-2.40091E-05-2.48339E-14
 -1       444 6.69203E-03 2.46201E-04-2.27859E-14
 -1       445 4.10925E-03-6.25834E-04-1.39688E-14
 -1       446 5.20547E-03-1.03567E-03-1.82612E-14
 -1       447 6.33183E-03 4.29744E-04-2.15519E-14
 -1       448 4.47712E-04-9.92118E-05-2.39534E-16
 -1       449 5.55644E-03 8.10697E-04-1.85380E-14
 -1       450 5.18594E-03 8.98231E-04-1.69480E-14
 -1       451 4.85705E-03 8.65539E-04-1.56281E-14
 -1       452 4.51016E-03 7.42439E-04-1.43760E-14
 -1       453 4.14337E-03 5.59372E-04-1.33420E-14
 -1       454 3.72465E-03 3.46522E-04-1.24893E-14
 -1       455 3.37430E-03 1.83630E-04-1.19278E-14
 -1       456 3.10339E-03 7.00577E-05-1.15737E-14
 -1       457 2.92108E-03-1.41480E-05-1.14068E-14
 -1       458 2.91148E-03-6.49554E-05-1.13981E-14
 -1       459 3.05951E-03-1.40219E-04-1.18387E-14
 -1       460 3.33519E-03-2.53761E-04-1.23388E-14
 -1       461 3.65048E-03-3.95792E-04-1.29517E-14
 -1       462 4.91494E-03-1.00076E-03-1.69446E-14
 -1       463 5.60313E-03-9.47154E-04-2.00650E-14
 -1       464 5.96071E-03-7.82232E-04-2.15378E-14
 -1       465 6.34322E-03-5.83191E-04-2.27580E-14
 -1       466 6.77950E-03-3.67157E-04-2.39316E-14
 -1       467 7.07196E-03-2.33653E-04-2.47278E-14
 -1       468 7.32892E-03-1.25992E-04-2.51955E-14
 -1       469 5.88695E-03 6.58659E-04-1.99986E-14
 -1       470 7.20516E-03 8.04835E-06-2.52658E-14
 -1       471 7.23770E-03-1.57781E-04-2.58965E-14
 -1       472 6.55583E-03-4.54832E-04-2.41234E-14
 -1       473 2.97576E-03 1.13605E-05-1.09240E-14
 -1       474 9.55728E-04 2.96827E-04-5.17954E-16
 -1       475 6.44860E-04-5.34454E-05-5.29186E-16
 -1       476 6.56906E-04-8.52315E-05-5.28291E-16
 -1       477 6.35488E-04 3.13593E-08-5.14813E-16
 -1       478 6.38386E-04 2.60245E-05-5.00227E-16
 -1       479 6.45995E-04 5.38268E-05-4.80762E-16
 -1       480 6.58292E-04 8.64239E-05-4.54799E-16
 -1       481 6.75066E-04 1.25446E-04-4.20823E-16
 -1       482 6.96898E-04 1.73156E-04-3.74944E-16
 -1       483 9.98301E-04-2.74896E-04-8.73508E-16
 -1       484 4.71294E-03-9.39636E-04-1.58470E-14
 -1       485 1.25236E-03 3.45495E-04-9.19634E-16
 -1       486 7.26535E-04-2.10553E-04-4.95098E-16
 -1       487 1.29279E-03-3.17670E-04-1.42761E-15
 -1       488 1.58843E-03-3.48206E-04-2.11746E-15
 -1       489 1.88599E-03-3.71625E-04-2.94208E-15
 -1       490 2.18678E-03-3.93355E-04-3.89874E-15
 -1       491 2.49253E-03-4.19236E-04-4.98442E-15
 -1       492 2.80541E-03-4.55701E-04-6.19927E-15
 -1       493 3.12795E-03-5.09711E-04-7.54317E-15
 -1       494 3.46239E-03-5.88056E-04-9.01807E-15
 -1       495 3.80903E-03-6.95180E-04-1.06270E-14
 -1       496 4.16398E-03-8.28320E-04-1.23751E-14
 -1       497 4.51804E-03-9.70345E-04-1.42688E-14
 -1       498 4.86167E-03-1.08498E-03-1.63116E-14
 -1       499 5.19469E-03-1.13002E-03-1.85052E-14
 -1       500 5.52843E-03-1.08693E-03-2.08482E-14
 -1       501 5.87359E-03-9.77320E-04-2.33354E-14
 -1       502 6.22896E-03-8.44351E-04-2.59555E-14
 -1       503 6.58466E-03-7.23020E-04-2.86980E-14
 -1       504 6.93185E-03-6.29586E-04-3.15524E-14
 -1       505 7.26699E-03-5.66412E-04-3.45132E-14
 -1       506 7.59059E-03-5.29454E-04-3.75826E-14
 -1       507 7.90484E-03-5.12805E-04-4.07615E-14
 -1       508 8.21205E-03-5.10792E-04-4.40485E-14
 -1       509 8.51411E-03-5.18694E-04-4.74345E-14
 -1       510 8.81234E-03-5.32862E-04-5.09209E-14
 -1       511 9.10769E-03-5.50622E-04-5.45047E-14
 -1       512 9.40082E-03-5.70104E-04-5.81862E-14
 -1       513 9.69219E-03-5.90064E-04-6.19635E-14
 -1       514 9.98219E-03-6.09720E-04-6.58262E-14
 -1       515 1.02711E-02-6.28623E-04-6.97690E-14
 -1       516 1.05592E-02-6.46554E-04-7.37907E-14
 -1       517 1.08466E-02-6.63443E-04-7.78833E-14
 -1       518 1.11335E-02-6.79318E-04-8.20384E-14
 -1       519 1.14200E-02-6.94259E-04-8.62573E-14
 -1       520 1.17062E-02-7.08375E-04-9.05394E-14
 -1       521 1.19922E-02-7.21786E-04-9.48783E-14
 -1       522 1.22781E-02-7.34609E-04-9.92741E-14
 -1       523 1.25639E-02-7.46954E-04-1.03737E-13
 -1       524 1.28497E-02-7.58919E-04-1.08278E-13
 -1       525 1.31354E-02-7.70588E-04-1.12893E-13
 -1       526 1.34211E-02-7.82036E-04-1.17574E-13
 -1       527 1.37068E-02-7.93324E-04-1.22300E-13
 -1       528 1.39924E-02-8.04506E-04-1.27068E-13
 -1       529 1.42781E-02-8.15628E-04-1.31863E-13
 -1       530 1.84924E-03 4.07081E-04-2.09002E-15
 -1       531 2.15204E-03 4.31224E-04-2.86016E-15
 -1       532 2.45964E-03 4.58475E-04-3.75406E-15
 -1       533 2.77339E-03 4.94688E-04-4.77071E-15
 -1       534 3.09435E-03 5.45611E-04-5.90973E-15
 -1       535 3.42279E-03 6.15939E-04-7.17105E-15
 -1       536 3.75738E-03 7.07322E-04-8.55705E-15
 -1       537 4.09418E-03 8.15102E-04-1.00701E-14
 -1       538 4.42711E-03 9.24694E-04-1.17173E-14
 -1       539 4.75104E-03 1.01148E-03-1.35045E-14
 -1       540 5.06638E-03 1.04819E-03-1.54339E-14
 -1       541 5.38039E-03 1.02011E-03-1.75052E-14
 -1       542 5.70159E-03 9.35044E-04-1.97198E-14
 -1       543 6.03302E-03 8.17994E-04-2.20769E-14
 -1       544 6.37074E-03 6.96277E-04-2.45740E-14
 -1       545 6.70857E-03 5.88253E-04-2.72078E-14
 -1       546 7.04176E-03 5.02093E-04-2.99770E-14
 -1       547 7.36809E-03 4.38539E-04-3.28750E-14
 -1       548 7.68731E-03 3.94547E-04-3.58897E-14
 -1       549 8.00012E-03 3.65790E-04-3.90172E-14
 -1       550 8.30747E-03 3.48003E-04-4.22485E-14
 -1       551 8.61031E-03 3.37559E-04-4.55817E-14
 -1       552 8.90946E-03 3.31628E-04-4.90108E-14
 -1       553 9.20560E-03 3.28135E-04-5.25430E-14
 -1       554 9.49930E-03 3.25642E-04-5.61751E-14
 -1       555 9.79105E-03 3.23207E-04-5.98932E-14
 -1       556 1.00812E-02 3.20255E-04-6.36993E-14
 -1       557 1.03702E-02 3.16475E-04-6.75900E-14
 -1       558 1.06583E-02 3.11733E-04-7.15735E-14
 -1       559 1.09456E-02 3.06014E-04-7.56535E-14
 -1       560 1.12324E-02 2.99372E-04-7.98311E-14
 -1       561 1.15188E-02 2.91898E-04-8.40908E-14
 -1       562 1.18049E-02 2.83704E-04-8.84254E-14
 -1       563 1.20909E-02 2.74903E-04-9.28414E-14
 -1       564 1.23767E-02 2.65603E-04-9.73312E-14
 -1       565 1.26624E-02 2.55902E-04-1.01881E-13
 -1       566 1.29481E-02 2.45890E-04-1.06487E-13
 -1       567 1.32337E-02 2.35640E-04-1.11146E-13
 -1       568 1.35194E-02 2.25217E-04-1.15831E-13
 -1       569 1.38050E-02 2.14678E-04-1.20534E-13
 -1       570 1.40907E-02 2.04068E-04-1.25266E-13
 -1       571 1.43764E-02 1.93431E-04-1.30019E-13
 -1       572 1.44261E-02-8.07671E-05-1.31975E-13
 -1       573 1.44366E-02-1.65122E-04-1.32470E-13
 -1       574 1.44056E-02 8.64825E-05-1.30954E-13
 -1       575 1.44159E-02 2.86413E-06-1.31468E-13
 -1       576 1.44471E-02-2.49482E-04-1.32955E-13
 -1       577 1.44578E-02-3.33845E-04-1.33429E-13
 -1       578 1.44685E-02-4.18209E-04-1.33897E-13
 -1       579 1.44792E-02-5.01139E-04-1.34345E-13
 -1       580 1.44901E-02-5.85494E-04-1.34785E-13
 -1       581 1.45011E-02-6.69841E-04-1.35211E-13
 -1       582 1.45122E-02-7.54174E-04-1.35628E-13
 -1       583 6.85861E-03 1.41823E-04-2.44106E-14
 -1       584 6.12197E-03 5.20191E-04-2.15231E-14
 -1       585 1.54982E-03 3.80366E-04-1.44339E-15
 -1       586 7.39134E-03-6.16928E-05-2.61954E-14
 -1       587 3.84637E-03-4.71527E-04-1.27807E-14
 -1       588 6.50008E-03 3.13617E-04-2.30570E-14
 -1       589 3.53596E-03 2.34114E-04-1.14001E-14
 -1       590 6.37657E-04-2.57449E-05-5.24581E-16
 -1       591 5.37580E-03 8.80812E-04-1.78728E-14
 -1       592 5.00561E-03 9.09481E-04-1.60030E-14
 -1       593 4.71369E-03 8.31869E-04-1.47104E-14
 -1       594 4.34400E-03 6.59162E-04-1.32308E-14
 -1       595 3.93129E-03 4.32203E-04-1.22126E-14
 -1       596 5.40804E-03-1.02406E-03-1.94909E-14
 -1       597 3.21443E-03 9.78881E-05-1.09804E-14
 -1       598 2.86976E-03-3.64307E-05-1.06010E-14
 -1       599 2.95717E-03-8.62900E-05-1.09476E-14
 -1       600 3.46486E-03-2.83289E-04-1.18527E-14
 -1       601 5.05297E-03-1.04357E-03-1.75369E-14
 -1       602 5.77279E-03-8.80805E-04-2.14215E-14
 -1       603 5.67255E-03 7.62533E-04-1.93684E-14
 -1       604 3.15937E-03-1.58104E-04-1.12469E-14
 -1       605 6.16730E-03-6.65029E-04-2.31617E-14
 -1       606 6.92894E-03-2.77594E-04-2.56824E-14
 -1       607 7.40513E-03-9.44509E-05-2.66258E-14
 -1       608 7.21801E-04 2.52892E-04-2.70349E-16
 -1       609 4.34549E-03-7.50911E-04-1.42928E-14
 -1       610 6.73605E-04-1.23131E-04-5.20027E-16
 -1       611 7.07174E-03 5.80077E-05-2.57136E-14
 -1       612 1.44715E-02-8.24804E-04-1.35130E-13
 -1       613 5.92041E-03 6.44136E-04-2.08565E-14
 -1       614 7.33841E-03-3.63379E-05-2.66284E-14
 -1       615 2.85681E-03-5.50664E-05-1.01578E-14
 -1       616 7.36972E-03-1.19473E-04-2.73342E-14
 -1       617 7.13146E-03-2.03592E-04-2.68603E-14
 -1       618 4.07346E-03-6.09248E-04-1.30747E-14
 -1       619 8.64078E-04 5.10082E-05-8.46271E-16
 -1       620 8.56109E-04 1.62161E-05-8.73389E-16
 -1       621 9.00027E-04 1.34319E-04-7.65423E-16
 -1       622 9.27297E-04 1.87441E-04-7.06388E-16
 -1       623 1.10806E-03-2.35912E-04-1.17612E-15
 -1       624 3.23431E-03-2.05206E-04-1.05855E-14
 -1       625 1.06619E-03 2.58052E-04-7.96811E-16
 -1       626 2.54978E-03 3.90531E-04-4.45074E-15
 -1       627 1.39599E-03-2.67592E-04-1.80403E-15
 -1       628 1.68530E-03-2.90666E-04-2.56417E-15
 -1       629 1.97620E-03-3.09186E-04-3.45453E-15
 -1       630 2.26992E-03-3.27784E-04-4.47180E-15
 -1       631 2.56870E-03-3.51729E-04-5.61492E-15
 -1       632 2.87609E-03-3.87225E-04-6.88372E-15
 -1       633 3.19688E-03-4.41805E-04-8.27850E-15
 -1       634 3.53621E-03-5.24352E-04-9.80050E-15
 -1       635 3.89632E-03-6.43123E-04-1.14559E-14
 -1       636 4.27231E-03-7.96545E-04-1.32514E-14
 -1       637 4.64861E-03-9.59301E-04-1.51937E-14
 -1       638 5.01198E-03-1.06972E-03-1.72890E-14
 -1       639 5.36738E-03-1.06874E-03-1.95425E-14
 -1       640 5.73190E-03-9.60340E-04-2.19502E-14
 -1       641 6.10899E-03-8.05979E-04-2.45024E-14
 -1       642 6.48406E-03-6.64292E-04-2.71818E-14
 -1       643 6.84271E-03-5.59531E-04-2.99763E-14
 -1       644 7.18039E-03-4.91558E-04-3.28750E-14
 -1       645 7.49991E-03-4.52723E-04-3.58758E-14
 -1       646 7.80632E-03-4.34981E-04-3.89877E-14
 -1       647 8.10432E-03-4.31940E-04-4.22073E-14
 -1       648 8.39725E-03-4.38827E-04-4.55302E-14
 -1       649 8.68728E-03-4.52108E-04-4.89555E-14
 -1       650 8.97568E-03-4.69206E-04-5.24779E-14
 -1       651 9.26318E-03-4.88278E-04-5.60958E-14
 -1       652 9.55015E-03-5.08059E-04-5.98147E-14
 -1       653 9.83680E-03-5.27719E-04-6.36275E-14
 -1       654 1.01232E-02-5.46755E-04-6.75222E-14
 -1       655 1.04095E-02-5.64898E-04-7.14955E-14
 -1       656 1.06957E-02-5.82040E-04-7.55465E-14
 -1       657 1.09817E-02-5.98177E-04-7.96626E-14
 -1       658 1.12677E-02-6.13370E-04-8.38435E-14
 -1       659 1.15536E-02-6.27718E-04-8.80911E-14
 -1       660 1.18395E-02-6.41333E-04-9.23987E-14
 -1       661 1.21253E-02-6.54330E-04-9.67618E-14
 -1       662 1.24111E-02-6.66818E-04-1.01191E-13
 -1       663 1.26968E-02-6.78898E-04-1.05689E-13
 -1       664 1.29826E-02-6.90658E-04-1.10259E-13
 -1       665 1.32683E-02-7.02172E-04-1.14899E-13
 -1       666 1.35540E-02-7.13505E-04-1.19589E-13
 -1       667 1.38398E-02-7.24712E-04-1.24331E-13
 -1       668 1.41255E-02-7.35840E-04-1.29104E-13
 -1       669 2.24555E-03 3.64624E-04-3.47679E-15
 -1       670 2.97363E-03-1.04567E-04-1.01466E-14
 -1       671 1.94665E-03 3.43528E-04-2.62410E-15
 -1       672 2.86180E-03 4.27042E-04-5.54594E-15
 -1       673 3.18430E-03 4.80301E-04-6.76108E-15
 -1       674 3.51923E-03 5.55957E-04-8.09718E-15
 -1       675 3.86578E-03 6.56836E-04-9.55806E-15
 -1       676 4.21826E-03 7.77486E-04-1.11462E-14
 -1       677 4.56620E-03 8.96571E-04-1.28725E-14
 -1       678 4.90284E-03 9.77591E-04-1.47425E-14
 -1       679 5.23135E-03 9.85145E-04-1.67585E-14
 -1       680 5.56341E-03 9.13558E-04-1.89210E-14
 -1       681 5.90911E-03 7.90128E-04-2.12271E-14
 -1       682 6.26136E-03 6.55557E-04-2.36750E-14
 -1       683 6.61124E-03 5.35880E-04-2.62593E-14
 -1       684 6.95106E-03 4.42127E-04-2.89762E-14
 -1       685 7.27835E-03 3.73996E-04-3.18232E-14
 -1       686 7.59438E-03 3.27141E-04-3.47918E-14
 -1       687 7.90163E-03 2.96447E-04-3.78726E-14
 -1       688 8.20257E-03 2.77298E-04-4.10608E-14
 -1       689 8.49914E-03 2.65938E-04-4.43506E-14
 -1       690 8.79269E-03 2.59471E-04-4.77395E-14
 -1       691 9.08415E-03 2.55761E-04-5.12277E-14
 -1       692 9.37412E-03 2.53299E-04-5.48202E-14
 -1       693 9.66301E-03 2.51071E-04-5.85043E-14
 -1       694 9.95109E-03 2.48436E-04-6.22726E-14
 -1       695 1.02386E-02 2.45030E-04-6.61287E-14
 -1       696 1.05256E-02 2.40679E-04-7.00699E-14
 -1       697 1.08122E-02 2.35338E-04-7.41094E-14
 -1       698 1.10986E-02 2.29043E-04-7.82448E-14
 -1       699 1.13847E-02 2.21878E-04-8.24625E-14
 -1       700 1.16708E-02 2.13949E-04-8.67552E-14
 -1       701 1.19567E-02 2.05369E-04-9.11274E-14
 -1       702 1.22425E-02 1.96249E-04-9.55737E-14
 -1       703 1.25283E-02 1.86693E-04-1.00086E-13
 -1       704 1.28140E-02 1.76790E-04-1.04655E-13
 -1       705 1.30998E-02 1.66622E-04-1.09282E-13
 -1       706 1.33855E-02 1.56256E-04-1.13949E-13
 -1       707 1.36712E-02 1.45750E-04-1.18641E-13
 -1       708 1.39569E-02 1.35154E-04-1.23361E-13
 -1       709 1.41813E-02 1.10827E-04-1.27152E-13
 -1       710 1.42049E-02-2.82271E-04-1.29049E-13
 -1       711 1.41839E-02-1.13637E-04-1.28098E-13
 -1       712 1.42156E-02-3.66587E-04-1.29513E-13
 -1       713 1.41944E-02-1.97954E-04-1.28579E-13
 -1       714 1.65118E-03 3.21930E-04-1.89365E-15
 -1       715 1.42263E-02-4.49474E-04-1.29959E-13
 -1       716 1.42372E-02-5.33791E-04-1.30399E-13
 -1       717 1.42482E-02-6.18108E-04-1.30827E-13
 -1       718 6.35987E-03 4.13690E-04-2.32630E-14
 -1       719 5.17116E-03 9.33040E-04-1.67087E-14
 -1       720 6.72146E-03 2.19915E-04-2.47717E-14
 -1       721 6.72258E-03-3.84858E-04-2.58900E-14
 -1       722 6.38687E-03-5.70076E-04-2.48842E-14
 -1       723 1.43188E-02-7.45010E-04-1.32360E-13
 -1       724 7.46115E-03-7.88926E-05-2.79482E-14
 -1       725 4.07732E-03 5.41448E-04-1.19176E-14
 -1       726 6.00843E-03-7.86073E-04-2.31912E-14
 -1       727 8.78905E-04 8.95942E-05-8.11017E-16
 -1       728 8.76687E-04-8.87279E-05-9.08128E-16
 -1       729 2.87404E-03-9.39607E-06-9.92419E-15
 -1       730 4.56012E-03 7.88610E-04-1.36584E-14
 -1       731 3.59898E-03-3.69421E-04-1.14638E-14
 -1       732 3.30947E-03 1.52732E-04-1.03881E-14
 -1       733 3.03416E-03 4.91791E-05-9.97383E-15
 -1       734 4.82776E-03 8.90524E-04-1.48916E-14
 -1       735 3.69696E-03 3.33762E-04-1.10594E-14
 -1       736 1.35788E-03 2.94940E-04-1.28434E-15
 -1       737 5.65800E-03-9.55652E-04-2.11695E-14
 -1       738 4.53654E-03-8.78077E-04-1.47788E-14
 -1       739 5.54907E-03 8.36692E-04-1.88893E-14
 -1       740 8.97616E-04-1.32215E-04-9.02165E-16
 -1       741 8.55555E-04-1.70311E-05-8.92613E-16
 -1       742 6.95005E-03-2.93043E-04-2.70734E-14
 -1       743 6.94633E-03 1.30157E-04-2.60807E-14
 -1       744 1.41915E-02 2.72315E-05-1.27666E-13
 -1       745 6.17605E-03 5.37632E-04-2.25579E-14
 -1       746 7.24995E-03 4.23705E-06-2.70816E-14
 -1       747 3.79556E-03-4.97140E-04-1.17219E-14
 -1       748 7.47626E-03-9.91182E-05-2.86715E-14
 -1       749 4.29199E-03 6.86583E-04-1.23055E-14
 -1       750 7.31246E-03-1.58545E-04-2.83150E-14
 -1       751 2.79942E-03-2.96533E-05-9.49505E-15
 -1       752 5.22393E-03-1.07112E-03-1.85704E-14
 -1       753 1.41876E-02-4.32030E-05-1.27888E-13
 -1       754 8.62504E-04-5.11253E-05-9.04394E-16
 -1       755 9.42759E-04-1.96036E-04-9.00372E-16
 -1       756 1.41868E-02-6.76981E-04-1.29969E-13
 -1       757 4.88466E-03-1.02290E-03-1.65730E-14
 -1       758 1.15405E-03 1.87158E-04-1.14400E-15
 -1       759 5.81095E-03 7.50257E-04-2.05214E-14
 -1       760 2.62882E-03 3.19709E-04-5.17222E-15
 -1       761 1.49560E-03-2.17972E-04-2.19830E-15
 -1       762 1.77653E-03-2.34447E-04-3.02332E-15
 -1       763 2.05820E-03-2.48121E-04-3.97418E-15
 -1       764 2.34180E-03-2.62687E-04-5.04862E-15
 -1       765 2.63009E-03-2.82584E-04-6.24588E-15
 -1       766 2.92800E-03-3.13725E-04-7.56512E-15
 -1       767 3.24312E-03-3.64984E-04-9.00647E-15
 -1       768 6.38854E-03-6.20778E-04-2.56956E-14
 -1       769 6.76068E-03-4.98540E-04-2.84308E-14
 -1       770 7.10128E-03-4.25500E-04-3.12713E-14
 -1       771 7.41648E-03-3.86447E-04-3.42121E-14
 -1       772 7.71470E-03-3.69325E-04-3.72583E-14
 -1       773 8.00321E-03-3.66416E-04-4.04132E-14
 -1       774 8.28680E-03-3.72832E-04-4.36743E-14
 -1       775 8.56834E-03-3.85307E-04-4.70410E-14
 -1       776 8.84944E-03-4.01529E-04-5.05044E-14
 -1       777 9.13086E-03-4.19828E-04-5.40641E-14
 -1       778 9.41294E-03-4.39015E-04-5.77232E-14
 -1       779 9.69573E-03-4.58273E-04-6.14804E-14
 -1       780 9.97921E-03-4.77077E-04-6.53267E-14
 -1       781 1.02633E-02-4.95119E-04-6.92552E-14
 -1       782 1.05478E-02-5.12256E-04-7.32605E-14
 -1       783 1.08326E-02-5.28450E-04-7.73372E-14
 -1       784 1.11178E-02-5.43737E-04-8.14811E-14
 -1       785 1.14031E-02-5.58195E-04-8.56924E-14
 -1       786 1.16886E-02-5.71924E-04-8.99675E-14
 -1       787 1.19742E-02-5.85028E-04-9.43009E-14
 -1       788 1.22599E-02-5.97615E-04-9.86928E-14
 -1       789 1.25456E-02-6.09779E-04-1.03154E-13
 -1       790 1.28313E-02-6.21608E-04-1.07685E-13
 -1       791 1.31170E-02-6.33177E-04-1.12284E-13
 -1       792 1.34028E-02-6.44550E-04-1.16940E-13
 -1       793 1.36885E-02-6.55782E-04-1.21649E-13
 -1       794 1.39377E-02-6.66404E-04-1.25796E-13
 -1       795 2.32983E-03 2.97004E-04-4.12019E-15
 -1       796 2.79555E-03-6.69851E-05-9.13077E-15
 -1       797 1.39735E-02-3.98562E-04-1.25606E-13
 -1       798 3.26232E-03 4.06989E-04-7.63226E-15
 -1       799 3.60598E-03 4.87442E-04-9.04175E-15
 -1       800 3.96891E-03 6.02408E-04-1.05732E-14
 -1       801 6.87347E-03 3.74644E-04-2.79724E-14
 -1       802 7.20313E-03 3.04325E-04-3.07702E-14
 -1       803 7.51591E-03 2.57613E-04-3.36905E-14
 -1       804 7.81676E-03 2.27441E-04-3.67273E-14
 -1       805 8.11001E-03 2.08505E-04-3.98702E-14
 -1       806 8.39882E-03 1.97018E-04-4.31181E-14
 -1       807 8.68525E-03 1.90240E-04-4.64669E-14
 -1       808 8.97054E-03 1.86185E-04-4.99132E-14
 -1       809 9.25538E-03 1.83440E-04-5.34623E-14
 -1       810 9.54015E-03 1.81030E-04-5.71096E-14
 -1       811 9.82502E-03 1.78319E-04-6.08460E-14
 -1       812 1.01101E-02 1.74924E-04-6.46635E-14
 -1       813 1.03952E-02 1.70649E-04-6.85690E-14
 -1       814 1.06806E-02 1.65426E-04-7.25655E-14
 -1       815 1.09661E-02 1.59270E-04-7.66584E-14
 -1       816 1.12516E-02 1.52251E-04-8.08402E-14
 -1       817 1.15372E-02 1.44462E-04-8.50937E-14
 -1       818 1.18229E-02 1.36012E-04-8.94241E-14
 -1       819 1.21086E-02 1.27006E-04-9.38263E-14
 -1       820 1.23944E-02 1.17547E-04-9.82952E-14
 -1       821 1.26801E-02 1.07725E-04-1.02828E-13
 -1       822 1.29658E-02 9.76200E-05-1.07422E-13
 -1       823 1.32516E-02 8.73001E-05-1.12069E-13
 -1       824 1.35373E-02 7.68239E-05-1.16748E-13
 -1       825 1.38230E-02 6.62408E-05-1.21455E-13
 -1       826 1.40072E-02 4.67472E-05-1.24557E-13
 -1       827 1.74797E-03 2.63604E-04-2.37498E-15
 -1       828 3.31221E-03-2.89688E-04-1.00577E-14
 -1       829 1.39627E-02-3.14297E-04-1.25159E-13
 -1       830 6.64135E-03 3.07808E-04-2.52015E-14
 -1       831 1.39952E-02-5.66393E-04-1.26469E-13
 -1       832 2.84242E-03 2.00487E-05-8.94177E-15
 -1       833 3.79871E-03 4.40273E-04-1.06525E-14
 -1       834 2.97198E-03-1.45922E-04-9.29205E-15
 -1       835 1.39843E-02-4.82474E-04-1.26041E-13
 -1       836 2.03710E-03 2.79908E-04-3.18748E-15
 -1       837 1.21536E-03-1.95596E-04-1.50197E-15
 -1       838 4.33477E-03-7.85029E-04-1.37841E-14
 -1       839 7.45720E-03-5.19693E-05-2.87396E-14
 -1       840 2.93802E-03 3.53911E-04-6.34317E-15
 -1       841 1.08221E-03 3.91982E-05-1.31437E-15
 -1       842 1.25307E-03 2.38285E-04-1.21975E-15
 -1       843 1.05426E-03-1.63454E-04-1.18409E-15
 -1       844 3.07966E-03 1.08718E-04-9.21300E-15
 -1       845 3.39692E-03 2.47589E-04-9.69831E-15
 -1       846 1.07621E-03-9.07417E-07-1.34722E-15
 -1       847 7.17338E-03-2.25932E-04-2.85344E-14
 -1       848 1.39664E-02-6.16401E-04-1.26133E-13
 -1       849 2.73529E-03-4.63145E-06-8.53549E-15
 -1       850 6.85988E-03 2.16119E-04-2.65218E-14
 -1       851 3.59587E-03-4.51064E-04-1.06385E-14
 -1       852 6.52372E-03 4.76462E-04-2.53021E-14
 -1       853 1.39416E-02-1.46478E-04-1.24229E-13
 -1       854 1.09490E-03-8.25074E-05-1.38159E-15
 -1       855 6.46540E-03 4.22053E-04-2.44625E-14
 -1       856 1.39521E-02-2.30390E-04-1.24699E-13
 -1       857 7.14936E-03 6.47823E-05-2.74546E-14
 -1       858 1.07249E-03-1.21264E-04-1.28630E-15
 -1       859 7.52578E-03-7.48105E-05-2.94764E-14
 -1       860 7.46770E-03-1.29192E-04-2.96718E-14
 -1       861 1.12230E-03 1.31091E-04-1.21451E-15
 -1       862 6.68403E-03-4.62086E-04-2.70303E-14
 -1       863 6.90086E-03-3.73219E-04-2.82360E-14
 -1       864 1.39454E-02-7.60788E-05-1.24028E-13
 -1       865 1.09793E-03 8.23630E-05-1.27062E-15
 -1       866 1.50063E-03 2.53939E-04-1.74894E-15
 -1       867 1.08051E-03-4.05219E-05-1.36966E-15
 -1       868 1.86287E-03-1.80075E-04-3.49339E-15
 -1       869 2.13269E-03-1.89004E-04-4.50073E-15
 -1       870 2.40216E-03-1.98672E-04-5.62951E-15
 -1       871 2.67384E-03-2.12428E-04-6.87745E-15
 -1       872 2.95305E-03-2.35821E-04-8.24318E-15
 -1       873 3.11327E-03 1.86856E-04-8.51584E-15
 -1       874 7.37141E-03-3.03346E-04-3.25357E-14
 -1       875 7.65187E-03-2.91700E-04-3.55192E-14
 -1       876 7.92372E-03-2.92370E-04-3.86097E-14
 -1       877 8.19282E-03-3.00201E-04-4.18070E-14
 -1       878 8.46211E-03-3.12660E-04-4.51077E-14
 -1       879 8.73301E-03-3.28085E-04-4.85119E-14
 -1       880 9.00608E-03-3.45274E-04-5.20157E-14
 -1       881 9.28142E-03-3.63318E-04-5.56128E-14
 -1       882 9.55885E-03-3.81549E-04-5.93091E-14
 -1       883 9.83811E-03-3.99498E-04-6.31020E-14
 -1       884 1.01189E-02-4.16867E-04-6.69816E-14
 -1       885 1.04010E-02-4.33496E-04-7.09396E-14
 -1       886 1.06840E-02-4.49321E-04-7.49731E-14
 -1       887 1.09678E-02-4.64351E-04-7.90801E-14
 -1       888 1.12522E-02-4.78637E-04-8.32543E-14
 -1       889 1.15370E-02-4.92256E-04-8.74937E-14
 -1       890 1.18222E-02-5.05297E-04-9.17961E-14
 -1       891 1.21075E-02-5.17850E-04-9.61582E-14
 -1       892 1.23931E-02-5.30001E-04-1.00582E-13
 -1       893 1.26787E-02-5.41830E-04-1.05072E-13
 -1       894 1.29644E-02-5.53404E-04-1.09630E-13
 -1       895 1.32501E-02-5.64784E-04-1.14252E-13
 -1       896 1.35359E-02-5.76020E-04-1.18927E-13
 -1       897 3.31772E-03 3.23609E-04-8.52232E-15
 -1       898 7.15007E-03 2.27412E-04-2.97165E-14
 -1       899 8.02953E-03 1.41418E-04-3.86780E-14
 -1       900 8.30848E-03 1.30984E-04-4.18833E-14
 -1       901 8.58610E-03 1.24389E-04-4.51926E-14
 -1       902 8.86381E-03 1.20026E-04-4.85990E-14
 -1       903 9.14233E-03 1.16759E-04-5.21046E-14
 -1       904 9.42196E-03 1.13789E-04-5.57109E-14
 -1       905 9.70272E-03 1.10572E-04-5.94118E-14
 -1       906 9.98455E-03 1.06765E-04-6.31979E-14
 -1       907 1.02673E-02 1.02175E-04-6.70673E-14
 -1       908 1.05508E-02 9.67283E-05-7.10233E-14
 -1       909 1.08349E-02 9.04250E-05-7.50744E-14
 -1       910 1.11195E-02 8.33162E-05-7.92179E-14
 -1       911 1.14045E-02 7.54819E-05-8.34375E-14
 -1       912 1.16897E-02 6.70158E-05-8.77290E-14
 -1       913 1.19751E-02 5.80145E-05-9.20902E-14
 -1       914 1.22607E-02 4.85709E-05-9.65158E-14
 -1       915 1.25463E-02 3.87696E-05-1.01009E-13
 -1       916 1.28320E-02 2.86859E-05-1.05567E-13
 -1       917 1.31177E-02 1.83848E-05-1.10187E-13
 -1       918 1.34035E-02 7.92172E-06-1.14852E-13
 -1       919 1.36892E-02-2.65645E-06-1.19545E-13
 -1       920 2.99567E-03 2.73731E-04-7.16212E-15
 -1       921 1.37206E-02-3.46981E-04-1.21292E-13
 -1       922 1.83971E-03 2.05597E-04-2.88826E-15
 -1       923 7.74670E-03 1.57997E-04-3.55791E-14
 -1       924 7.45562E-03 1.84575E-04-3.25892E-14
 -1       925 2.81465E-03 7.40221E-05-7.97235E-15
 -1       926 2.72726E-03-9.73877E-05-8.15620E-15
 -1       927 7.39999E-03-5.71248E-06-2.92880E-14
 -1       928 2.69367E-03 2.45058E-04-5.91771E-15
 -1       929 1.39763E-02-1.46703E-05-1.24296E-13
 -1       930 2.66319E-03-4.26536E-05-8.19376E-15
 -1       931 1.22773E-03-1.47504E-04-1.62024E-15
 -1       932 2.12017E-03 2.16260E-04-3.77968E-15
 -1       933 2.40370E-03 2.28006E-04-4.78974E-15
 -1       934 1.59191E-03-1.69295E-04-2.60821E-15
 -1       935 7.37411E-03-1.77073E-04-2.99022E-14
 -1       936 2.68323E-03 3.99144E-05-7.59456E-15
 -1       937 1.37511E-02-5.96226E-04-1.22517E-13
 -1       938 7.06896E-03 1.42433E-04-2.79076E-14
 -1       939 1.59939E-03 2.01385E-04-2.19209E-15
 -1       940 1.30022E-03 2.06129E-05-1.88307E-15
 -1       941 1.31467E-03 6.69542E-05-1.83285E-15
 -1       942 1.37099E-02-2.63137E-04-1.20842E-13
 -1       943 1.24441E-03-1.03697E-04-1.72919E-15
 -1       944 1.37799E-02-5.46246E-04-1.22851E-13
 -1       945 7.59051E-03-5.22050E-05-3.10842E-14
 -1       946 7.57288E-03-9.93398E-05-3.04957E-14
 -1       947 1.36994E-02-1.79289E-04-1.20380E-13
 -1       948 1.37648E-03 1.76225E-04-1.68729E-15
 -1       949 1.37031E-02-1.08939E-04-1.20181E-13
 -1       950 2.70901E-03-1.51496E-04-7.51629E-15
 -1       951 1.22411E-03-5.71733E-05-1.71788E-15
 -1       952 1.37314E-02-4.30830E-04-1.21721E-13
 -1       953 6.82128E-03 2.97373E-04-2.69633E-14
 -1       954 1.94657E-03-1.28312E-04-3.97271E-15
 -1       955 2.20181E-03-1.33152E-04-5.03382E-15
 -1       956 2.45206E-03-1.37917E-04-6.21266E-15
 -1       957 2.19575E-03 1.53236E-04-4.39991E-15
 -1       958 7.61068E-03-2.17425E-04-3.37911E-14
 -1       959 2.73931E-03 1.67646E-04-6.68574E-15
 -1       960 7.85781E-03-2.22839E-04-3.68198E-14
 -1       961 8.10777E-03-2.32739E-04-3.99559E-14
 -1       962 8.36224E-03-2.45346E-04-4.31952E-14
 -1       963 8.62148E-03-2.59807E-04-4.65370E-14
 -1       964 8.88530E-03-2.75497E-04-4.99778E-14
 -1       965 9.15325E-03-2.91886E-04-5.35198E-14
 -1       966 9.42481E-03-3.08521E-04-5.71557E-14
 -1       967 9.69943E-03-3.25044E-04-6.08898E-14
 -1       968 9.97659E-03-3.41199E-04-6.47152E-14
 -1       969 1.02558E-02-3.56830E-04-6.86252E-14
 -1       970 1.05367E-02-3.71859E-04-7.26157E-14
 -1       971 1.08189E-02-3.86267E-04-7.66800E-14
 -1       972 1.11021E-02-4.00079E-04-8.08176E-14
 -1       973 1.13861E-02-4.13342E-04-8.50213E-14
 -1       974 1.16706E-02-4.26123E-04-8.92905E-14
 -1       975 1.19556E-02-4.38489E-04-9.36211E-14
 -1       976 1.22408E-02-4.50511E-04-9.80129E-14
 -1       977 1.25263E-02-4.62250E-04-1.02467E-13
 -1       978 1.28119E-02-4.73766E-04-1.06986E-13
 -1       979 1.30976E-02-4.85107E-04-1.11574E-13
 -1       980 1.33833E-02-4.96316E-04-1.16222E-13
 -1       981 8.76248E-03 5.78217E-05-4.72840E-14
 -1       982 8.49371E-03 6.24398E-05-4.39174E-14
 -1       983 8.22696E-03 6.83701E-05-4.06480E-14
 -1       984 9.03369E-03 5.38173E-05-5.07492E-14
 -1       985 9.30738E-03 4.99147E-05-5.43127E-14
 -1       986 9.58340E-03 4.57475E-05-5.79752E-14
 -1       987 9.86148E-03 4.10681E-05-6.17272E-14
 -1       988 1.01413E-02 3.57263E-05-6.55625E-14
 -1       989 1.04226E-02 2.96581E-05-6.94833E-14
 -1       990 1.07050E-02 2.28609E-05-7.34944E-14
 -1       991 1.09884E-02 1.53709E-05-7.75967E-14
 -1       992 1.12724E-02 7.25040E-06-8.17824E-14
 -1       993 1.15570E-02-1.42475E-06-8.60392E-14
 -1       994 1.18420E-02-1.05742E-05-9.03602E-14
 -1       995 1.21272E-02-2.01197E-05-9.47456E-14
 -1       996 1.24127E-02-2.99884E-05-9.92015E-14
 -1       997 1.26983E-02-4.01152E-05-1.03723E-13
 -1       998 1.29840E-02-5.04434E-05-1.08310E-13
 -1       999 1.32697E-02-6.09245E-05-1.12950E-13
 -1      1000 7.96107E-03 7.67577E-05-3.74871E-14
 -1      1001 7.33986E-03 5.37936E-05-2.97603E-14
 -1      1002 1.25713E-03-1.87179E-05-1.80525E-15
 -1      1003 7.10084E-03 1.85975E-04-2.88104E-14
 -1      1004 2.53703E-03-6.21060E-05-7.17648E-15
 -1      1005 1.68694E-03-1.22066E-04-3.03144E-15
 -1      1006 1.34078E-03 1.18141E-04-1.76820E-15
 -1      1007 7.67581E-03-8.04233E-05-3.21299E-14
 -1      1008 7.56804E-03-1.05109E-05-3.15781E-14
 -1      1009 2.55533E-03-8.57222E-06-7.28502E-15
 -1      1010 2.46544E-03 1.58529E-04-5.48454E-15
 -1      1011 1.92690E-03 1.48405E-04-3.43231E-15
 -1      1012 1.45161E-03-8.81939E-05-2.33066E-15
 -1      1013 1.55475E-03 1.37498E-04-2.29297E-15
 -1      1014 7.40039E-03 1.44671E-04-3.16454E-14
 -1      1015 1.52864E-03 4.57399E-05-2.49539E-15
 -1      1016 1.51654E-03-3.46867E-06-2.54596E-15
 -1      1017 2.58538E-03 8.13438E-05-6.64202E-15
 -1      1018 1.35555E-02-7.15169E-05-1.17630E-13
 -1      1019 1.34678E-02-2.95642E-04-1.16997E-13
 -1      1020 7.69347E-03 8.89055E-05-3.44326E-14
 -1      1021 7.60222E-03-1.32184E-04-3.17622E-14
 -1      1022 7.75533E-03-5.07107E-05-3.36174E-14
 -1      1023 1.34572E-02-2.11879E-04-1.16544E-13
 -1      1024 1.34608E-02-1.41598E-04-1.16351E-13
 -1      1025 1.34785E-02-3.79406E-04-1.17435E-13
 -1      1026 1.53732E-03 8.96060E-05-2.39956E-15
 -1      1027 2.27118E-03-8.27102E-05-5.57035E-15
 -1      1028 1.73842E-03 2.00474E-05-3.25503E-15
 -1      1029 7.80012E-03-1.61436E-04-3.50443E-14
 -1      1030 8.02646E-03-1.72292E-04-3.81174E-14
 -1      1031 8.26417E-03-1.84257E-04-4.12964E-14
 -1      1032 8.51103E-03-1.97156E-04-4.45778E-14
 -1      1033 8.76541E-03-2.10791E-04-4.79596E-14
 -1      1034 9.02599E-03-2.24973E-04-5.14406E-14
 -1      1035 9.29170E-03-2.39457E-04-5.50192E-14
 -1      1036 9.56169E-03-2.54004E-04-5.86937E-14
 -1      1037 9.83519E-03-2.68416E-04-6.24634E-14
 -1      1038 1.01115E-02-2.82556E-04-6.63203E-14
 -1      1039 1.03902E-02-2.96344E-04-7.02603E-14
 -1      1040 1.06707E-02-3.09743E-04-7.42821E-14
 -1      1041 1.09526E-02-3.22747E-04-7.83798E-14
 -1      1042 1.12356E-02-3.35377E-04-8.25489E-14
 -1      1043 1.15195E-02-3.47669E-04-8.67850E-14
 -1      1044 1.18039E-02-3.59666E-04-9.10837E-14
 -1      1045 1.20889E-02-3.71413E-04-9.54431E-14
 -1      1046 1.23741E-02-3.82953E-04-9.98653E-14
 -1      1047 1.26595E-02-3.94325E-04-1.04352E-13
 -1      1048 1.29451E-02-4.05566E-04-1.08902E-13
 -1      1049 1.32308E-02-4.16704E-04-1.13522E-13
 -1      1050 9.19484E-03-1.01904E-05-5.29174E-14
 -1      1051 8.92750E-03-4.95489E-06-4.93949E-14
 -1      1052 2.38472E-03-2.71876E-05-6.29475E-15
 -1      1053 8.40567E-03 5.13217E-06-4.26400E-14
 -1      1054 9.46581E-03-1.57659E-05-5.65401E-14
 -1      1055 9.73989E-03-2.17884E-05-6.02554E-14
 -1      1056 1.00166E-02-2.83398E-05-6.40575E-14
 -1      1057 1.02954E-02-3.54536E-05-6.79417E-14
 -1      1058 1.05760E-02-4.31256E-05-7.19166E-14
 -1      1059 1.08579E-02-5.13271E-05-7.59794E-14
 -1      1060 1.11409E-02-6.00132E-05-8.01251E-14
 -1      1061 1.14248E-02-6.91280E-05-8.43484E-14
 -1      1062 1.17092E-02-7.86120E-05-8.86353E-14
 -1      1063 1.19941E-02-8.84065E-05-9.29865E-14
 -1      1064 1.22793E-02-9.84568E-05-9.74047E-14
 -1      1065 1.25648E-02-1.08713E-04-1.01891E-13
 -1      1066 1.28504E-02-1.19132E-04-1.06442E-13
 -1      1067 1.31361E-02-1.29676E-04-1.11049E-13
 -1      1068 1.32150E-02-2.44400E-04-1.12728E-13
 -1      1069 7.36574E-03 9.49845E-05-3.06945E-14
 -1      1070 7.74651E-03-1.10925E-04-3.34329E-14
 -1      1071 1.48094E-03-4.55115E-05-2.45258E-15
 -1      1072 7.74794E-03 4.62345E-06-3.41921E-14
 -1      1073 2.44064E-03 2.40557E-05-6.36366E-15
 -1      1074 1.78424E-03-7.67667E-05-3.46547E-15
 -1      1075 2.26537E-03 9.25453E-05-5.04695E-15
 -1      1076 7.85870E-03-8.40516E-05-3.49529E-14
 -1      1077 8.15190E-03 1.03800E-05-3.94143E-14
 -1      1078 8.66429E-03 9.30193E-08-4.59674E-14
 -1      1079 7.56839E-03 4.31975E-05-3.24248E-14
 -1      1080 2.03221E-03-8.01913E-05-4.45931E-15
 -1      1081 2.01147E-03 9.30955E-05-4.00518E-15
 -1      1082 7.95593E-03-4.44274E-05-3.64944E-14
 -1      1083 1.74487E-03 6.41657E-05-3.14988E-15
 -1      1084 1.73433E-03-3.03314E-05-3.30774E-15
 -1      1085 7.54313E-03-1.87422E-04-3.23573E-14
 -1      1086 1.32257E-02-3.28051E-04-1.13171E-13
 -1      1087 1.98868E-03 4.44011E-05-4.13684E-15
 -1      1088 1.96894E-03-8.37104E-06-4.21139E-15
 -1      1089 8.16041E-03-1.29624E-04-3.94078E-14
 -1      1090 8.39599E-03-1.40064E-04-4.26290E-14
 -1      1091 8.64214E-03-1.50930E-04-4.59537E-14
 -1      1092 8.89636E-03-1.62376E-04-4.93768E-14
 -1      1093 9.15705E-03-1.74236E-04-5.28979E-14
 -1      1094 9.42301E-03-1.86347E-04-5.65135E-14
 -1      1095 9.69324E-03-1.98575E-04-6.02247E-14
 -1      1096 9.96708E-03-2.10770E-04-6.40288E-14
 -1      1097 1.02437E-02-2.22902E-04-6.79132E-14
 -1      1098 1.05226E-02-2.34926E-04-7.18869E-14
 -1      1099 1.08033E-02-2.46787E-04-7.59429E-14
 -1      1100 1.10854E-02-2.58497E-04-8.00759E-14
 -1      1101 1.13685E-02-2.70059E-04-8.42789E-14
 -1      1102 1.16525E-02-2.81488E-04-8.85410E-14
 -1      1103 1.19371E-02-2.92800E-04-9.28737E-14
 -1      1104 1.22221E-02-3.04012E-04-9.72661E-14
 -1      1105 1.25073E-02-3.15142E-04-1.01722E-13
 -1      1106 1.27928E-02-3.26206E-04-1.06242E-13
 -1      1107 1.30092E-02-3.27152E-04-1.09686E-13
 -1      1108 9.61841E-03-8.16421E-05-5.87825E-14
 -1      1109 9.89211E-03-8.98325E-05-6.25469E-14
 -1      1110 1.01686E-02-9.83979E-05-6.63972E-14
 -1      1111 1.04473E-02-1.07336E-04-7.03344E-14
 -1      1112 1.07279E-02-1.16593E-04-7.43613E-14
 -1      1113 1.10098E-02-1.26142E-04-7.84744E-14
 -1      1114 1.12929E-02-1.35947E-04-8.26579E-14
 -1      1115 1.15767E-02-1.45973E-04-8.69139E-14
 -1      1116 1.18612E-02-1.56185E-04-9.12335E-14
 -1      1117 1.21462E-02-1.66551E-04-9.56105E-14
 -1      1118 1.24314E-02-1.77041E-04-1.00059E-13
 -1      1119 1.27169E-02-1.87630E-04-1.04579E-13
 -1      1120 1.29659E-02-2.15960E-04-1.08632E-13
 -1      1121 2.22184E-03 7.54741E-06-5.32437E-15
 -1      1122 8.56583E-03-5.27917E-05-4.46485E-14
 -1      1123 7.95186E-03-1.25689E-04-3.65304E-14
 -1      1124 1.99318E-03-4.36070E-05-4.33915E-15
 -1      1125 8.31783E-03-4.67651E-05-4.13617E-14
 -1      1126 8.82101E-03-5.93588E-05-4.80355E-14
 -1      1127 9.34823E-03-7.37977E-05-5.51027E-14
 -1      1128 9.08214E-03-6.63743E-05-5.15234E-14
 -1      1129 2.14728E-03-2.92912E-05-5.04147E-15
 -1      1130 9.76667E-03-1.48725E-04-6.10322E-14
 -1      1131 1.00962E-02-1.51503E-04-6.55853E-14
 -1      1132 0.00000E+00 0.00000E+00 0.00000E+00
 -1      1133 0.00000E+00 0.00000E+00 0.00000E+00
 -1      1134 0.00000E+00 0.00000E+00 0.00000E+00
 -1      1135 0.00000E+00 0.00000E+00 0.00000E+00
 -1      1136 0.00000E+00 0.00000E+00 0.00000E+00
 -1      1137 0.00000E+00 0.00000E+00 0.00000E+00
 -1      1138 0.00000E+00 0.00000E+00 0.00000E+00
 -1      1139 0.00000E+00 0.00000E+00 0.00000E+00
 -1      1140 0.00000E+00 0.00000E+00 0.00000E+00
 -1      1141 0.00000E+00 0.00000E+00 0.00000E+00
 -1      1142 0.00000E+00 0.00000E+00 0.00000E+00
 -1      1143 0.00000E+00 0.00000E+00 0.00000E+00
 -1      1144 0.00000E+00 0.00000E+00 0.00000E+00
 -1      1145 0.00000E+00 0.00000E+00 0.00000E+00
 -1      1146 0.00000E+00 0.00000E+00 0.00000E+00
 -1      1147 0.00000E+00 0.00000E+00 0.00000E+00
 -1      1148 0.00000E+00 0.00000E+00 0.00000E+00
 -1      1149 2.10864E-04-1.43761E-04 1.08014E-17
 -1      1150 5.55306E-04-3.19332E-04-6.35614E-17
 -1      1151 8.48213E-04-4.26474E-04-2.77054E-16
 -1      1152 1.13465E-03-4.95503E-04-6.50982E-16
 -1      1153 1.42298E-03-5.42792E-04-1.17578E-15
 -1      1154 1.71773E-03-5.77451E-04-1.84798E-15
 -1      1155 2.02193E-03-6.06046E-04-2.66646E-15
 -1      1156 2.33754E-03-6.34539E-04-3.62717E-15
 -1      1157 2.66539E-03-6.69071E-04-4.72845E-15
 -1      1158 3.00475E-03-7.16053E-04-5.96916E-15
 -1      1159 3.35262E-03-7.81549E-04-7.35035E-15
 -1      1160 3.70300E-03-8.69645E-04-8.87025E-15
 -1      1161 4.04679E-03-9.79615E-04-1.05316E-14
 -1      1162 4.37336E-03-1.10257E-03-1.23404E-14
 -1      1163 4.67436E-03-1.21982E-03-1.42976E-14
 -1      1164 4.94901E-03-1.30614E-03-1.64024E-14
 -1      1165 5.20723E-03-1.33918E-03-1.86541E-14
 -1      1166 5.46680E-03-1.31044E-03-2.10404E-14
 -1      1167 5.74515E-03-1.23006E-03-2.35574E-14
 -1      1168 6.05142E-03-1.12133E-03-2.62037E-14
 -1      1169 6.38416E-03-1.00953E-03-2.89742E-14
 -1      1170 6.73481E-03-9.13001E-04-3.18572E-14
 -1      1171 7.09292E-03-8.40400E-04-3.48544E-14
 -1      1172 7.44981E-03-7.92635E-04-3.79646E-14
 -1      1173 7.79991E-03-7.66297E-04-4.11863E-14
 -1      1174 8.14052E-03-7.56469E-04-4.45117E-14
 -1      1175 8.47104E-03-7.58358E-04-4.79361E-14
 -1      1176 8.79206E-03-7.67986E-04-5.14596E-14
 -1      1177 9.10480E-03-7.82338E-04-5.50886E-14
 -1      1178 9.41066E-03-7.99266E-04-5.88164E-14
 -1      1179 9.71101E-03-8.17317E-04-6.26261E-14
 -1      1180 1.00071E-02-8.35554E-04-6.65203E-14
 -1      1181 1.02999E-02-8.53413E-04-7.04983E-14
 -1      1182 1.05902E-02-8.70586E-04-7.45510E-14
 -1      1183 1.08788E-02-8.86935E-04-7.86652E-14
 -1      1184 1.11662E-02-9.02433E-04-8.28378E-14
 -1      1185 1.14527E-02-9.17121E-04-8.70722E-14
 -1      1186 1.17387E-02-9.31075E-04-9.13657E-14
 -1      1187 1.20243E-02-9.44388E-04-9.57155E-14
 -1      1188 1.23097E-02-9.57160E-04-1.00121E-13
 -1      1189 1.25950E-02-9.69485E-04-1.04595E-13
 -1      1190 1.28803E-02-9.81450E-04-1.09152E-13
 -1      1191 1.31656E-02-9.93134E-04-1.13795E-13
 -1      1192 1.34509E-02-1.00460E-03-1.18512E-13
 -1      1193 1.37364E-02-1.01592E-03-1.23281E-13
 -1      1194 1.40219E-02-1.02713E-03-1.28076E-13
 -1      1195 1.43074E-02-1.03828E-03-1.32897E-13
 -1      1196 1.45930E-02-1.04942E-03-1.37731E-13
 -1      1197 1.48787E-02-1.06056E-03-1.42573E-13
 -1      1198 1.51573E-02-1.07146E-03-1.47320E-13
 -1      1199 2.27370E-04 1.56011E-04 3.88958E-17
 -1      1200 5.57364E-04 3.24261E-04 4.07796E-17
 -1      1201 8.48876E-04 4.29533E-04-6.53232E-17
 -1      1202 1.13480E-03 4.98699E-04-2.96570E-16
 -1      1203 1.42230E-03 5.46694E-04-6.54560E-16
 -1      1204 1.71566E-03 5.82266E-04-1.13984E-15
 -1      1205 2.01755E-03 6.11810E-04-1.75356E-15
 -1      1206 2.32946E-03 6.41022E-04-2.49385E-15
 -1      1207 2.65170E-03 6.75506E-04-3.36315E-15
 -1      1208 2.98300E-03 7.20740E-04-4.35932E-15
 -1      1209 3.32011E-03 7.81403E-04-5.48198E-15
 -1      1210 3.65731E-03 8.59911E-04-6.73233E-15
 -1      1211 3.98678E-03 9.54230E-04-8.11031E-15
 -1      1212 4.30011E-03 1.05566E-03-9.61727E-15
 -1      1213 4.59146E-03 1.14832E-03-1.12598E-14
 -1      1214 4.86124E-03 1.21222E-03-1.30452E-14
 -1      1215 5.11792E-03 1.23036E-03-1.49673E-14
 -1      1216 5.37568E-03 1.19635E-03-1.70258E-14
 -1      1217 5.64852E-03 1.11774E-03-1.92285E-14
 -1      1218 5.94445E-03 1.01234E-03-2.15749E-14
 -1      1219 6.26348E-03 9.00356E-04-2.40612E-14
 -1      1220 6.59960E-03 7.97592E-04-2.66872E-14
 -1      1221 6.94455E-03 7.12679E-04-2.94517E-14
 -1      1222 7.29078E-03 6.47912E-04-3.23481E-14
 -1      1223 7.63296E-03 6.01556E-04-3.53679E-14
 -1      1224 7.96806E-03 5.70063E-04-3.84950E-14
 -1      1225 8.29494E-03 5.49552E-04-4.17246E-14
 -1      1226 8.61368E-03 5.36565E-04-4.50567E-14
 -1      1227 8.92505E-03 5.28345E-04-4.84885E-14
 -1      1228 9.23012E-03 5.22845E-04-5.20225E-14
 -1      1229 9.53005E-03 5.18628E-04-5.56511E-14
 -1      1230 9.82589E-03 5.14743E-04-5.93727E-14
 -1      1231 1.01186E-02 5.10594E-04-6.31766E-14
 -1      1232 1.04089E-02 5.05845E-04-6.70621E-14
 -1      1233 1.06975E-02 5.00334E-04-7.10430E-14
 -1      1234 1.09849E-02 4.94014E-04-7.51332E-14
 -1      1235 1.12714E-02 4.86911E-04-7.93308E-14
 -1      1236 1.15574E-02 4.79091E-04-8.36260E-14
 -1      1237 1.18430E-02 4.70643E-04-8.80016E-14
 -1      1238 1.21284E-02 4.61660E-04-9.24556E-14
 -1      1239 1.24137E-02 4.52233E-04-9.69759E-14
 -1      1240 1.26990E-02 4.42450E-04-1.01558E-13
 -1      1241 1.29843E-02 4.32386E-04-1.06200E-13
 -1      1242 1.32697E-02 4.22110E-04-1.10886E-13
 -1      1243 1.35551E-02 4.11679E-04-1.15589E-13
 -1      1244 1.38406E-02 4.01144E-04-1.20302E-13
 -1      1245 1.41262E-02 3.90550E-04-1.25041E-13
 -1      1246 1.44118E-02 3.79937E-04-1.29798E-13
 -1      1247 1.46975E-02 3.69337E-04-1.34559E-13
 -1      1248 1.49761E-02 3.59031E-04-1.39195E-13
 -1      1249 1.51170E-02 3.11877E-04-1.41706E-13
 -1      1250 1.51273E-02 2.27589E-04-1.42253E-13
 -1      1251 1.51377E-02 1.43273E-04-1.42795E-13
 -1      1252 1.51480E-02 5.89127E-05-1.43329E-13
 -1      1253 1.51583E-02-2.54991E-05-1.43868E-13
 -1      1254 1.51686E-02-1.09243E-04-1.44386E-13
 -1      1255 1.51790E-02-1.93027E-04-1.44906E-13
 -1      1256 1.51895E-02-2.77554E-04-1.45432E-13
 -1      1257 1.52002E-02-3.62096E-04-1.45953E-13
 -1      1258 1.52109E-02-4.46638E-04-1.46449E-13
 -1      1259 1.52218E-02-5.31165E-04-1.46919E-13
 -1      1260 1.52326E-02-6.14949E-04-1.47380E-13
 -1      1261 1.52435E-02-6.98692E-04-1.47823E-13
 -1      1262 1.52545E-02-7.83103E-04-1.48247E-13
 -1      1263 1.52656E-02-8.67463E-04-1.48660E-13
 -1      1264 1.52767E-02-9.51778E-04-1.49059E-13
 -1      1265 1.52876E-02-1.03535E-03-1.49446E-13
 -1      1266 7.36581E-03 2.78827E-06-2.27142E-14
 -1      1267 7.24186E-03 1.57718E-04-2.23351E-14
 -1      1268 7.00425E-03 3.20862E-04-2.16920E-14
 -1      1269 6.68529E-03 4.79040E-04-2.08637E-14
 -1      1270 6.30795E-03 6.23339E-04-1.98942E-14
 -1      1271 5.89444E-03 7.39903E-04-1.88405E-14
 -1      1272 5.44699E-03 8.12719E-04-1.77219E-14
 -1      1273 4.99445E-03 8.28683E-04-1.66312E-14
 -1      1274 4.56252E-03 7.86510E-04-1.56451E-14
 -1      1275 4.14014E-03 6.93762E-04-1.47497E-14
 -1      1276 3.74398E-03 5.63466E-04-1.39782E-14
 -1      1277 3.40289E-03 4.15315E-04-1.33798E-14
 -1      1278 3.14072E-03 2.64743E-04-1.29753E-14
 -1      1279 2.96788E-03 1.13939E-04-1.27531E-14
 -1      1280 2.90216E-03-3.37951E-05-1.27245E-14
 -1      1281 2.95131E-03-1.83827E-04-1.28973E-14
 -1      1282 3.11284E-03-3.39227E-04-1.32681E-14
 -1      1283 3.36680E-03-4.94925E-04-1.38105E-14
 -1      1284 3.69712E-03-6.48302E-04-1.45240E-14
 -1      1285 4.09792E-03-7.91637E-04-1.54266E-14
 -1      1286 4.55547E-03-9.04214E-04-1.64935E-14
 -1      1287 5.01240E-03-9.58735E-04-1.75897E-14
 -1      1288 5.47147E-03-9.47832E-04-1.87078E-14
 -1      1289 5.93275E-03-8.75544E-04-1.98208E-14
 -1      1290 6.35489E-03-7.56848E-04-2.08006E-14
 -1      1291 6.73644E-03-6.07579E-04-2.16430E-14
 -1      1292 7.04572E-03-4.49336E-04-2.22800E-14
 -1      1293 7.26139E-03-2.93192E-04-2.26792E-14
 -1      1294 7.37101E-03-1.42525E-04-2.28234E-14
 -1      1295 1.68594E-04-1.05375E-04-1.10047E-17
 -1      1296 1.15253E-04-5.07367E-05-3.46945E-17
 -1      1297 1.20229E-04-6.21423E-05-2.80537E-17
 -1      1298 1.10543E-04-3.59362E-05-4.52654E-17
 -1      1299 1.12754E-04-4.25179E-05-4.21484E-17
 -1      1300 2.31946E-04-9.42354E-05-9.95298E-17
 -1      1301 1.07899E-04-2.56257E-05-5.06729E-17
 -1      1302 1.09303E-04-3.03925E-05-4.92228E-17
 -1      1303 2.23004E-04-6.73492E-05-1.18002E-16
 -1      1304 1.05917E-04-1.78574E-05-5.33563E-17
 -1      1305 1.06956E-04-2.15203E-05-5.27193E-17
 -1      1306 2.17285E-04-4.80182E-05-1.27800E-16
 -1      1307 1.04407E-04-1.18839E-05-5.44541E-17
 -1      1308 1.05178E-04-1.47357E-05-5.43456E-17
 -1      1309 2.13020E-04-3.33837E-05-1.32544E-16
 -1      1310 1.03302E-04-7.00317E-06-5.46980E-17
 -1      1311 1.03834E-04-9.37776E-06-5.47929E-17
 -1      1312 2.09770E-04-2.18284E-05-1.34373E-16
 -1      1313 1.02685E-04-2.86791E-06-5.39526E-17
 -1      1314 1.02949E-04-4.93630E-06-5.42372E-17
 -1      1315 2.07530E-04-1.22979E-05-1.33953E-16
 -1      1316 1.02586E-04 9.69120E-07-5.27871E-17
 -1      1317 1.02572E-04-1.01016E-06-5.32343E-17
 -1      1318 2.06418E-04-3.99767E-06-1.32002E-16
 -1      1319 1.03009E-04 4.95109E-06-5.10117E-17
 -1      1320 1.02721E-04 2.84680E-06-5.14996E-17
 -1      1321 2.06480E-04 3.94441E-06-1.28708E-16
 -1      1322 1.03925E-04 9.51431E-06-4.85316E-17
 -1      1323 1.03379E-04 7.07395E-06-4.92499E-17
 -1      1324 2.07700E-04 1.23869E-05-1.23857E-16
 -1      1325 1.05262E-04 1.49866E-05-4.52112E-17
 -1      1326 1.04491E-04 1.20566E-05-4.62548E-17
 -1      1327 2.09978E-04 2.20862E-05-1.17473E-16
 -1      1328 1.07047E-04 2.20146E-05-4.03188E-17
 -1      1329 1.06014E-04 1.82539E-05-4.19586E-17
 -1      1330 2.13236E-04 3.39541E-05-1.08596E-16
 -1      1331 1.09349E-04 3.11185E-05-3.33121E-17
 -1      1332 1.07963E-04 2.62464E-05-3.59277E-17
 -1      1333 2.17505E-04 4.91036E-05-9.62229E-17
 -1      1334 1.12702E-04 4.34276E-05-2.27682E-17
 -1      1335 1.10531E-04 3.67670E-05-2.71999E-17
 -1      1336 2.23109E-04 6.88894E-05-7.86589E-17
 -1      1337 1.19484E-04 6.23745E-05-6.47811E-18
 -1      1338 1.14857E-04 5.17008E-05-1.42030E-17
 -1      1339 2.31841E-04 9.63735E-05-5.34783E-17
 -1      1340 1.58858E-04 1.05631E-04 1.81333E-17
 -1      1341 1.38242E-04 8.10784E-05 3.25261E-18
 -1      1342 2.61950E-04 1.40668E-04-2.35949E-17
 -1      1343 3.38798E-04 2.09947E-04 1.78351E-17
 -1      1344 4.27744E-04-2.46199E-04-7.49726E-17
 -1      1345 5.85211E-04-3.13576E-04-1.47601E-16
 -1      1346 7.37898E-04-3.66682E-04-2.62418E-16
 -1      1347 8.87721E-04-4.08825E-04-4.15981E-16
 -1      1348 6.27836E-04-3.02413E-04-2.42848E-16
 -1      1349 1.03566E-03-4.43221E-04-6.06259E-16
 -1      1350 1.18272E-03-4.71142E-04-8.33982E-16
 -1      1351 9.33661E-04-3.88357E-04-5.57917E-16
 -1      1352 1.32985E-03-4.94518E-04-1.09836E-15
 -1      1353 1.47764E-03-5.14025E-04-1.39977E-15
 -1      1354 1.23298E-03-4.45024E-04-1.01953E-15
 -1      1355 1.62665E-03-5.30864E-04-1.73724E-15
 -1      1356 1.77725E-03-5.45647E-04-2.11087E-15
 -1      1357 1.53184E-03-4.84015E-04-1.62554E-15
 -1      1358 1.92980E-03-5.59268E-04-2.52021E-15
 -1      1359 2.08452E-03-5.72387E-04-2.96506E-15
 -1      1360 1.83430E-03-5.13017E-04-2.37439E-15
 -1      1361 2.24161E-03-5.85843E-04-3.44473E-15
 -1      1362 2.40115E-03-6.00344E-04-3.95953E-15
 -1      1363 2.14298E-03-5.38386E-04-3.26392E-15
 -1      1364 2.56321E-03-6.16788E-04-4.50906E-15
 -1      1365 2.72769E-03-6.35904E-04-5.09293E-15
 -1      1366 2.45939E-03-5.66385E-04-4.29152E-15
 -1      1367 2.89445E-03-6.58664E-04-5.71132E-15
 -1      1368 3.06317E-03-6.85725E-04-6.36398E-15
 -1      1369 2.78400E-03-6.03635E-04-5.45584E-15
 -1      1370 3.23347E-03-7.18010E-04-7.05120E-15
 -1      1371 3.40474E-03-7.55919E-04-7.77378E-15
 -1      1372 3.11605E-03-6.56969E-04-6.75642E-15
 -1      1373 3.57629E-03-8.00008E-04-8.52966E-15
 -1      1374 3.74725E-03-8.50104E-04-9.32074E-15
 -1      1375 3.45327E-03-7.32388E-04-8.19359E-15
 -1      1376 3.91670E-03-9.05880E-04-1.01483E-14
 -1      1377 4.08361E-03-9.66180E-04-1.10110E-14
 -1      1378 3.79165E-03-8.32776E-04-9.76832E-15
 -1      1379 4.24708E-03-1.02928E-03-1.19116E-14
 -1      1380 4.40630E-03-1.09281E-03-1.28484E-14
 -1      1381 4.12566E-03-9.54314E-04-1.14869E-14
 -1      1382 4.56078E-03-1.15358E-03-1.38213E-14
 -1      1383 4.71043E-03-1.20835E-03-1.48321E-14
 -1      1384 4.44946E-03-1.08298E-03-1.33510E-14
 -1      1385 4.85560E-03-1.25339E-03-1.58796E-14
 -1      1386 4.99726E-03-1.28578E-03-1.69637E-14
 -1      1387 4.75952E-03-1.19433E-03-1.53609E-14
 -1      1388 5.13662E-03-1.30299E-03-1.80831E-14
 -1      1389 5.27546E-03-1.30390E-03-1.92382E-14
 -1      1390 5.05756E-03-1.26028E-03-1.75185E-14
 -1      1391 5.41535E-03-1.28865E-03-2.04281E-14
 -1      1392 5.55805E-03-1.25856E-03-2.16508E-14
 -1      1393 5.35129E-03-1.26199E-03-1.98191E-14
 -1      1394 5.70469E-03-1.21635E-03-2.29060E-14
 -1      1395 5.85620E-03-1.16507E-03-2.41938E-14
 -1      1396 5.65103E-03-1.20043E-03-2.22578E-14
 -1      1397 6.01283E-03-1.10849E-03-2.55136E-14
 -1      1398 6.17443E-03-1.04987E-03-2.68647E-14
 -1      1399 5.96412E-03-1.09593E-03-2.48273E-14
 -1      1400 6.34049E-03-9.92309E-04-2.82467E-14
 -1      1401 6.51016E-03-9.38161E-04-2.96591E-14
 -1      1402 6.29182E-03-9.76972E-04-2.75242E-14
 -1      1403 6.68255E-03-8.89068E-04-3.10975E-14
 -1      1404 6.85663E-03-8.46167E-04-3.25625E-14
 -1      1405 6.63036E-03-8.67652E-04-3.03398E-14
 -1      1406 7.03154E-03-8.09758E-04-3.40596E-14
 -1      1407 7.20642E-03-7.80047E-04-3.55841E-14
 -1      1408 6.97393E-03-7.81555E-04-3.32696E-14
 -1      1409 7.38061E-03-7.56528E-04-3.71357E-14
 -1      1410 7.55356E-03-7.38890E-04-3.87149E-14
 -1      1411 7.31715E-03-7.22414E-04-3.63102E-14
 -1      1412 7.72488E-03-7.26326E-04-4.03208E-14
 -1      1413 7.89430E-03-7.18323E-04-4.19547E-14
 -1      1414 7.65616E-03-6.87794E-04-3.94619E-14
 -1      1415 8.06166E-03-7.14094E-04-4.36148E-14
 -1      1416 8.22687E-03-7.13101E-04-4.52982E-14
 -1      1417 7.98875E-03-6.72648E-04-4.27201E-14
 -1      1418 8.38996E-03-7.14710E-04-4.70082E-14
 -1      1419 8.55096E-03-7.18445E-04-4.87421E-14
 -1      1420 8.31405E-03-6.71585E-04-4.60838E-14
 -1      1421 8.70997E-03-7.23851E-04-5.05013E-14
 -1      1422 8.86711E-03-7.30544E-04-5.22859E-14
 -1      1423 8.63211E-03-6.79950E-04-4.95466E-14
 -1      1424 9.02251E-03-7.38221E-04-5.40945E-14
 -1      1425 9.17631E-03-7.46587E-04-5.59312E-14
 -1      1426 8.94354E-03-6.94144E-04-5.31069E-14
 -1      1427 9.32867E-03-7.55459E-04-5.77912E-14
 -1      1428 9.47971E-03-7.64620E-04-5.96715E-14
 -1      1429 9.24920E-03-7.11574E-04-5.67681E-14
 -1      1430 9.62959E-03-7.73967E-04-6.15735E-14
 -1      1431 9.77843E-03-7.83348E-04-6.34959E-14
 -1      1432 9.55003E-03-7.30475E-04-6.05235E-14
 -1      1433 9.92634E-03-7.92714E-04-6.54415E-14
 -1      1434 1.00735E-02-8.01962E-04-6.74070E-14
 -1      1435 9.84695E-03-7.49704E-04-6.43647E-14
 -1      1436 1.02199E-02-8.11078E-04-6.93924E-14
 -1      1437 1.03656E-02-8.19995E-04-7.13974E-14
 -1      1438 1.01408E-02-7.68568E-04-6.82899E-14
 -1      1439 1.05109E-02-8.28717E-04-7.34199E-14
 -1      1440 1.06557E-02-8.37207E-04-7.54590E-14
 -1      1441 1.04322E-02-7.86684E-04-7.22922E-14
 -1      1442 1.08001E-02-8.45480E-04-7.75141E-14
 -1      1443 1.09442E-02-8.53514E-04-7.95843E-14
 -1      1444 1.07218E-02-8.03876E-04-7.63661E-14
 -1      1445 1.10880E-02-8.61332E-04-8.16693E-14
 -1      1446 1.12316E-02-8.68924E-04-8.37680E-14
 -1      1447 1.10101E-02-8.20100E-04-8.05017E-14
 -1      1448 1.13750E-02-8.76314E-04-8.58853E-14
 -1      1449 1.15182E-02-8.83500E-04-8.80176E-14
 -1      1450 1.12974E-02-8.35397E-04-8.46993E-14
 -1      1451 1.16613E-02-8.90507E-04-9.01609E-14
 -1      1452 1.18043E-02-8.97337E-04-9.23211E-14
 -1      1453 1.15840E-02-8.49850E-04-8.89597E-14
 -1      1454 1.19472E-02-9.04012E-04-9.44938E-14
 -1      1455 1.20901E-02-9.10537E-04-9.66801E-14
 -1      1456 1.18702E-02-8.63563E-04-9.32742E-14
 -1      1457 1.22329E-02-9.16933E-04-9.88839E-14
 -1      1458 1.23756E-02-9.23205E-04-1.01104E-13
 -1      1459 1.21560E-02-8.76648E-04-9.76484E-14
 -1      1460 1.25184E-02-9.29372E-04-1.03341E-13
 -1      1461 1.26611E-02-9.35439E-04-1.05597E-13
 -1      1462 1.24417E-02-8.89215E-04-1.02085E-13
 -1      1463 1.28038E-02-9.41422E-04-1.07875E-13
 -1      1464 1.29465E-02-9.47327E-04-1.10173E-13
 -1      1465 1.27273E-02-9.01361E-04-1.06599E-13
 -1      1466 1.30892E-02-9.53167E-04-1.12492E-13
 -1      1467 1.32319E-02-9.58948E-04-1.14830E-13
 -1      1468 1.30128E-02-9.13176E-04-1.11192E-13
 -1      1469 1.33746E-02-9.64679E-04-1.17182E-13
 -1      1470 1.35173E-02-9.70367E-04-1.19548E-13
 -1      1471 1.32983E-02-9.24737E-04-1.15856E-13
 -1      1472 1.36601E-02-9.76020E-04-1.21928E-13
 -1      1473 1.38028E-02-9.81644E-04-1.24317E-13
 -1      1474 1.35838E-02-9.36111E-04-1.20582E-13
 -1      1475 1.39456E-02-9.87245E-04-1.26715E-13
 -1      1476 1.40884E-02-9.92829E-04-1.29116E-13
 -1      1477 1.38693E-02-9.47354E-04-1.25354E-13
 -1      1478 1.42312E-02-9.98401E-04-1.31524E-13
 -1      1479 1.43740E-02-1.00397E-03-1.33938E-13
 -1      1480 1.41549E-02-9.58517E-04-1.30154E-13
 -1      1481 1.45168E-02-1.00953E-03-1.36355E-13
 -1      1482 1.46596E-02-1.01509E-03-1.38771E-13
 -1      1483 1.44405E-02-9.69641E-04-1.34975E-13
 -1      1484 1.48025E-02-1.02066E-03-1.41192E-13
 -1      1485 1.49453E-02-1.02624E-03-1.43620E-13
 -1      1486 1.47262E-02-9.80766E-04-1.39811E-13
 -1      1487 1.51519E-02-1.03003E-03-1.47128E-13
 -1      1488 1.50756E-02-9.90120E-04-1.45740E-13
 -1      1489 6.54930E-04 3.46574E-04-3.84485E-17
 -1      1490 5.00162E-04 2.85571E-04 4.71628E-18
 -1      1491 4.54092E-04 2.47440E-04-2.60209E-17
 -1      1492 9.53373E-04 4.32870E-04-2.15729E-16
 -1      1493 8.05482E-04 3.93994E-04-1.11930E-16
 -1      1494 7.64173E-04 3.57480E-04-1.51558E-16
 -1      1495 1.24608E-03 4.90828E-04-5.16690E-16
 -1      1496 1.09986E-03 4.64534E-04-3.50319E-16
 -1      1497 1.06440E-03 4.29666E-04-3.97604E-16
 -1      1498 1.53992E-03 5.31771E-04-9.42727E-16
 -1      1499 1.39249E-03 5.12940E-04-7.13852E-16
 -1      1500 1.36105E-03 4.78791E-04-7.66938E-16
 -1      1501 1.83889E-03 5.63074E-04-1.49652E-15
 -1      1502 1.68854E-03 5.48248E-04-1.20349E-15
 -1      1503 1.65917E-03 5.14091E-04-1.26133E-15
 -1      1504 2.14530E-03 5.90778E-04-2.17677E-15
 -1      1505 1.99104E-03 5.77026E-04-1.82088E-15
 -1      1506 1.96198E-03 5.42309E-04-1.88203E-15
 -1      1507 2.46022E-03 6.20618E-04-2.98450E-15
 -1      1508 2.30165E-03 6.05095E-04-2.56506E-15
 -1      1509 2.27130E-03 5.69401E-04-2.62987E-15
 -1      1510 2.78343E-03 6.58329E-04-3.91935E-15
 -1      1511 2.62083E-03 6.38189E-04-3.43571E-15
 -1      1512 2.58783E-03 6.01224E-04-3.50373E-15
 -1      1513 3.11323E-03 7.09355E-04-4.97993E-15
 -1      1514 2.94766E-03 6.81972E-04-4.43422E-15
 -1      1515 2.91107E-03 6.43604E-04-4.50307E-15
 -1      1516 3.44608E-03 7.77843E-04-6.16755E-15
 -1      1517 3.27956E-03 7.41405E-04-5.55795E-15
 -1      1518 3.23916E-03 7.01751E-04-5.62826E-15
 -1      1519 3.77664E-03 8.64760E-04-7.48125E-15
 -1      1520 3.61205E-03 8.19308E-04-6.80834E-15
 -1      1521 3.56875E-03 7.78853E-04-6.87924E-15
 -1      1522 4.09847E-03 9.65418E-04-8.92468E-15
 -1      1523 3.93910E-03 9.14105E-04-8.18659E-15
 -1      1524 3.89515E-03 8.73791E-04-8.25758E-15
 -1      1525 4.40578E-03 1.06755E-03-1.04984E-14
 -1      1526 4.25426E-03 1.01743E-03-9.69476E-15
 -1      1527 4.21319E-03 9.78578E-04-9.76545E-15
 -1      1528 4.69610E-03 1.15211E-03-1.22104E-14
 -1      1529 4.55305E-03 1.11328E-03-1.13363E-14
 -1      1530 4.51895E-03 1.07723E-03-1.14076E-14
 -1      1531 4.97255E-03 1.19845E-03-1.40645E-14
 -1      1532 4.83562E-03 1.18096E-03-1.31199E-14
 -1      1533 4.81204E-03 1.14843E-03-1.31893E-14
 -1      1534 5.24384E-03 1.19288E-03-1.60545E-14
 -1      1535 5.10810E-03 1.20227E-03-1.50425E-14
 -1      1536 5.09688E-03 1.17286E-03-1.51108E-14
 -1      1537 5.52108E-03 1.13532E-03-1.81845E-14
 -1      1538 5.38099E-03 1.16982E-03-1.71020E-14
 -1      1539 5.38169E-03 1.14213E-03-1.71713E-14
 -1      1540 5.81314E-03 1.03948E-03-2.04597E-14
 -1      1541 5.66485E-03 1.09087E-03-1.93042E-14
 -1      1542 5.67494E-03 1.06316E-03-1.93744E-14
 -1      1543 6.12335E-03 9.26244E-04-2.28760E-14
 -1      1544 5.96598E-03 9.83728E-04-2.16499E-14
 -1      1545 5.98163E-03 9.54704E-04-2.17190E-14
 -1      1546 6.44945E-03 8.15113E-04-2.54303E-14
 -1      1547 6.28472E-03 8.69508E-04-2.41352E-14
 -1      1548 6.30187E-03 8.38660E-04-2.42038E-14
 -1      1549 6.78580E-03 7.18934E-04-2.81256E-14
 -1      1550 6.61676E-03 7.64741E-04-2.67610E-14
 -1      1551 6.63213E-03 7.32207E-04-2.68291E-14
 -1      1552 7.12609E-03 6.43103E-04-3.09539E-14
 -1      1553 6.95585E-03 6.78442E-04-2.95233E-14
 -1      1554 6.96737E-03 6.44695E-04-2.95899E-14
 -1      1555 7.46505E-03 5.87528E-04-3.39104E-14
 -1      1556 7.29603E-03 6.12963E-04-3.24172E-14
 -1      1557 7.30289E-03 5.78550E-04-3.24808E-14
 -1      1558 7.79917E-03 5.49167E-04-3.69838E-14
 -1      1559 7.63289E-03 5.66452E-04-3.54326E-14
 -1      1560 7.63517E-03 5.31841E-04-3.54935E-14
 -1      1561 8.12662E-03 5.23996E-04-4.01584E-14
 -1      1562 7.96380E-03 5.35187E-04-3.85580E-14
 -1      1563 7.96212E-03 5.00713E-04-3.86169E-14
 -1      1564 8.44685E-03 5.08145E-04-4.34397E-14
 -1      1565 8.28764E-03 5.15120E-04-4.17871E-14
 -1      1566 8.28282E-03 4.80991E-04-4.18451E-14
 -1      1567 8.76016E-03 4.98392E-04-4.68211E-14
 -1      1568 8.60434E-03 5.02672E-04-4.51174E-14
 -1      1569 8.59720E-03 4.68989E-04-4.51748E-14
 -1      1570 9.06731E-03 4.92281E-04-5.03026E-14
 -1      1571 8.91445E-03 4.95002E-04-4.85492E-14
 -1      1572 8.90572E-03 4.61794E-04-4.86048E-14
 -1      1573 9.36921E-03 4.88052E-04-5.38815E-14
 -1      1574 9.21885E-03 4.90015E-04-5.20801E-14
 -1      1575 9.20909E-03 4.57263E-04-5.21341E-14
 -1      1576 9.66684E-03 4.84512E-04-5.75553E-14
 -1      1577 9.51850E-03 4.86251E-04-5.57068E-14
 -1      1578 9.50814E-03 4.53910E-04-5.57591E-14
 -1      1579 9.96109E-03 4.80898E-04-6.13170E-14
 -1      1580 9.81433E-03 4.82748E-04-5.94252E-14
 -1      1581 9.80368E-03 4.50763E-04-5.94754E-14
 -1      1582 1.02527E-02 4.76760E-04-6.51631E-14
 -1      1583 1.01072E-02 4.78913E-04-6.32300E-14
 -1      1584 1.00964E-02 4.47224E-04-6.32790E-14
 -1      1585 1.05424E-02 4.71863E-04-6.90957E-14
 -1      1586 1.03978E-02 4.74415E-04-6.71175E-14
 -1      1587 1.03871E-02 4.42966E-04-6.71681E-14
 -1      1588 1.08306E-02 4.66119E-04-7.31308E-14
 -1      1589 1.06866E-02 4.69099E-04-7.11003E-14
 -1      1590 1.06761E-02 4.37841E-04-7.11505E-14
 -1      1591 1.11178E-02 4.59531E-04-7.72676E-14
 -1      1592 1.09743E-02 4.62928E-04-7.51865E-14
 -1      1593 1.09639E-02 4.31819E-04-7.52344E-14
 -1      1594 1.14042E-02 4.52155E-04-8.15089E-14
 -1      1595 1.12611E-02 4.55937E-04-7.93751E-14
 -1      1596 1.12509E-02 4.24940E-04-7.94179E-14
 -1      1597 1.16902E-02 4.44079E-04-8.58349E-14
 -1      1598 1.15473E-02 4.48199E-04-8.36632E-14
 -1      1599 1.15372E-02 4.17286E-04-8.36961E-14
 -1      1600 1.19759E-02 4.35400E-04-9.02427E-14
 -1      1601 1.18331E-02 4.39809E-04-8.80278E-14
 -1      1602 1.18232E-02 4.08956E-04-8.80537E-14
 -1      1603 1.22614E-02 4.26216E-04-9.47215E-14
 -1      1604 1.21187E-02 4.30865E-04-9.24746E-14
 -1      1605 1.21089E-02 4.00055E-04-9.24895E-14
 -1      1606 1.25468E-02 4.16622E-04-9.92681E-14
 -1      1607 1.24041E-02 4.21465E-04-9.69878E-14
 -1      1608 1.23945E-02 3.90684E-04-9.69971E-14
 -1      1609 1.28322E-02 4.06701E-04-1.03874E-13
 -1      1610 1.26895E-02 4.11698E-04-1.01564E-13
 -1      1611 1.26800E-02 3.80935E-04-1.01568E-13
 -1      1612 1.31176E-02 3.96529E-04-1.08532E-13
 -1      1613 1.29749E-02 4.01643E-04-1.06196E-13
 -1      1614 1.29655E-02 3.70891E-04-1.06194E-13
 -1      1615 1.34031E-02 3.86169E-04-1.13223E-13
 -1      1616 1.32603E-02 3.91369E-04-1.10875E-13
 -1      1617 1.32510E-02 3.60623E-04-1.10863E-13
 -1      1618 1.36886E-02 3.75678E-04-1.17930E-13
 -1      1619 1.35458E-02 3.80937E-04-1.15576E-13
 -1      1620 1.35365E-02 3.50192E-04-1.15561E-13
 -1      1621 1.39741E-02 3.65105E-04-1.22655E-13
 -1      1622 1.38313E-02 3.70399E-04-1.20289E-13
 -1      1623 1.38220E-02 3.39652E-04-1.20274E-13
 -1      1624 1.42597E-02 3.54491E-04-1.27403E-13
 -1      1625 1.41169E-02 3.59800E-04-1.25026E-13
 -1      1626 1.41076E-02 3.29050E-04-1.25010E-13
 -1      1627 1.45454E-02 3.43874E-04-1.32157E-13
 -1      1628 1.44025E-02 3.49181E-04-1.29779E-13
 -1      1629 1.43932E-02 3.18425E-04-1.29761E-13
 -1      1630 1.48311E-02 3.33284E-04-1.36912E-13
 -1      1631 1.46882E-02 3.38575E-04-1.34535E-13
 -1      1632 1.46789E-02 3.07813E-04-1.34515E-13
 -1      1633 1.49813E-02 3.16888E-04-1.39456E-13
 -1      1634 1.50062E-02 2.11073E-04-1.40328E-13
 -1      1635 1.50010E-02 2.53226E-04-1.40058E-13
 -1      1636 1.50165E-02 1.26744E-04-1.40865E-13
 -1      1637 1.50114E-02 1.68913E-04-1.40599E-13
 -1      1638 1.48851E-02 1.94566E-04-1.38402E-13
 -1      1639 1.50268E-02 4.23775E-05-1.41399E-13
 -1      1640 1.50217E-02 8.45659E-05-1.41132E-13
 -1      1641 1.48954E-02 1.10231E-04-1.38935E-13
 -1      1642 1.50372E-02-4.20296E-05-1.41931E-13
 -1      1643 1.50320E-02 1.78932E-07-1.41669E-13
 -1      1644 1.49057E-02 2.58642E-05-1.39469E-13
 -1      1645 1.50474E-02-1.25042E-04-1.42445E-13
 -1      1646 1.50423E-02-8.35319E-05-1.42189E-13
 -1      1647 1.49160E-02-5.78197E-05-1.39991E-13
 -1      1648 1.50579E-02-2.09516E-04-1.42963E-13
 -1      1649 1.50526E-02-1.67276E-04-1.42704E-13
 -1      1650 1.49263E-02-1.41532E-04-1.40505E-13
 -1      1651 1.50684E-02-2.94011E-04-1.43478E-13
 -1      1652 1.50631E-02-2.51762E-04-1.43219E-13
 -1      1653 1.49368E-02-2.25981E-04-1.41015E-13
 -1      1654 1.50791E-02-3.78514E-04-1.43983E-13
 -1      1655 1.50738E-02-3.36262E-04-1.43734E-13
 -1      1656 1.49474E-02-3.10445E-04-1.41518E-13
 -1      1657 1.50899E-02-4.63014E-04-1.44466E-13
 -1      1658 1.50845E-02-4.20765E-04-1.44228E-13
 -1      1659 1.49581E-02-3.94913E-04-1.42012E-13
 -1      1660 1.51007E-02-5.47499E-04-1.44936E-13
 -1      1661 1.50953E-02-5.05259E-04-1.44702E-13
 -1      1662 1.49688E-02-4.79377E-04-1.42488E-13
 -1      1663 1.51115E-02-6.30527E-04-1.45382E-13
 -1      1664 1.51061E-02-5.89017E-04-1.45162E-13
 -1      1665 1.49796E-02-5.63111E-04-1.42946E-13
 -1      1666 1.51225E-02-7.14953E-04-1.45821E-13
 -1      1667 1.51170E-02-6.72745E-04-1.45604E-13
 -1      1668 1.49905E-02-6.46823E-04-1.43390E-13
 -1      1669 1.51336E-02-7.99340E-04-1.46240E-13
 -1      1670 1.51281E-02-7.57152E-04-1.46034E-13
 -1      1671 1.50016E-02-7.31222E-04-1.43820E-13
 -1      1672 1.51447E-02-8.83686E-04-1.46651E-13
 -1      1673 1.51391E-02-8.41518E-04-1.46447E-13
 -1      1674 1.50126E-02-8.15588E-04-1.44236E-13
 -1      1675 1.51129E-02-9.57984E-04-1.46295E-13
 -1      1676 1.51074E-02-9.15830E-04-1.46097E-13
 -1      1677 1.49809E-02-8.89910E-04-1.43890E-13
 -1      1678 1.49063E-02-9.54198E-04-1.42787E-13
 -1      1679 7.35824E-03 7.23139E-07-2.31595E-14
 -1      1680 7.39256E-03-4.54854E-05-2.32825E-14
 -1      1681 7.17227E-03 1.07594E-04-2.27894E-14
 -1      1682 7.27675E-03 5.04741E-05-2.30631E-14
 -1      1683 6.87323E-03 2.72430E-04-2.19161E-14
 -1      1684 7.02389E-03 1.98371E-04-2.22975E-14
 -1      1685 6.51298E-03 4.51818E-04-2.09380E-14
 -1      1686 6.68599E-03 3.69267E-04-2.13939E-14
 -1      1687 6.10653E-03 6.26700E-04-1.98715E-14
 -1      1688 6.29084E-03 5.43561E-04-2.03930E-14
 -1      1689 5.72125E-03 7.77145E-04-1.86856E-14
 -1      1690 5.90170E-03 7.15199E-04-1.92204E-14
 -1      1691 5.31027E-03 8.66626E-04-1.74508E-14
 -1      1692 5.50060E-03 8.34768E-04-1.80304E-14
 -1      1693 4.92424E-03 8.65626E-04-1.63135E-14
 -1      1694 5.09775E-03 8.76081E-04-1.68159E-14
 -1      1695 4.53807E-03 7.84812E-04-1.52769E-14
 -1      1696 4.71812E-03 8.31822E-04-1.57450E-14
 -1      1697 4.14235E-03 6.42025E-04-1.43559E-14
 -1      1698 4.32570E-03 7.14295E-04-1.47641E-14
 -1      1699 3.75204E-03 4.64029E-04-1.35615E-14
 -1      1700 3.93330E-03 5.47560E-04-1.39019E-14
 -1      1701 3.39371E-03 2.99625E-04-1.29997E-14
 -1      1702 3.54925E-03 3.74563E-04-1.32404E-14
 -1      1703 3.11415E-03 1.57657E-04-1.26217E-14
 -1      1704 3.23301E-03 2.19552E-04-1.27722E-14
 -1      1705 2.93385E-03 3.56296E-05-1.23923E-14
 -1      1706 3.00347E-03 8.51345E-05-1.24547E-14
 -1      1707 2.88676E-03-5.94893E-05-1.24515E-14
 -1      1708 2.89156E-03-1.52948E-05-1.24183E-14
 -1      1709 2.97899E-03-1.67307E-04-1.26828E-14
 -1      1710 2.91801E-03-1.15234E-04-1.25479E-14
 -1      1711 3.19757E-03-2.95197E-04-1.31093E-14
 -1      1712 3.08326E-03-2.33151E-04-1.28891E-14
 -1      1713 3.50761E-03-4.51437E-04-1.37202E-14
 -1      1714 3.35454E-03-3.75601E-04-1.34150E-14
 -1      1715 3.89701E-03-6.15933E-04-1.44522E-14
 -1      1716 3.72178E-03-5.30160E-04-1.40654E-14
 -1      1717 4.26971E-03-7.96529E-04-1.54236E-14
 -1      1718 4.07597E-03-7.11185E-04-1.49314E-14
 -1      1719 4.04373E-03-6.23284E-04-1.44400E-14
 -1      1720 4.72782E-03-9.53440E-04-1.66861E-14
 -1      1721 4.53175E-03-8.95198E-04-1.61321E-14
 -1      1722 5.12041E-03-1.00829E-03-1.78623E-14
 -1      1723 4.94375E-03-9.93924E-04-1.73302E-14
 -1      1724 5.52463E-03-9.73330E-04-1.91194E-14
 -1      1725 5.33493E-03-1.00382E-03-1.85335E-14
 -1      1726 5.94579E-03-8.48993E-04-2.02952E-14
 -1      1727 5.75533E-03-9.13888E-04-1.97619E-14
 -1      1728 6.34952E-03-6.80556E-04-2.13404E-14
 -1      1729 6.16504E-03-7.61937E-04-2.08819E-14
 -1      1730 6.73468E-03-4.87415E-04-2.22975E-14
 -1      1731 6.55488E-03-5.74303E-04-2.19021E-14
 -1      1732 7.06576E-03-3.35682E-04-2.28797E-14
 -1      1733 6.92864E-03-4.04561E-04-2.26224E-14
 -1      1734 7.29463E-03-1.91729E-04-2.34096E-14
 -1      1735 7.19907E-03-2.46172E-04-2.32669E-14
 -1      1736 7.39544E-03-9.84383E-05-2.33522E-14
 -1      1737 7.36702E-03-1.43261E-04-2.33462E-14
 -1      1738 6.33743E-03 4.60627E-04-2.09317E-14
 -1      1739 6.73583E-03 2.66580E-04-2.20139E-14
 -1      1740 1.49720E-02 2.86122E-04-1.39435E-13
 -1      1741 1.48508E-02 2.69622E-04-1.37511E-13
 -1      1742 7.31751E-03-4.45090E-06-2.36548E-14
 -1      1743 7.07846E-03 9.64006E-05-2.30454E-14
 -1      1744 7.40370E-03-7.32299E-05-2.38306E-14
 -1      1745 5.94507E-03 6.59130E-04-1.97213E-14
 -1      1746 5.56459E-03 8.20735E-04-1.84084E-14
 -1      1747 5.20157E-03 8.97284E-04-1.71182E-14
 -1      1748 4.84732E-03 8.69338E-04-1.59220E-14
 -1      1749 4.48426E-03 7.50681E-04-1.48539E-14
 -1      1750 4.09859E-03 5.69205E-04-1.39036E-14
 -1      1751 3.70613E-03 3.73494E-04-1.31481E-14
 -1      1752 3.34552E-03 2.06444E-04-1.26144E-14
 -1      1753 3.06659E-03 7.58855E-05-1.22298E-14
 -1      1754 2.90588E-03-6.10231E-06-1.20932E-14
 -1      1755 2.89420E-03-7.41225E-05-1.22125E-14
 -1      1756 3.03550E-03-1.58672E-04-1.25052E-14
 -1      1757 3.30479E-03-2.80748E-04-1.30028E-14
 -1      1758 3.67138E-03-4.38504E-04-1.36374E-14
 -1      1759 4.86124E-03-9.93094E-04-1.69526E-14
 -1      1760 5.22851E-03-1.03276E-03-1.82694E-14
 -1      1761 5.59563E-03-9.58358E-04-1.95950E-14
 -1      1762 5.99502E-03-7.94958E-04-2.08397E-14
 -1      1763 6.39544E-03-5.88580E-04-2.20062E-14
 -1      1764 6.78486E-03-3.94984E-04-2.29135E-14
 -1      1765 7.11611E-03-2.36787E-04-2.36366E-14
 -1      1766 7.33204E-03-1.40729E-04-2.39665E-14
 -1      1767 2.90749E-04-1.64963E-04-6.49844E-17
 -1      1768 4.44507E-03-8.37767E-04-1.56065E-14
 -1      1769 3.37252E-04-9.46227E-05-1.86266E-16
 -1      1770 3.43200E-04-1.11319E-04-1.76630E-16
 -1      1771 3.50586E-04-1.31205E-04-1.64473E-16
 -1      1772 3.61019E-04-1.54534E-04-1.46991E-16
 -1      1773 4.68973E-04-1.60032E-04-2.56739E-16
 -1      1774 3.21220E-04-4.66624E-05-2.03451E-16
 -1      1775 3.24396E-04-5.63500E-05-2.01187E-16
 -1      1776 3.16093E-04-2.98021E-05-2.05117E-16
 -1      1777 3.18438E-04-3.77717E-05-2.04670E-16
 -1      1778 4.29806E-04-5.67739E-05-3.00731E-16
 -1      1779 3.12801E-04-1.57101E-05-2.03667E-16
 -1      1780 3.14215E-04-2.24739E-05-2.04752E-16
 -1      1781 4.22978E-04-3.52686E-05-3.01679E-16
 -1      1782 3.11439E-04-3.08046E-06-2.00347E-16
 -1      1783 3.11875E-04-9.27648E-06-2.02339E-16
 -1      1784 4.18880E-04-1.68710E-05-2.99104E-16
 -1      1785 3.12052E-04 9.34646E-06-1.94818E-16
 -1      1786 3.11499E-04 3.09529E-06-1.97989E-16
 -1      1787 4.17633E-04 7.02159E-08-2.93507E-16
 -1      1788 3.14587E-04 2.28085E-05-1.87093E-16
 -1      1789 3.13084E-04 1.58884E-05-1.91335E-16
 -1      1790 4.19261E-04 1.71609E-05-2.84847E-16
 -1      1791 3.18835E-04 3.82461E-05-1.76684E-16
 -1      1792 3.16497E-04 3.02026E-05-1.82376E-16
 -1      1793 4.23609E-04 3.58113E-05-2.72880E-16
 -1      1794 3.24848E-04 5.74759E-05-1.62563E-16
 -1      1795 3.21618E-04 4.73695E-05-1.70423E-16
 -1      1796 4.30507E-04 5.77161E-05-2.57132E-16
 -1      1797 3.32722E-04 8.18528E-05-1.42803E-16
 -1      1798 3.28511E-04 6.89707E-05-1.53875E-16
 -1      1799 4.39983E-04 8.48081E-05-2.35922E-16
 -1      1800 3.43458E-04 1.13863E-04-1.14641E-16
 -1      1801 3.37568E-04 9.68261E-05-1.30308E-16
 -1      1802 4.52395E-04 1.19095E-04-2.06378E-16
 -1      1803 3.61383E-04 1.58604E-04-7.42543E-17
 -1      1804 3.51089E-04 1.34432E-04-9.67379E-17
 -1      1805 4.69895E-04 1.64038E-04-1.64988E-16
 -1      1806 4.17405E-04 2.15181E-04-4.43845E-17
 -1      1807 3.87797E-04 1.83693E-04-6.32903E-17
 -1      1808 5.09241E-04 2.17671E-04-1.27068E-16
 -1      1809 5.72894E-04 2.76389E-04-9.50845E-17
 -1      1810 3.48679E-04-1.74567E-04-1.09721E-16
 -1      1811 8.79325E-04 3.66505E-04-2.86528E-16
 -1      1812 7.26797E-04 3.25855E-04-1.76142E-16
 -1      1813 6.92521E-04 2.95072E-04-1.96674E-16
 -1      1814 4.59641E-03-8.91333E-04-1.58091E-14
 -1      1815 4.38848E-03-7.77819E-04-1.51146E-14
 -1      1816 4.71542E-04-2.12841E-04-1.91890E-16
 -1      1817 8.32143E-04-3.32753E-04-5.06675E-16
 -1      1818 9.84011E-04-3.66804E-04-7.04975E-16
 -1      1819 1.13434E-03-3.94889E-04-9.38797E-16
 -1      1820 1.28452E-03-4.17798E-04-1.20844E-15
 -1      1821 1.03624E-03-3.44521E-04-8.56899E-16
 -1      1822 1.43450E-03-4.37071E-04-1.51309E-15
 -1      1823 1.58499E-03-4.53179E-04-1.85363E-15
 -1      1824 1.33637E-03-3.90187E-04-1.40069E-15
 -1      1825 1.73619E-03-4.67296E-04-2.22907E-15
 -1      1826 1.88849E-03-4.79918E-04-2.63925E-15
 -1      1827 1.63692E-03-4.22121E-04-2.08404E-15
 -1      1828 2.04210E-03-4.92058E-04-3.08396E-15
 -1      1829 2.19720E-03-5.04288E-04-3.56277E-15
 -1      1830 1.94011E-03-4.46799E-04-2.90536E-15
 -1      1831 2.35400E-03-5.17603E-04-4.07571E-15
 -1      1832 2.51250E-03-5.32661E-04-4.62265E-15
 -1      1833 2.24779E-03-4.70380E-04-3.86248E-15
 -1      1834 2.67295E-03-5.50494E-04-5.20291E-15
 -1      1835 2.83508E-03-5.71829E-04-5.81677E-15
 -1      1836 2.56144E-03-4.99279E-04-4.95325E-15
 -1      1837 2.99923E-03-5.97667E-04-6.46522E-15
 -1      1838 3.16472E-03-6.28724E-04-7.14652E-15
 -1      1839 2.88219E-03-5.40384E-04-6.17716E-15
 -1      1840 3.33208E-03-6.65748E-04-7.86205E-15
 -1      1841 3.50007E-03-7.09205E-04-8.61083E-15
 -1      1842 3.21062E-03-6.00703E-04-7.53472E-15
 -1      1843 3.66934E-03-7.59180E-04-9.39380E-15
 -1      1844 3.83816E-03-8.15457E-04-1.02131E-14
 -1      1845 3.54637E-03-6.86001E-04-9.02524E-15
 -1      1846 4.00713E-03-8.76961E-04-1.10682E-14
 -1      1847 4.17430E-03-9.42116E-04-1.19589E-14
 -1      1848 3.88721E-03-7.97980E-04-1.06544E-14
 -1      1849 4.33990E-03-1.00835E-03-1.28850E-14
 -1      1850 4.50275E-03-1.07248E-03-1.38480E-14
 -1      1851 4.22826E-03-9.29777E-04-1.24249E-14
 -1      1852 4.66245E-03-1.13075E-03-1.48481E-14
 -1      1853 4.81962E-03-1.17908E-03-1.58856E-14
 -1      1854 4.56269E-03-1.06177E-03-1.43406E-14
 -1      1855 4.97335E-03-1.21395E-03-1.69595E-14
 -1      1856 5.12652E-03-1.23244E-03-1.80688E-14
 -1      1857 4.88574E-03-1.16267E-03-1.64047E-14
 -1      1858 5.27794E-03-1.23318E-03-1.92157E-14
 -1      1859 5.43150E-03-1.21632E-03-2.03977E-14
 -1      1860 5.19984E-03-1.20144E-03-1.86163E-14
 -1      1861 5.58603E-03-1.18348E-03-2.16127E-14
 -1      1862 5.74424E-03-1.13779E-03-2.28620E-14
 -1      1863 5.51469E-03-1.16557E-03-2.09709E-14
 -1      1864 5.90526E-03-1.08289E-03-2.41446E-14
 -1      1865 6.06953E-03-1.02290E-03-2.54588E-14
 -1      1866 5.83964E-03-1.06981E-03-2.34642E-14
 -1      1867 6.23675E-03-9.61539E-04-2.68048E-14
 -1      1868 6.40559E-03-9.01921E-04-2.81815E-14
 -1      1869 6.17647E-03-9.46157E-04-2.60895E-14
 -1      1870 6.57632E-03-8.46563E-04-2.95857E-14
 -1      1871 6.74703E-03-7.96938E-04-3.10190E-14
 -1      1872 6.52002E-03-8.25556E-04-2.88353E-14
 -1      1873 6.91831E-03-7.54086E-04-3.24822E-14
 -1      1874 7.08848E-03-7.18220E-04-3.39719E-14
 -1      1875 6.86355E-03-7.26929E-04-3.16984E-14
 -1      1876 7.25815E-03-6.89282E-04-3.54884E-14
 -1      1877 7.42618E-03-6.66853E-04-3.70335E-14
 -1      1878 7.20237E-03-6.56773E-04-3.46713E-14
 -1      1879 7.59302E-03-6.50294E-04-3.86059E-14
 -1      1880 7.75806E-03-6.38990E-04-4.02045E-14
 -1      1881 7.53442E-03-6.13628E-04-3.77538E-14
 -1      1882 7.92155E-03-6.32130E-04-4.18305E-14
 -1      1883 8.08328E-03-6.29119E-04-4.34830E-14
 -1      1884 7.85930E-03-5.92500E-04-4.09452E-14
 -1      1885 8.24336E-03-6.29206E-04-4.51618E-14
 -1      1886 8.40183E-03-6.31897E-04-4.68643E-14
 -1      1887 8.17743E-03-5.87643E-04-4.42433E-14
 -1      1888 8.55871E-03-6.36594E-04-4.85935E-14
 -1      1889 8.71417E-03-6.42916E-04-5.03455E-14
 -1      1890 8.48952E-03-5.93912E-04-4.76441E-14
 -1      1891 8.86819E-03-6.50430E-04-5.21219E-14
 -1      1892 9.02099E-03-6.58857E-04-5.39255E-14
 -1      1893 8.79638E-03-6.07232E-04-5.11419E-14
 -1      1894 9.17256E-03-6.67906E-04-5.57510E-14
 -1      1895 9.32310E-03-6.77377E-04-5.76027E-14
 -1      1896 9.09877E-03-6.24605E-04-5.47398E-14
 -1      1897 9.47262E-03-6.87090E-04-5.94778E-14
 -1      1898 9.62130E-03-6.96907E-04-6.13723E-14
 -1      1899 9.39743E-03-6.43950E-04-5.84329E-14
 -1      1900 9.76914E-03-7.06726E-04-6.32900E-14
 -1      1901 9.91632E-03-7.16453E-04-6.52295E-14
 -1      1902 9.69302E-03-6.63896E-04-6.22202E-14
 -1      1903 1.00628E-02-7.26041E-04-6.71915E-14
 -1      1904 1.02088E-02-7.35429E-04-6.91700E-14
 -1      1905 9.98614E-03-6.83592E-04-6.60939E-14
 -1      1906 1.03543E-02-7.44603E-04-7.11671E-14
 -1      1907 1.04994E-02-7.53528E-04-7.31845E-14
 -1      1908 1.02773E-02-7.02553E-04-7.00459E-14
 -1      1909 1.06441E-02-7.62210E-04-7.52168E-14
 -1      1910 1.07884E-02-7.70629E-04-7.72675E-14
 -1      1911 1.05669E-02-7.20544E-04-7.40732E-14
 -1      1912 1.09325E-02-7.78803E-04-7.93348E-14
 -1      1913 1.10764E-02-7.86724E-04-8.14163E-14
 -1      1914 1.08554E-02-7.37486E-04-7.81688E-14
 -1      1915 1.12200E-02-7.94416E-04-8.35156E-14
 -1      1916 1.13635E-02-8.01877E-04-8.56294E-14
 -1      1917 1.11429E-02-7.53405E-04-8.23321E-14
 -1      1918 1.15069E-02-8.09132E-04-8.77562E-14
 -1      1919 1.16501E-02-8.16186E-04-8.98991E-14
 -1      1920 1.14299E-02-7.68382E-04-8.65554E-14
 -1      1921 1.17932E-02-8.23062E-04-9.20554E-14
 -1      1922 1.19363E-02-8.29765E-04-9.42260E-14
 -1      1923 1.17163E-02-7.82527E-04-9.08383E-14
 -1      1924 1.20792E-02-8.36320E-04-9.64133E-14
 -1      1925 1.22221E-02-8.42732E-04-9.86157E-14
 -1      1926 1.20024E-02-7.95959E-04-9.51809E-14
 -1      1927 1.23650E-02-8.49021E-04-1.00834E-13
 -1      1928 1.25079E-02-8.55195E-04-1.03071E-13
 -1      1929 1.22883E-02-8.08799E-04-9.95828E-14
 -1      1930 1.26507E-02-8.61271E-04-1.05326E-13
 -1      1931 1.27935E-02-8.67255E-04-1.07600E-13
 -1      1932 1.25741E-02-8.21157E-04-1.04055E-13
 -1      1933 1.29363E-02-8.73163E-04-1.09895E-13
 -1      1934 1.30791E-02-8.79000E-04-1.12210E-13
 -1      1935 1.28598E-02-8.33130E-04-1.08601E-13
 -1      1936 1.32219E-02-8.84779E-04-1.14537E-13
 -1      1937 1.33646E-02-8.90506E-04-1.16881E-13
 -1      1938 1.31454E-02-8.44807E-04-1.13222E-13
 -1      1939 1.35074E-02-8.96191E-04-1.19243E-13
 -1      1940 1.36502E-02-9.01838E-04-1.21614E-13
 -1      1941 1.34310E-02-8.56259E-04-1.17906E-13
 -1      1942 1.37930E-02-9.07457E-04-1.23997E-13
 -1      1943 1.39358E-02-9.13052E-04-1.26387E-13
 -1      1944 1.37167E-02-8.67552E-04-1.22644E-13
 -1      1945 1.40786E-02-9.18630E-04-1.28786E-13
 -1      1946 1.42214E-02-9.24195E-04-1.31189E-13
 -1      1947 1.40023E-02-8.78739E-04-1.27417E-13
 -1      1948 1.43642E-02-9.29754E-04-1.33599E-13
 -1      1949 1.45071E-02-9.35311E-04-1.36013E-13
 -1      1950 1.42879E-02-8.89866E-04-1.32223E-13
 -1      1951 1.46353E-02-9.41966E-04-1.38184E-13
 -1      1952 1.47781E-02-9.47531E-04-1.40604E-13
 -1      1953 1.48154E-02-9.15387E-04-1.41154E-13
 -1      1954 1.45590E-02-9.02072E-04-1.36803E-13
 -1      1955 1.17943E-03 4.26902E-04-5.97206E-16
 -1      1956 1.02963E-03 3.99641E-04-4.26403E-16
 -1      1957 9.95688E-04 3.69681E-04-4.51123E-16
 -1      1958 1.47789E-03 4.68735E-04-1.03089E-15
 -1      1959 1.32848E-03 4.49671E-04-7.98379E-16
 -1      1960 1.29562E-03 4.20562E-04-8.25661E-16
 -1      1961 1.77850E-03 4.99693E-04-1.58994E-15
 -1      1962 1.62769E-03 4.85216E-04-1.29455E-15
 -1      1963 1.59536E-03 4.56420E-04-1.32397E-15
 -1      1964 2.08373E-03 5.26066E-04-2.27482E-15
 -1      1965 1.93040E-03 5.13128E-04-1.91684E-15
 -1      1966 1.89771E-03 4.84093E-04-1.94719E-15
 -1      1967 2.39497E-03 5.53782E-04-3.08625E-15
 -1      1968 2.23854E-03 5.39438E-04-2.66456E-15
 -1      1969 2.20458E-03 5.09656E-04-2.69569E-15
 -1      1970 2.71264E-03 5.88787E-04-4.02171E-15
 -1      1971 2.55302E-03 5.70067E-04-3.53821E-15
 -1      1972 2.51709E-03 5.39070E-04-3.56921E-15
 -1      1973 3.03613E-03 6.36870E-04-5.08307E-15
 -1      1974 2.87378E-03 6.10940E-04-4.53665E-15
 -1      1975 2.83562E-03 5.78342E-04-4.56678E-15
 -1      1976 3.36361E-03 7.02766E-04-6.26990E-15
 -1      1977 3.19963E-03 6.67479E-04-5.66073E-15
 -1      1978 3.15963E-03 6.33086E-04-5.68942E-15
 -1      1979 3.69195E-03 7.88339E-04-7.58147E-15
 -1      1980 3.52807E-03 7.43257E-04-6.90997E-15
 -1      1981 3.48746E-03 7.07284E-04-6.93687E-15
 -1      1982 4.01684E-03 8.89976E-04-9.02219E-15
 -1      1983 3.85530E-03 8.37738E-04-8.28580E-15
 -1      1984 3.81611E-03 8.01052E-04-8.31068E-15
 -1      1985 4.33374E-03 9.96152E-04-1.05941E-14
 -1      1986 4.17667E-03 9.43558E-04-9.79113E-15
 -1      1987 4.14134E-03 9.07764E-04-9.81273E-15
 -1      1988 4.63971E-03 1.08742E-03-1.23020E-14
 -1      1989 4.48814E-03 1.04495E-03-1.14306E-14
 -1      1990 4.45870E-03 1.01202E-03-1.14491E-14
 -1      1991 4.93569E-03 1.14129E-03-1.41508E-14
 -1      1992 4.78854E-03 1.12008E-03-1.32084E-14
 -1      1993 4.76596E-03 1.09138E-03-1.32243E-14
 -1      1994 5.22721E-03 1.14148E-03-1.61391E-14
 -1      1995 5.08123E-03 1.14835E-03-1.51275E-14
 -1      1996 5.06543E-03 1.12377E-03-1.51393E-14
 -1      1997 5.52233E-03 1.08621E-03-1.82680E-14
 -1      1998 5.37356E-03 1.12006E-03-1.71864E-14
 -1      1999 5.36389E-03 1.09798E-03-1.71960E-14
 -1      2000 5.82746E-03 9.89309E-04-2.05396E-14
 -1      2001 5.67323E-03 1.04164E-03-1.93857E-14
 -1      2002 5.66899E-03 1.01993E-03-1.93939E-14
 -1      2003 6.14459E-03 8.73059E-04-2.29522E-14
 -1      2004 5.98455E-03 9.32285E-04-2.17279E-14
 -1      2005 5.98481E-03 9.09452E-04-2.17333E-14
 -1      2006 6.47153E-03 7.58518E-04-2.55044E-14
 -1      2007 6.30716E-03 8.14694E-04-2.42113E-14
 -1      2008 6.31041E-03 7.90245E-04-2.42134E-14
 -1      2009 6.80396E-03 6.59507E-04-2.81955E-14
 -1      2010 6.63747E-03 7.06701E-04-2.68331E-14
 -1      2011 6.64182E-03 6.80830E-04-2.68338E-14
 -1      2012 7.13751E-03 5.81784E-04-3.10174E-14
 -1      2013 6.97096E-03 6.17986E-04-2.95901E-14
 -1      2014 6.97461E-03 5.91123E-04-2.95874E-14
 -1      2015 7.46873E-03 5.25241E-04-3.39657E-14
 -1      2016 7.30367E-03 5.51063E-04-3.24758E-14
 -1      2017 7.30531E-03 5.23621E-04-3.24698E-14
 -1      2018 7.79545E-03 4.86649E-04-3.70331E-14
 -1      2019 7.63281E-03 5.03961E-04-3.54854E-14
 -1      2020 7.63177E-03 4.76258E-04-3.54740E-14
 -1      2021 8.11656E-03 4.61756E-04-4.02038E-14
 -1      2022 7.95677E-03 4.72737E-04-3.86055E-14
 -1      2023 7.95293E-03 4.44997E-04-3.85915E-14
 -1      2024 8.43180E-03 4.46489E-04-4.34816E-14
 -1      2025 8.27492E-03 4.53121E-04-4.18303E-14
 -1      2026 8.26853E-03 4.25495E-04-4.18133E-14
 -1      2027 8.74144E-03 4.37468E-04-4.68577E-14
 -1      2028 8.58729E-03 4.41349E-04-4.51567E-14
 -1      2029 8.57875E-03 4.13927E-04-4.51366E-14
 -1      2030 9.04603E-03 4.32126E-04-5.03362E-14
 -1      2031 8.89431E-03 4.34444E-04-4.85849E-14
 -1      2032 8.88410E-03 4.07275E-04-4.85611E-14
 -1      2033 9.34630E-03 4.28634E-04-5.39094E-14
 -1      2034 9.19665E-03 4.30220E-04-5.21101E-14
 -1      2035 9.18520E-03 4.03319E-04-5.20843E-14
 -1      2036 9.64297E-03 4.25759E-04-5.75786E-14
 -1      2037 9.49503E-03 4.27164E-04-5.57331E-14
 -1      2038 9.48271E-03 4.00523E-04-5.57038E-14
 -1      2039 9.93675E-03 4.22722E-04-6.13357E-14
 -1      2040 9.79017E-03 4.24286E-04-5.94461E-14
 -1      2041 9.77728E-03 3.97886E-04-5.94153E-14
 -1      2042 1.02282E-02 4.19067E-04-6.51803E-14
 -1      2043 1.00827E-02 4.20984E-04-6.32474E-14
 -1      2044 1.00695E-02 3.94795E-04-6.32137E-14
 -1      2045 1.05180E-02 4.14564E-04-6.91123E-14
 -1      2046 1.03733E-02 4.16925E-04-6.71360E-14
 -1      2047 1.03599E-02 3.90917E-04-6.70989E-14
 -1      2048 1.08064E-02 4.09135E-04-7.31436E-14
 -1      2049 1.06623E-02 4.11964E-04-7.11154E-14
 -1      2050 1.06488E-02 3.86107E-04-7.10781E-14
 -1      2051 1.10938E-02 4.02793E-04-7.72714E-14
 -1      2052 1.09502E-02 4.06074E-04-7.51950E-14
 -1      2053 1.09367E-02 3.80339E-04-7.51525E-14
 -1      2054 1.13806E-02 3.95605E-04-8.14950E-14
 -1      2055 1.12373E-02 3.99299E-04-7.93708E-14
 -1      2056 1.12238E-02 3.73661E-04-7.93237E-14
 -1      2057 1.16668E-02 3.87670E-04-8.58071E-14
 -1      2058 1.15237E-02 3.91724E-04-8.36418E-14
 -1      2059 1.15103E-02 3.66163E-04-8.35857E-14
 -1      2060 1.19528E-02 3.79094E-04-9.01975E-14
 -1      2061 1.18098E-02 3.83455E-04-8.79925E-14
 -1      2062 1.17965E-02 3.57952E-04-8.79290E-14
 -1      2063 1.22385E-02 3.69983E-04-9.46618E-14
 -1      2064 1.20956E-02 3.74599E-04-9.24207E-14
 -1      2065 1.20824E-02 3.49140E-04-9.23515E-14
 -1      2066 1.25241E-02 3.60439E-04-9.91954E-14
 -1      2067 1.23813E-02 3.65260E-04-9.69211E-14
 -1      2068 1.23681E-02 3.39833E-04-9.68445E-14
 -1      2069 1.28096E-02 3.50552E-04-1.03789E-13
 -1      2070 1.26669E-02 3.55534E-04-1.01484E-13
 -1      2071 1.26537E-02 3.30128E-04-1.01402E-13
 -1      2072 1.30952E-02 3.40398E-04-1.08433E-13
 -1      2073 1.29524E-02 3.45504E-04-1.06106E-13
 -1      2074 1.29393E-02 3.20114E-04-1.06015E-13
 -1      2075 1.33807E-02 3.30048E-04-1.13112E-13
 -1      2076 1.32379E-02 3.35245E-04-1.10769E-13
 -1      2077 1.32249E-02 3.09864E-04-1.10675E-13
 -1      2078 1.36662E-02 3.19559E-04-1.17815E-13
 -1      2079 1.35235E-02 3.24818E-04-1.15463E-13
 -1      2080 1.35105E-02 2.99442E-04-1.15363E-13
 -1      2081 1.39518E-02 3.08982E-04-1.22537E-13
 -1      2082 1.38090E-02 3.14279E-04-1.20172E-13
 -1      2083 1.37961E-02 2.88905E-04-1.20071E-13
 -1      2084 1.42375E-02 2.98361E-04-1.27282E-13
 -1      2085 1.40947E-02 3.03675E-04-1.24907E-13
 -1      2086 1.40817E-02 2.78299E-04-1.24803E-13
 -1      2087 1.45231E-02 2.87734E-04-1.32034E-13
 -1      2088 1.43803E-02 2.93047E-04-1.29658E-13
 -1      2089 1.43673E-02 2.67667E-04-1.29553E-13
 -1      2090 1.47584E-02 2.76024E-04-1.35962E-13
 -1      2091 1.46156E-02 2.81323E-04-1.33585E-13
 -1      2092 1.46026E-02 2.55939E-04-1.33482E-13
 -1      2093 1.47875E-02 2.43123E-04-1.36585E-13
 -1      2094 1.47845E-02 9.37157E-06-1.37539E-13
 -1      2095 1.47794E-02 5.15566E-05-1.37272E-13
 -1      2096 1.47742E-02 9.37350E-05-1.37007E-13
 -1      2097 1.47691E-02 1.35906E-04-1.36743E-13
 -1      2098 1.46531E-02 7.72525E-05-1.35078E-13
 -1      2099 1.47809E-02 1.68439E-04-1.36796E-13
 -1      2100 1.47757E-02 2.10599E-04-1.36529E-13
 -1      2101 1.46833E-02 2.17007E-04-1.34978E-13
 -1      2102 1.46597E-02 1.51954E-04-1.34868E-13
 -1      2103 1.47947E-02-7.35872E-05-1.38050E-13
 -1      2104 1.47896E-02-3.21051E-05-1.37794E-13
 -1      2105 1.46633E-02-6.39017E-06-1.35599E-13
 -1      2106 1.48052E-02-1.57998E-04-1.38561E-13
 -1      2107 1.47999E-02-1.15790E-04-1.38306E-13
 -1      2108 1.46736E-02-9.00529E-05-1.36109E-13
 -1      2109 1.48157E-02-2.42425E-04-1.39063E-13
 -1      2110 1.48104E-02-2.00210E-04-1.38814E-13
 -1      2111 1.46840E-02-1.74447E-04-1.36613E-13
 -1      2112 1.48263E-02-3.26861E-04-1.39559E-13
 -1      2113 1.48210E-02-2.84643E-04-1.39311E-13
 -1      2114 1.46946E-02-2.58852E-04-1.37109E-13
 -1      2115 1.48370E-02-4.11299E-04-1.40043E-13
 -1      2116 1.48316E-02-3.69081E-04-1.39804E-13
 -1      2117 1.47052E-02-3.43262E-04-1.37595E-13
 -1      2118 1.48478E-02-4.95731E-04-1.40513E-13
 -1      2119 1.48424E-02-4.53517E-04-1.40281E-13
 -1      2120 1.47160E-02-4.27673E-04-1.38072E-13
 -1      2121 1.48586E-02-5.78720E-04-1.40961E-13
 -1      2122 1.48532E-02-5.37228E-04-1.40737E-13
 -1      2123 1.47267E-02-5.11363E-04-1.38532E-13
 -1      2124 1.48696E-02-6.63121E-04-1.41398E-13
 -1      2125 1.48640E-02-6.20924E-04-1.41182E-13
 -1      2126 1.47376E-02-5.95041E-04-1.38974E-13
 -1      2127 1.48806E-02-7.47498E-04-1.41822E-13
 -1      2128 1.48751E-02-7.05313E-04-1.41611E-13
 -1      2129 1.47486E-02-6.79419E-04-1.39405E-13
 -1      2130 1.48917E-02-8.31847E-04-1.42234E-13
 -1      2131 1.48861E-02-7.89676E-04-1.42028E-13
 -1      2132 1.47596E-02-7.63777E-04-1.39825E-13
 -1      2133 6.97025E-03 1.01035E-04-2.32686E-14
 -1      2134 7.12464E-03 3.79201E-05-2.37768E-14
 -1      2135 7.40457E-03-6.58339E-05-2.44210E-14
 -1      2136 7.40764E-03-8.34764E-05-2.44968E-14
 -1      2137 7.28271E-03-1.79101E-05-2.41974E-14
 -1      2138 7.36335E-03-4.14512E-05-2.43074E-14
 -1      2139 7.39321E-03-6.16594E-05-2.49681E-14
 -1      2140 6.60255E-03 2.75409E-04-2.21496E-14
 -1      2141 6.78510E-03 1.86127E-04-2.26879E-14
 -1      2142 4.18896E-03-6.60738E-04-1.44636E-14
 -1      2143 4.02800E-03-5.63146E-04-1.39994E-14
 -1      2144 5.28637E-03-1.04809E-03-1.86341E-14
 -1      2145 5.13798E-03-1.05616E-03-1.79575E-14
 -1      2146 6.21101E-03 4.79569E-04-2.09837E-14
 -1      2147 6.40464E-03 3.77788E-04-2.15429E-14
 -1      2148 3.28005E-04-6.75131E-05-1.97894E-16
 -1      2149 3.32247E-04-8.00645E-05-1.92947E-16
 -1      2150 4.51665E-04-1.16455E-04-2.81391E-16
 -1      2151 4.39225E-04-8.31199E-05-2.94740E-16
 -1      2152 5.45898E-03 8.59853E-04-1.81731E-14
 -1      2153 5.62357E-03 7.93055E-04-1.88314E-14
 -1      2154 5.11457E-03 9.21350E-04-1.67472E-14
 -1      2155 5.26417E-03 9.08913E-04-1.73782E-14
 -1      2156 4.79089E-03 8.62009E-04-1.55252E-14
 -1      2157 4.94139E-03 9.02929E-04-1.60840E-14
 -1      2158 4.44254E-03 7.09140E-04-1.43917E-14
 -1      2159 4.60805E-03 7.91862E-04-1.48890E-14
 -1      2160 4.06195E-03 5.02003E-04-1.34264E-14
 -1      2161 4.24389E-03 6.05299E-04-1.38628E-14
 -1      2162 3.64609E-03 2.90798E-04-1.26817E-14
 -1      2163 3.83280E-03 3.83096E-04-1.29861E-14
 -1      2164 3.29232E-03 1.33409E-04-1.21750E-14
 -1      2165 3.45187E-03 2.01056E-04-1.23901E-14
 -1      2166 3.02598E-03 2.97536E-05-1.18312E-14
 -1      2167 3.14240E-03 7.31667E-05-1.19918E-14
 -1      2168 2.88153E-03-2.89520E-05-1.17723E-14
 -1      2169 2.92429E-03-9.56906E-06-1.17456E-14
 -1      2170 2.90829E-03-7.20336E-05-1.18605E-14
 -1      2171 2.87487E-03-5.28993E-05-1.17710E-14
 -1      2172 3.09768E-03-1.47681E-04-1.22824E-14
 -1      2173 2.98997E-03-1.09516E-04-1.20878E-14
 -1      2174 3.40840E-03-2.72325E-04-1.28324E-14
 -1      2175 3.25134E-03-2.06893E-04-1.25423E-14
 -1      2176 3.77539E-03-4.35885E-04-1.34767E-14
 -1      2177 3.58525E-03-3.49874E-04-1.31503E-14
 -1      2178 3.50032E-03-2.83340E-04-1.26771E-14
 -1      2179 4.98259E-03-1.03625E-03-1.72992E-14
 -1      2180 4.82740E-03-9.88383E-04-1.66565E-14
 -1      2181 5.06983E-03-1.05867E-03-1.76499E-14
 -1      2182 5.66256E-03-9.28587E-04-2.01859E-14
 -1      2183 5.49570E-03-9.97697E-04-1.95284E-14
 -1      2184 6.03368E-03-7.35515E-04-2.15148E-14
 -1      2185 5.85633E-03-8.34956E-04-2.09092E-14
 -1      2186 6.43539E-03-5.15452E-04-2.26917E-14
 -1      2187 6.24514E-03-6.23755E-04-2.21122E-14
 -1      2188 6.85684E-03-3.15047E-04-2.36035E-14
 -1      2189 6.67429E-03-3.96197E-04-2.32636E-14
 -1      2190 7.15922E-03-1.82016E-04-2.43868E-14
 -1      2191 7.01861E-03-2.41481E-04-2.39934E-14
 -1      2192 6.92844E-03-2.57046E-04-2.43446E-14
 -1      2193 7.37431E-03-1.07266E-04-2.45554E-14
 -1      2194 7.30302E-03-1.29605E-04-2.46172E-14
 -1      2195 7.40067E-03-8.99029E-05-2.51451E-14
 -1      2196 5.79865E-03 7.06551E-04-1.95563E-14
 -1      2197 5.96914E-03 6.07670E-04-2.02168E-14
 -1      2198 4.33097E-03-7.27053E-04-1.46540E-14
 -1      2199 4.72986E-03-9.47898E-04-1.61405E-14
 -1      2200 6.25270E-04-2.66319E-04-3.08998E-16
 -1      2201 6.82315E-04-2.55501E-04-4.09666E-16
 -1      2202 7.21038E-03-6.25503E-06-2.44207E-14
 -1      2203 7.28157E-03-3.34508E-05-2.50734E-14
 -1      2204 7.13179E-03 1.00497E-05-2.46406E-14
 -1      2205 6.86231E-03 1.24509E-04-2.34043E-14
 -1      2206 1.48544E-02-8.64003E-04-1.41685E-13
 -1      2207 6.06873E-03 5.37065E-04-2.08122E-14
 -1      2208 6.48786E-03 3.05200E-04-2.22023E-14
 -1      2209 3.91012E-03-4.84367E-04-1.34969E-14
 -1      2210 7.24021E-03-1.41328E-04-2.49696E-14
 -1      2211 7.17089E-03-1.56951E-04-2.53238E-14
 -1      2212 7.30667E-03-1.17410E-04-2.55574E-14
 -1      2213 6.53917E-03-4.39108E-04-2.33680E-14
 -1      2214 6.42209E-03-4.89151E-04-2.34674E-14
 -1      2215 6.64096E-03-3.75576E-04-2.40535E-14
 -1      2216 6.11261E-03-6.73507E-04-2.21820E-14
 -1      2217 3.17614E-03-1.55916E-04-1.21143E-14
 -1      2218 2.94199E-03-7.67080E-05-1.16386E-14
 -1      2219 2.86845E-03-4.22631E-05-1.14210E-14
 -1      2220 2.96581E-03-2.04113E-06-1.15059E-14
 -1      2221 3.01691E-03 6.53152E-06-1.12670E-14
 -1      2222 2.91964E-03-1.86436E-05-1.11849E-14
 -1      2223 3.22447E-03 8.45954E-05-1.17692E-14
 -1      2224 5.38498E-03-1.03452E-03-1.92036E-14
 -1      2225 3.56053E-03 2.24538E-04-1.22310E-14
 -1      2226 3.96624E-03 4.30228E-04-1.29444E-14
 -1      2227 4.36578E-03 6.54801E-04-1.38953E-14
 -1      2228 4.71187E-03 8.33192E-04-1.50437E-14
 -1      2229 5.03250E-03 9.24027E-04-1.63341E-14
 -1      2230 5.35088E-03 8.94912E-04-1.77862E-14
 -1      2231 5.74571E-03-8.82511E-04-2.08408E-14
 -1      2232 5.68944E-03 7.53428E-04-1.93109E-14
 -1      2233 1.04849E-03 3.47420E-04-5.91310E-16
 -1      2234 8.98114E-04 3.17652E-04-4.26972E-16
 -1      2235 5.30572E-04-3.83356E-05-4.27433E-16
 -1      2236 5.34277E-04-5.06235E-05-4.28124E-16
 -1      2237 5.38935E-04-6.40076E-05-4.27569E-16
 -1      2238 5.44451E-04-7.86429E-05-4.25454E-16
 -1      2239 6.48105E-04-6.83383E-05-5.79140E-16
 -1      2240 5.25266E-04 5.34437E-06-4.13867E-16
 -1      2241 5.25127E-04-5.20905E-06-4.18841E-16
 -1      2242 5.28441E-04 2.72162E-05-4.00857E-16
 -1      2243 5.26383E-04 1.60970E-05-4.07972E-16
 -1      2244 6.34278E-04 1.27680E-05-5.56697E-16
 -1      2245 5.35175E-04 5.11848E-05-3.83604E-16
 -1      2246 5.31389E-04 3.88024E-05-3.92942E-16
 -1      2247 6.39536E-04 3.92629E-05-5.38605E-16
 -1      2248 5.45474E-04 7.99437E-05-3.60579E-16
 -1      2249 5.39923E-04 6.49202E-05-3.72844E-16
 -1      2250 6.49392E-04 6.91203E-05-5.14373E-16
 -1      2251 5.59268E-04 1.15157E-04-3.29719E-16
 -1      2252 5.51953E-04 9.66421E-05-3.46375E-16
 -1      2253 6.63712E-04 1.04737E-04-4.82538E-16
 -1      2254 5.77353E-04 1.59374E-04-2.87923E-16
 -1      2255 5.67755E-04 1.35997E-04-3.10719E-16
 -1      2256 6.82528E-04 1.48107E-04-4.40511E-16
 -1      2257 9.40667E-04-2.95430E-04-7.74242E-16
 -1      2258 1.09001E-03-3.21948E-04-1.01411E-15
 -1      2259 4.83012E-03-9.95988E-04-1.64427E-14
 -1      2260 4.64172E-03-9.00853E-04-1.56031E-14
 -1      2261 1.34794E-03 3.93011E-04-1.01018E-15
 -1      2262 1.19822E-03 3.72398E-04-7.85464E-16
 -1      2263 1.10210E-03 3.24737E-04-7.39954E-16
 -1      2264 6.02819E-04-2.03098E-04-3.73955E-16
 -1      2265 8.01794E-04-2.60228E-04-5.91663E-16
 -1      2266 8.58984E-04-2.44962E-04-7.15655E-16
 -1      2267 5.90063E-04-1.74725E-04-3.92549E-16
 -1      2268 1.23906E-03-3.44075E-04-1.28828E-15
 -1      2269 1.38836E-03-3.62349E-04-1.59712E-15
 -1      2270 1.14372E-03-2.99107E-04-1.17647E-15
 -1      2271 1.53773E-03-3.77832E-04-1.93998E-15
 -1      2272 1.68760E-03-3.90982E-04-2.31756E-15
 -1      2273 1.43959E-03-3.34573E-04-1.79738E-15
 -1      2274 1.83802E-03-4.02781E-04-2.72853E-15
 -1      2275 1.98928E-03-4.13745E-04-3.17328E-15
 -1      2276 1.73660E-03-3.60049E-04-2.55323E-15
 -1      2277 2.14156E-03-4.24808E-04-3.65153E-15
 -1      2278 2.29505E-03-4.36592E-04-4.16277E-15
 -1      2279 2.03591E-03-3.80949E-04-3.44272E-15
 -1      2280 2.45002E-03-4.50026E-04-4.70662E-15
 -1      2281 2.60657E-03-4.65885E-04-5.28343E-15
 -1      2282 2.33910E-03-4.02973E-04-4.46312E-15
 -1      2283 2.76514E-03-4.85076E-04-5.89298E-15
 -1      2284 2.92560E-03-5.08543E-04-6.53594E-15
 -1      2285 2.64824E-03-4.32357E-04-5.61338E-15
 -1      2286 3.08864E-03-5.37062E-04-7.21153E-15
 -1      2287 3.25374E-03-5.71672E-04-7.92004E-15
 -1      2288 2.96587E-03-4.76031E-04-6.89310E-15
 -1      2289 3.42180E-03-6.12800E-04-8.66118E-15
 -1      2290 3.59169E-03-6.61213E-04-9.43612E-15
 -1      2291 3.29474E-03-5.41378E-04-8.30271E-15
 -1      2292 3.76432E-03-7.16622E-04-1.02466E-14
 -1      2293 3.93778E-03-7.78819E-04-1.10919E-14
 -1      2294 3.63663E-03-6.34938E-04-9.84517E-15
 -1      2295 4.11267E-03-8.46389E-04-1.19719E-14
 -1      2296 4.28642E-03-9.16708E-04-1.28875E-14
 -1      2297 3.99001E-03-7.59042E-04-1.15245E-14
 -1      2298 4.45882E-03-9.86900E-04-1.38392E-14
 -1      2299 4.62842E-03-1.05172E-03-1.48291E-14
 -1      2300 4.34743E-03-9.04755E-04-1.33449E-14
 -1      2301 4.79413E-03-1.10728E-03-1.58570E-14
 -1      2302 4.95749E-03-1.14728E-03-1.69200E-14
 -1      2303 4.69679E-03-1.04396E-03-1.53125E-14
 -1      2304 5.11700E-03-1.16891E-03-1.80208E-14
 -1      2305 5.27752E-03-1.16937E-03-1.91594E-14
 -1      2306 5.03115E-03-1.13207E-03-1.74305E-14
 -1      2307 5.43751E-03-1.14882E-03-2.03335E-14
 -1      2308 5.60155E-03-1.11049E-03-2.15424E-14
 -1      2309 5.35822E-03-1.13258E-03-1.96980E-14
 -1      2310 5.76821E-03-1.05745E-03-2.27871E-14
 -1      2311 5.93877E-03-9.96029E-04-2.40659E-14
 -1      2312 5.69402E-03-1.04744E-03-2.21123E-14
 -1      2313 6.11220E-03-9.30071E-04-2.53759E-14
 -1      2314 6.28683E-03-8.64820E-04-2.67178E-14
 -1      2315 6.04512E-03-9.15157E-04-2.46649E-14
 -1      2316 6.46250E-03-8.03090E-04-2.80893E-14
 -1      2317 6.63674E-03-7.47187E-04-2.94892E-14
 -1      2318 6.40360E-03-7.80032E-04-2.73441E-14
 -1      2319 6.81015E-03-6.98520E-04-3.09172E-14
 -1      2320 6.98088E-03-6.57253E-04-3.23745E-14
 -1      2321 6.75753E-03-6.68860E-04-3.01413E-14
 -1      2322 7.14983E-03-6.23696E-04-3.38589E-14
 -1      2323 7.31596E-03-5.97081E-04-3.53690E-14
 -1      2324 7.09990E-03-5.89693E-04-3.30485E-14
 -1      2325 7.48010E-03-5.77073E-04-3.69073E-14
 -1      2326 7.64180E-03-5.62733E-04-3.84718E-14
 -1      2327 7.42954E-03-5.40273E-04-3.60642E-14
 -1      2328 7.80166E-03-5.53442E-04-4.00650E-14
 -1      2329 7.95959E-03-5.48372E-04-4.16843E-14
 -1      2330 7.74826E-03-5.14718E-04-3.91881E-14
 -1      2331 8.11594E-03-5.46860E-04-4.33294E-14
 -1      2332 8.27080E-03-5.48278E-04-4.50015E-14
 -1      2333 8.05868E-03-5.06760E-04-4.24204E-14
 -1      2334 8.42433E-03-5.52037E-04-4.66986E-14
 -1      2335 8.57671E-03-5.57685E-04-4.84204E-14
 -1      2336 8.36303E-03-5.10971E-04-4.57567E-14
 -1      2337 8.72798E-03-5.64759E-04-5.01671E-14
 -1      2338 8.87835E-03-5.72943E-04-5.19368E-14
 -1      2339 8.66299E-03-5.23076E-04-4.91943E-14
 -1      2340 9.02780E-03-5.81902E-04-5.37325E-14
 -1      2341 9.17652E-03-5.91421E-04-5.55516E-14
 -1      2342 8.95967E-03-5.39894E-04-5.27289E-14
 -1      2343 9.32449E-03-6.01273E-04-5.73950E-14
 -1      2344 9.47188E-03-6.11315E-04-5.92629E-14
 -1      2345 9.25387E-03-5.59165E-04-5.63611E-14
 -1      2346 9.61866E-03-6.21408E-04-6.11532E-14
 -1      2347 9.76497E-03-6.31457E-04-6.30658E-14
 -1      2348 9.54613E-03-5.79364E-04-6.00892E-14
 -1      2349 9.91078E-03-6.41384E-04-6.49987E-14
 -1      2350 1.00562E-02-6.51132E-04-6.69546E-14
 -1      2351 9.83684E-03-5.99510E-04-6.39090E-14
 -1      2352 1.02013E-02-6.60666E-04-6.89276E-14
 -1      2353 1.03460E-02-6.69951E-04-7.09193E-14
 -1      2354 1.01263E-02-6.19019E-04-6.78108E-14
 -1      2355 1.04905E-02-6.78980E-04-7.29329E-14
 -1      2356 1.06347E-02-6.87736E-04-7.49611E-14
 -1      2357 1.04149E-02-6.37585E-04-7.17930E-14
 -1      2358 1.07787E-02-6.96229E-04-7.70062E-14
 -1      2359 1.09225E-02-7.04452E-04-7.90704E-14
 -1      2360 1.07026E-02-6.55085E-04-7.58478E-14
 -1      2361 1.10662E-02-7.12424E-04-8.11497E-14
 -1      2362 1.12097E-02-7.20146E-04-8.32458E-14
 -1      2363 1.09898E-02-6.71515E-04-7.99694E-14
 -1      2364 1.13531E-02-7.27641E-04-8.53557E-14
 -1      2365 1.14964E-02-7.34914E-04-8.74805E-14
 -1      2366 1.12766E-02-6.86943E-04-8.41552E-14
 -1      2367 1.16396E-02-7.41989E-04-8.96218E-14
 -1      2368 1.17827E-02-7.48873E-04-9.17771E-14
 -1      2369 1.15630E-02-7.01474E-04-8.84054E-14
 -1      2370 1.19257E-02-7.55590E-04-9.39463E-14
 -1      2371 1.20687E-02-7.62146E-04-9.61314E-14
 -1      2372 1.18492E-02-7.15228E-04-9.27144E-14
 -1      2373 1.22117E-02-7.68565E-04-9.83336E-14
 -1      2374 1.23546E-02-7.74853E-04-1.00552E-13
 -1      2375 1.21351E-02-7.28330E-04-9.70832E-14
 -1      2376 1.24975E-02-7.81029E-04-1.02786E-13
 -1      2377 1.26404E-02-7.87101E-04-1.05037E-13
 -1      2378 1.24210E-02-7.40896E-04-1.01518E-13
 -1      2379 1.27833E-02-7.93085E-04-1.07309E-13
 -1      2380 1.29261E-02-7.98987E-04-1.09601E-13
 -1      2381 1.27068E-02-7.53032E-04-1.06020E-13
 -1      2382 1.30690E-02-8.04822E-04-1.11909E-13
 -1      2383 1.32118E-02-8.10596E-04-1.14233E-13
 -1      2384 1.29925E-02-7.64830E-04-1.10597E-13
 -1      2385 1.33546E-02-8.16319E-04-1.16572E-13
 -1      2386 1.34975E-02-8.21997E-04-1.18925E-13
 -1      2387 1.32782E-02-7.76372E-04-1.15242E-13
 -1      2388 1.36403E-02-8.27641E-04-1.21292E-13
 -1      2389 1.37831E-02-8.33253E-04-1.23667E-13
 -1      2390 1.35639E-02-7.87724E-04-1.19941E-13
 -1      2391 1.39260E-02-8.38844E-04-1.26050E-13
 -1      2392 1.40688E-02-8.44415E-04-1.28444E-13
 -1      2393 1.38496E-02-7.98945E-04-1.24688E-13
 -1      2394 1.42116E-02-8.49976E-04-1.30845E-13
 -1      2395 1.43545E-02-8.55528E-04-1.33254E-13
 -1      2396 1.41353E-02-8.10084E-04-1.29469E-13
 -1      2397 1.95006E-03 4.51203E-04-2.21791E-15
 -1      2398 1.79851E-03 4.38889E-04-1.86931E-15
 -1      2399 2.25639E-03 4.76017E-04-3.00885E-15
 -1      2400 2.10265E-03 4.63397E-04-2.59799E-15
 -1      2401 2.00039E-03 4.18313E-04-2.49577E-15
 -1      2402 2.56799E-03 5.05901E-04-3.92251E-15
 -1      2403 2.41152E-03 4.89981E-04-3.45022E-15
 -1      2404 2.30560E-03 4.42389E-04-3.32766E-15
 -1      2405 2.88565E-03 5.46893E-04-4.96077E-15
 -1      2406 2.72614E-03 5.24657E-04-4.42611E-15
 -1      2407 2.61618E-03 4.72632E-04-4.28231E-15
 -1      2408 3.20949E-03 6.04595E-04-6.12239E-15
 -1      2409 3.04698E-03 5.73352E-04-5.52557E-15
 -1      2410 2.93348E-03 5.15099E-04-5.35952E-15
 -1      2411 3.53861E-03 6.82810E-04-7.40839E-15
 -1      2412 3.37373E-03 6.41014E-04-6.75023E-15
 -1      2413 3.25838E-03 5.75463E-04-6.56024E-15
 -1      2414 3.87044E-03 7.81073E-04-8.82012E-15
 -1      2415 3.70467E-03 7.29695E-04-8.09795E-15
 -1      2416 3.59062E-03 6.57552E-04-7.88399E-15
 -1      2417 4.20051E-03 8.91428E-04-1.03616E-14
 -1      2418 4.03621E-03 8.35622E-04-9.57420E-15
 -1      2419 3.92762E-03 7.60596E-04-9.33357E-15
 -1      2420 4.52353E-03 9.96123E-04-1.20383E-14
 -1      2421 4.36318E-03 9.46032E-04-1.11830E-14
 -1      2422 4.26389E-03 8.75243E-04-1.09141E-14
 -1      2423 4.83662E-03 1.06990E-03-1.38549E-14
 -1      2424 4.68103E-03 1.03855E-03-1.29291E-14
 -1      2425 4.59273E-03 9.80547E-04-1.26311E-14
 -1      2426 5.14255E-03 1.08989E-03-1.58130E-14
 -1      2427 4.98956E-03 1.08768E-03-1.48160E-14
 -1      2428 4.91075E-03 1.04783E-03-1.44897E-14
 -1      2429 5.44939E-03 1.04757E-03-1.79126E-14
 -1      2430 5.29483E-03 1.07619E-03-1.68448E-14
 -1      2431 5.22241E-03 1.05307E-03-1.64906E-14
 -1      2432 5.76475E-03 9.54496E-04-2.01548E-14
 -1      2433 5.60547E-03 1.00590E-03-1.90161E-14
 -1      2434 5.53773E-03 9.92224E-04-1.86349E-14
 -1      2435 6.09065E-03 8.35425E-04-2.25377E-14
 -1      2436 5.92656E-03 8.96514E-04-2.13282E-14
 -1      2437 5.86381E-03 8.83979E-04-2.09210E-14
 -1      2438 6.42346E-03 7.14989E-04-2.50610E-14
 -1      2439 6.25669E-03 7.74093E-04-2.37824E-14
 -1      2440 6.19963E-03 7.57904E-04-2.33488E-14
 -1      2441 6.75792E-03 6.09785E-04-2.77227E-14
 -1      2442 6.59101E-03 6.59888E-04-2.63752E-14
 -1      2443 6.53880E-03 6.38503E-04-2.59147E-14
 -1      2444 7.08982E-03 5.26769E-04-3.05154E-14
 -1      2445 6.92456E-03 5.65390E-04-2.91031E-14
 -1      2446 6.87522E-03 5.39294E-04-2.86174E-14
 -1      2447 7.41681E-03 4.66202E-04-3.34333E-14
 -1      2448 7.25413E-03 4.93833E-04-3.19587E-14
 -1      2449 7.20528E-03 4.64011E-04-3.14479E-14
 -1      2450 7.73805E-03 4.24820E-04-3.64722E-14
 -1      2451 7.57823E-03 4.43367E-04-3.49372E-14
 -1      2452 7.52799E-03 4.10774E-04-3.44018E-14
 -1      2453 8.05356E-03 3.98192E-04-3.96173E-14
 -1      2454 7.89653E-03 4.09923E-04-3.80319E-14
 -1      2455 7.84380E-03 3.75361E-04-3.74712E-14
 -1      2456 8.36376E-03 3.82020E-04-4.28711E-14
 -1      2457 8.20929E-03 3.89025E-04-4.12319E-14
 -1      2458 8.15366E-03 3.53148E-04-4.06494E-14
 -1      2459 8.66924E-03 3.72705E-04-4.62224E-14
 -1      2460 8.51704E-03 3.76684E-04-4.45347E-14
 -1      2461 8.45861E-03 3.40015E-04-4.39315E-14
 -1      2462 8.97064E-03 3.67485E-04-4.96763E-14
 -1      2463 8.82039E-03 3.69717E-04-4.79365E-14
 -1      2464 8.75952E-03 3.32657E-04-4.73128E-14
 -1      2465 9.26859E-03 3.64371E-04-5.32282E-14
 -1      2466 9.11999E-03 3.65760E-04-5.14406E-14
 -1      2467 9.05713E-03 3.28603E-04-5.07939E-14
 -1      2468 9.56369E-03 3.62013E-04-5.68747E-14
 -1      2469 9.41645E-03 3.63162E-04-5.50388E-14
 -1      2470 9.35206E-03 3.26106E-04-5.43756E-14
 -1      2471 9.85646E-03 3.59543E-04-6.06105E-14
 -1      2472 9.71032E-03 3.60833E-04-5.87310E-14
 -1      2473 9.64482E-03 3.24001E-04-5.80470E-14
 -1      2474 1.01474E-02 3.56451E-04-6.44343E-14
 -1      2475 1.00021E-02 3.58100E-04-6.25120E-14
 -1      2476 9.93584E-03 3.21555E-04-6.18092E-14
 -1      2477 1.04368E-02 3.52473E-04-6.83477E-14
 -1      2478 1.02923E-02 3.54586E-04-6.63802E-14
 -1      2479 1.02255E-02 3.18351E-04-6.56591E-14
 -1      2480 1.07252E-02 3.47511E-04-7.23536E-14
 -1      2481 1.05811E-02 3.50120E-04-7.03386E-14
 -1      2482 1.05140E-02 3.14190E-04-6.95989E-14
 -1      2483 1.10127E-02 3.41570E-04-7.64541E-14
 -1      2484 1.08690E-02 3.44663E-04-7.43912E-14
 -1      2485 1.08018E-02 3.09015E-04-7.36304E-14
 -1      2486 1.12996E-02 3.34719E-04-8.06478E-14
 -1      2487 1.11562E-02 3.38255E-04-7.85396E-14
 -1      2488 1.10889E-02 3.02858E-04-7.77565E-14
 -1      2489 1.15860E-02 3.27058E-04-8.49288E-14
 -1      2490 1.14428E-02 3.30985E-04-8.27778E-14
 -1      2491 1.13755E-02 2.95804E-04-8.19729E-14
 -1      2492 1.18721E-02 3.18702E-04-8.92885E-14
 -1      2493 1.17291E-02 3.22962E-04-8.70993E-14
 -1      2494 1.16618E-02 2.87961E-04-8.62712E-14
 -1      2495 1.21580E-02 3.09764E-04-9.37252E-14
 -1      2496 1.20151E-02 3.14301E-04-9.14978E-14
 -1      2497 1.19478E-02 2.79448E-04-9.06466E-14
 -1      2498 1.24438E-02 3.00352E-04-9.82305E-14
 -1      2499 1.23009E-02 3.05112E-04-9.59688E-14
 -1      2500 1.22337E-02 2.70377E-04-9.50982E-14
 -1      2501 1.27294E-02 2.90562E-04-1.02798E-13
 -1      2502 1.25866E-02 2.95500E-04-1.00507E-13
 -1      2503 1.25195E-02 2.60857E-04-9.96153E-14
 -1      2504 1.30151E-02 2.80479E-04-1.07420E-13
 -1      2505 1.28723E-02 2.85553E-04-1.05103E-13
 -1      2506 1.28052E-02 2.50980E-04-1.04192E-13
 -1      2507 1.33007E-02 2.70177E-04-1.12082E-13
 -1      2508 1.31579E-02 2.75352E-04-1.09747E-13
 -1      2509 1.30909E-02 2.40830E-04-1.08821E-13
 -1      2510 1.35863E-02 2.59717E-04-1.16775E-13
 -1      2511 1.34435E-02 2.64963E-04-1.14426E-13
 -1      2512 1.33766E-02 2.30477E-04-1.13491E-13
 -1      2513 1.38720E-02 2.49153E-04-1.21487E-13
 -1      2514 1.37291E-02 2.54445E-04-1.19128E-13
 -1      2515 1.36622E-02 2.19981E-04-1.18184E-13
 -1      2516 1.41576E-02 2.38532E-04-1.26224E-13
 -1      2517 1.40148E-02 2.43847E-04-1.23852E-13
 -1      2518 1.39479E-02 2.09392E-04-1.22904E-13
 -1      2519 1.44433E-02 2.27893E-04-1.30974E-13
 -1      2520 1.43005E-02 2.33212E-04-1.28597E-13
 -1      2521 1.42336E-02 1.98757E-04-1.27643E-13
 -1      2522 1.45908E-02 2.23420E-04-1.33426E-13
 -1      2523 1.45525E-02-1.06504E-04-1.34167E-13
 -1      2524 1.45473E-02-6.43200E-05-1.33915E-13
 -1      2525 1.45629E-02-1.90880E-04-1.34665E-13
 -1      2526 1.45577E-02-1.48691E-04-1.34418E-13
 -1      2527 1.44313E-02-1.22943E-04-1.32227E-13
 -1      2528 1.45319E-02 6.07814E-05-1.33147E-13
 -1      2529 1.45268E-02 1.02949E-04-1.32884E-13
 -1      2530 1.45421E-02-2.24963E-05-1.33661E-13
 -1      2531 1.45370E-02 1.89658E-05-1.33405E-13
 -1      2532 1.44107E-02 4.46765E-05-1.31212E-13
 -1      2533 1.44210E-02-3.89495E-05-1.31724E-13
 -1      2534 1.45735E-02-2.75264E-04-1.35154E-13
 -1      2535 1.45682E-02-2.33072E-04-1.34912E-13
 -1      2536 1.44418E-02-2.07302E-04-1.32718E-13
 -1      2537 1.45842E-02-3.59650E-04-1.35635E-13
 -1      2538 1.45788E-02-3.17457E-04-1.35396E-13
 -1      2539 1.44524E-02-2.91664E-04-1.33200E-13
 -1      2540 1.45949E-02-4.44036E-04-1.36105E-13
 -1      2541 1.45895E-02-4.01844E-04-1.35869E-13
 -1      2542 1.44631E-02-3.76027E-04-1.33672E-13
 -1      2543 1.46056E-02-5.26986E-04-1.36547E-13
 -1      2544 1.46003E-02-4.85512E-04-1.36327E-13
 -1      2545 1.44738E-02-4.59674E-04-1.34127E-13
 -1      2546 1.46166E-02-6.11358E-04-1.36988E-13
 -1      2547 1.46111E-02-5.69174E-04-1.36770E-13
 -1      2548 1.44846E-02-5.43318E-04-1.34570E-13
 -1      2549 1.46276E-02-6.95716E-04-1.37417E-13
 -1      2550 1.46221E-02-6.53539E-04-1.37205E-13
 -1      2551 1.44956E-02-6.27670E-04-1.35006E-13
 -1      2552 1.46387E-02-7.80057E-04-1.37829E-13
 -1      2553 1.46332E-02-7.37889E-04-1.37622E-13
 -1      2554 1.45067E-02-7.12011E-04-1.35427E-13
 -1      2555 6.76239E-03 1.51952E-04-2.36279E-14
 -1      2556 6.93600E-03 7.93998E-05-2.42241E-14
 -1      2557 1.47262E-02-8.57343E-04-1.39504E-13
 -1      2558 5.97279E-03 5.83068E-04-2.07987E-14
 -1      2559 6.17864E-03 4.57985E-04-2.15812E-14
 -1      2560 1.64779E-03 4.25503E-04-1.55220E-15
 -1      2561 1.49765E-03 4.10565E-04-1.26564E-15
 -1      2562 1.69907E-03 3.94504E-04-1.78739E-15
 -1      2563 7.38117E-03-6.20671E-05-2.55304E-14
 -1      2564 7.41766E-03-7.14066E-05-2.56507E-14
 -1      2565 4.00404E-03-5.25118E-04-1.34116E-14
 -1      2566 3.78319E-03-4.02850E-04-1.29091E-14
 -1      2567 6.38629E-03 3.41258E-04-2.23389E-14
 -1      2568 6.56401E-03 2.46664E-04-2.29603E-14
 -1      2569 3.47441E-03 1.70512E-04-1.16909E-14
 -1      2570 3.64997E-03 2.51093E-04-1.19672E-14
 -1      2571 5.25971E-04-1.58684E-05-4.22622E-16
 -1      2572 5.27782E-04-2.68061E-05-4.25482E-16
 -1      2573 6.38560E-04-3.89597E-05-5.77189E-16
 -1      2574 6.33904E-04-1.26599E-05-5.69477E-16
 -1      2575 5.27825E-03 9.21666E-04-1.74600E-14
 -1      2576 5.43247E-03 8.72653E-04-1.82564E-14
 -1      2577 4.95381E-03 9.18824E-04-1.58687E-14
 -1      2578 5.09068E-03 9.37545E-04-1.65232E-14
 -1      2579 4.65256E-03 8.05230E-04-1.45910E-14
 -1      2580 4.80350E-03 8.74221E-04-1.52165E-14
 -1      2581 4.29315E-03 6.04971E-04-1.33303E-14
 -1      2582 4.45984E-03 7.04861E-04-1.38417E-14
 -1      2583 3.86774E-03 3.62255E-04-1.23858E-14
 -1      2584 4.06921E-03 4.75822E-04-1.28070E-14
 -1      2585 5.47278E-03-1.01262E-03-1.98291E-14
 -1      2586 5.30506E-03-1.06219E-03-1.89229E-14
 -1      2587 3.15375E-03 4.90230E-05-1.12989E-14
 -1      2588 3.29401E-03 9.73925E-05-1.14727E-14
 -1      2589 2.85814E-03-4.40613E-05-1.10189E-14
 -1      2590 2.86581E-03-3.67352E-05-1.10227E-14
 -1      2591 2.98609E-03-8.18744E-05-1.14150E-14
 -1      2592 2.90480E-03-6.18120E-05-1.11971E-14
 -1      2593 3.57221E-03-2.98511E-04-1.24329E-14
 -1      2594 3.41450E-03-2.29454E-04-1.21316E-14
 -1      2595 5.12569E-03-1.07261E-03-1.79507E-14
 -1      2596 5.00356E-03-1.05306E-03-1.72917E-14
 -1      2597 5.82043E-03-8.38908E-04-2.15262E-14
 -1      2598 5.66178E-03-9.29806E-04-2.07858E-14
 -1      2599 5.58811E-03 8.04067E-04-1.90024E-14
 -1      2600 5.73710E-03 7.21123E-04-1.97308E-14
 -1      2601 3.24177E-03-1.61854E-04-1.18175E-14
 -1      2602 3.10031E-03-1.16014E-04-1.15726E-14
 -1      2603 6.20909E-03-6.07183E-04-2.29983E-14
 -1      2604 6.03072E-03-7.15693E-04-2.23822E-14
 -1      2605 6.99393E-03-2.18340E-04-2.52225E-14
 -1      2606 6.84289E-03-2.78934E-04-2.48229E-14
 -1      2607 7.42372E-03-8.32376E-05-2.58620E-14
 -1      2608 7.39569E-03-9.16002E-05-2.59226E-14
 -1      2609 7.79833E-04 2.94277E-04-3.10122E-16
 -1      2610 6.28420E-04 2.52283E-04-1.99629E-16
 -1      2611 6.00166E-04 2.25530E-04-2.11921E-16
 -1      2612 8.35634E-04 2.78334E-04-4.19369E-16
 -1      2613 4.44770E-03-7.91185E-04-1.48229E-14
 -1      2614 4.27244E-03-6.83174E-04-1.41805E-14
 -1      2615 5.50006E-03 8.48109E-04-1.86596E-14
 -1      2616 6.62299E-04-1.02950E-04-5.74166E-16
 -1      2617 5.50921E-04-9.48541E-05-4.21700E-16
 -1      2618 5.58199E-04-1.12868E-04-4.15778E-16
 -1      2619 7.43638E-03-7.92785E-05-2.64292E-14
 -1      2620 5.85299E-04 1.94305E-04-2.44569E-16
 -1      2621 4.55795E-03-8.60042E-04-1.51057E-14
 -1      2622 3.30432E-03-1.85266E-04-1.15804E-14
 -1      2623 5.79168E-04-1.49835E-04-4.06522E-16
 -1      2624 5.93691E-03-7.78727E-04-2.23222E-14
 -1      2625 7.04627E-03 3.51700E-05-2.48691E-14
 -1      2626 7.14529E-03 4.45561E-06-2.55219E-14
 -1      2627 6.96872E-03 6.77661E-05-2.50926E-14
 -1      2628 6.28433E-03 3.99363E-04-2.23219E-14
 -1      2629 5.22785E-03-1.07566E-03-1.85473E-14
 -1      2630 1.45239E-02 1.88954E-04-1.32469E-13
 -1      2631 1.45122E-02 1.56430E-04-1.32416E-13
 -1      2632 3.66780E-03-3.46242E-04-1.23493E-14
 -1      2633 6.66904E-03 1.95749E-04-2.37653E-14
 -1      2634 1.45793E-02-8.66766E-04-1.37054E-13
 -1      2635 1.46183E-02-8.15376E-04-1.37580E-13
 -1      2636 1.44918E-02-7.89494E-04-1.35382E-13
 -1      2637 1.44511E-02-8.60116E-04-1.34885E-13
 -1      2638 3.03190E-03-9.41767E-05-1.11255E-14
 -1      2639 5.86265E-03 6.49660E-04-2.04753E-14
 -1      2640 5.98783E-03 5.81286E-04-2.12310E-14
 -1      2641 5.77282E-03 7.09942E-04-2.01513E-14
 -1      2642 1.40013E-03 3.65249E-04-1.20245E-15
 -1      2643 7.34203E-03-5.23341E-05-2.57508E-14
 -1      2644 7.39053E-03-6.21944E-05-2.64361E-14
 -1      2645 7.29281E-03-3.99100E-05-2.59704E-14
 -1      2646 2.86346E-03-4.97695E-05-1.07972E-14
 -1      2647 2.83477E-03-4.39727E-05-1.04047E-14
 -1      2648 2.88046E-03-5.51602E-05-1.05762E-14
 -1      2649 3.06953E-03 2.31809E-05-1.09761E-14
 -1      2650 7.36531E-03-1.01563E-04-2.62763E-14
 -1      2651 7.32550E-03-1.13391E-04-2.66303E-14
 -1      2652 7.41292E-03-9.52960E-05-2.69986E-14
 -1      2653 7.03758E-04 2.11134E-04-3.64089E-16
 -1      2654 7.09875E-03-1.78952E-04-2.58074E-14
 -1      2655 7.03572E-03-2.08155E-04-2.62891E-14
 -1      2656 7.19224E-03-1.52760E-04-2.63954E-14
 -1      2657 6.32837E-03-5.41714E-04-2.36727E-14
 -1      2658 6.73742E-03-3.28123E-04-2.49212E-14
 -1      2659 5.56674E-03-9.81511E-04-2.04893E-14
 -1      2660 3.75073E-03 3.05135E-04-1.18333E-14
 -1      2661 4.17075E-03 5.40114E-04-1.27530E-14
 -1      2662 4.55507E-03 7.62188E-04-1.40012E-14
 -1      2663 2.88078E-03-2.91110E-05-1.07849E-14
 -1      2664 3.37318E-03 1.30764E-04-1.12158E-14
 -1      2665 4.13114E-03-6.00398E-04-1.35680E-14
 -1      2666 3.99064E-03-5.26446E-04-1.29710E-14
 -1      2667 4.23330E-03-6.72774E-04-1.37216E-14
 -1      2668 4.90021E-03-1.02614E-03-1.67278E-14
 -1      2669 4.87669E-03 9.02892E-04-1.53954E-14
 -1      2670 1.43748E-02-8.20222E-04-1.33501E-13
 -1      2671 5.18885E-03 9.37965E-04-1.69707E-14
 -1      2672 1.43910E-02 1.39963E-04-1.30488E-13
 -1      2673 7.52821E-04 5.33261E-05-6.96627E-16
 -1      2674 7.48150E-04 3.74281E-05-7.09732E-16
 -1      2675 7.44829E-04 2.20332E-05-7.21252E-16
 -1      2676 7.43048E-04 7.16714E-06-7.31050E-16
 -1      2677 8.56974E-04 3.30965E-05-9.06529E-16
 -1      2678 7.85433E-04 1.31441E-04-6.22088E-16
 -1      2679 7.75340E-04 1.09296E-04-6.44640E-16
 -1      2680 8.09835E-04 1.82603E-04-5.67160E-16
 -1      2681 7.96986E-04 1.55794E-04-5.96623E-16
 -1      2682 9.10577E-04 1.59736E-04-7.78688E-16
 -1      2683 1.05138E-03-2.56330E-04-1.06564E-15
 -1      2684 1.19737E-03-2.76213E-04-1.34400E-15
 -1      2685 3.34923E-03-2.11717E-04-1.12458E-14
 -1      2686 3.19936E-03-1.54732E-04-1.09505E-14
 -1      2687 1.15637E-03 3.01824E-04-8.97353E-16
 -1      2688 1.00866E-03 2.78906E-04-6.89634E-16
 -1      2689 2.66171E-03 4.38769E-04-4.64774E-15
 -1      2690 2.50623E-03 4.22380E-04-4.13513E-15
 -1      2691 1.34352E-03-2.92970E-04-1.65625E-15
 -1      2692 1.49007E-03-3.06968E-04-2.00156E-15
 -1      2693 1.25019E-03-2.53196E-04-1.51695E-15
 -1      2694 1.63682E-03-3.18966E-04-2.38009E-15
 -1      2695 1.78404E-03-3.29394E-04-2.79189E-15
 -1      2696 1.53931E-03-2.79595E-04-2.20947E-15
 -1      2697 1.93171E-03-3.39033E-04-3.23647E-15
 -1      2698 2.08015E-03-3.48409E-04-3.71369E-15
 -1      2699 1.82962E-03-2.99095E-04-3.03330E-15
 -1      2700 2.22949E-03-3.58293E-04-4.22283E-15
 -1      2701 2.38006E-03-3.69376E-04-4.76408E-15
 -1      2702 2.12189E-03-3.16133E-04-3.98595E-15
 -1      2703 2.53223E-03-3.82403E-04-5.33755E-15
 -1      2704 2.68630E-03-3.98323E-04-5.94291E-15
 -1      2705 2.41792E-03-3.35686E-04-5.06569E-15
 -1      2706 2.84292E-03-4.17806E-04-6.58012E-15
 -1      2707 3.00231E-03-4.42169E-04-7.24927E-15
 -1      2708 2.72077E-03-3.63506E-04-6.27206E-15
 -1      2709 3.16546E-03-4.71912E-04-7.95040E-15
 -1      2710 3.33219E-03-5.08743E-04-8.68338E-15
 -1      2711 3.03498E-03-4.06565E-04-7.60379E-15
 -1      2712 3.50380E-03-5.52874E-04-9.45029E-15
 -1      2713 3.67907E-03-6.05821E-04-1.02509E-14
 -1      2714 3.36619E-03-4.73601E-04-9.06308E-15
 -1      2715 3.85932E-03-6.67128E-04-1.10854E-14
 -1      2716 4.04166E-03-7.37010E-04-1.19540E-14
 -1      2717 3.71905E-03-5.74403E-04-1.06533E-14
 -1      2718 4.22723E-03-8.14093E-04-1.28583E-14
 -1      2719 4.41089E-03-8.93434E-04-1.37984E-14
 -1      2720 4.09240E-03-7.15459E-04-1.23789E-14
 -1      2721 4.59201E-03-9.71824E-04-1.47759E-14
 -1      2722 4.76909E-03-1.03935E-03-1.57916E-14
 -1      2723 4.47327E-03-8.86685E-04-1.42473E-14
 -1      2724 4.94000E-03-1.09186E-03-1.68458E-14
 -1      2725 5.10906E-03-1.11891E-03-1.79374E-14
 -1      2726 4.84024E-03-1.03989E-03-1.62657E-14
 -1      2727 5.27450E-03-1.11860E-03-1.90668E-14
 -1      2728 5.44418E-03-1.09177E-03-2.02349E-14
 -1      2729 5.18907E-03-1.10286E-03-1.84402E-14
 -1      2730 5.61588E-03-1.04064E-03-2.14390E-14
 -1      2731 5.79391E-03-9.75412E-04-2.26802E-14
 -1      2732 5.53891E-03-1.03936E-03-2.07685E-14
 -1      2733 5.97618E-03-9.00615E-04-2.39551E-14
 -1      2734 6.16027E-03-8.25990E-04-2.52626E-14
 -1      2735 5.90805E-03-8.90589E-04-2.32469E-14
 -1      2736 6.34554E-03-7.54861E-04-2.66018E-14
 -1      2737 6.52783E-03-6.91172E-04-2.79705E-14
 -1      2738 6.28889E-03-7.30080E-04-2.58613E-14
 -1      2739 6.70783E-03-6.36580E-04-2.93664E-14
 -1      2740 6.88278E-03-5.90581E-04-3.07904E-14
 -1      2741 6.66091E-03-6.02098E-04-2.85945E-14
 -1      2742 7.05397E-03-5.53754E-04-3.22427E-14
 -1      2743 7.22043E-03-5.24445E-04-3.37215E-14
 -1      2744 7.01196E-03-5.15570E-04-3.14399E-14
 -1      2745 7.38338E-03-5.02564E-04-3.52261E-14
 -1      2746 7.54267E-03-4.86536E-04-3.67569E-14
 -1      2747 7.34154E-03-4.63518E-04-3.43907E-14
 -1      2748 7.69924E-03-4.75995E-04-3.83167E-14
 -1      2749 7.85332E-03-4.69717E-04-3.99029E-14
 -1      2750 7.65448E-03-4.36912E-04-3.74479E-14
 -1      2751 8.00550E-03-4.67236E-04-4.15159E-14
 -1      2752 8.15609E-03-4.67744E-04-4.31540E-14
 -1      2753 7.95630E-03-4.28087E-04-4.06144E-14
 -1      2754 8.30540E-03-4.70763E-04-4.48186E-14
 -1      2755 8.45372E-03-4.75765E-04-4.65094E-14
 -1      2756 8.25134E-03-4.31334E-04-4.38853E-14
 -1      2757 8.60117E-03-4.82325E-04-4.82234E-14
 -1      2758 8.74800E-03-4.90104E-04-4.99642E-14
 -1      2759 8.54247E-03-4.42505E-04-4.72584E-14
 -1      2760 8.89424E-03-4.98764E-04-5.17282E-14
 -1      2761 9.04007E-03-5.08087E-04-5.35159E-14
 -1      2762 8.83145E-03-4.58560E-04-5.07314E-14
 -1      2763 9.18546E-03-5.17823E-04-5.53319E-14
 -1      2764 9.33058E-03-5.27835E-04-5.71690E-14
 -1      2765 9.11925E-03-4.77316E-04-5.43043E-14
 -1      2766 9.47537E-03-5.37951E-04-5.90292E-14
 -1      2767 9.61997E-03-5.48087E-04-6.09140E-14
 -1      2768 9.40641E-03-4.97248E-04-5.79740E-14
 -1      2769 9.76431E-03-5.58134E-04-6.28201E-14
 -1      2770 9.90849E-03-5.68044E-04-6.47483E-14
 -1      2771 9.69320E-03-5.17338E-04-6.17357E-14
 -1      2772 1.00525E-02-5.77755E-04-6.66981E-14
 -1      2773 1.01964E-02-5.87241E-04-6.86661E-14
 -1      2774 9.97974E-03-5.36947E-04-6.55876E-14
 -1      2775 1.03401E-02-5.96474E-04-7.06555E-14
 -1      2776 1.04837E-02-6.05445E-04-7.26639E-14
 -1      2777 1.02661E-02-5.55714E-04-6.95205E-14
 -1      2778 1.06272E-02-6.14147E-04-7.46886E-14
 -1      2779 1.07706E-02-6.22580E-04-7.67301E-14
 -1      2780 1.05524E-02-5.73471E-04-7.35315E-14
 -1      2781 1.09139E-02-6.30751E-04-7.87908E-14
 -1      2782 1.10572E-02-6.38668E-04-8.08674E-14
 -1      2783 1.08385E-02-5.90179E-04-7.76130E-14
 -1      2784 1.12004E-02-6.46344E-04-8.29589E-14
 -1      2785 1.13435E-02-6.53790E-04-8.50669E-14
 -1      2786 1.11245E-02-6.05882E-04-8.17627E-14
 -1      2787 1.14866E-02-6.61024E-04-8.71907E-14
 -1      2788 1.16297E-02-6.68056E-04-8.93297E-14
 -1      2789 1.14105E-02-6.20668E-04-8.59763E-14
 -1      2790 1.17727E-02-6.74908E-04-9.14841E-14
 -1      2791 1.19157E-02-6.81589E-04-9.36506E-14
 -1      2792 1.16964E-02-6.34651E-04-9.02527E-14
 -1      2793 1.20587E-02-6.88119E-04-9.58344E-14
 -1      2794 1.22016E-02-6.94509E-04-9.80370E-14
 -1      2795 1.19823E-02-6.47949E-04-9.45892E-14
 -1      2796 1.23445E-02-7.00775E-04-1.00253E-13
 -1      2797 1.24874E-02-7.06928E-04-1.02484E-13
 -1      2798 1.22681E-02-6.60679E-04-9.89870E-14
 -1      2799 1.26303E-02-7.12984E-04-1.04734E-13
 -1      2800 1.27732E-02-7.18949E-04-1.07003E-13
 -1      2801 1.25539E-02-6.72949E-04-1.03450E-13
 -1      2802 1.29161E-02-7.24838E-04-1.09291E-13
 -1      2803 1.30590E-02-7.30659E-04-1.11594E-13
 -1      2804 1.28397E-02-6.84853E-04-1.07985E-13
 -1      2805 1.32018E-02-7.36422E-04-1.13914E-13
 -1      2806 1.33447E-02-7.42133E-04-1.16247E-13
 -1      2807 1.31254E-02-6.96474E-04-1.12588E-13
 -1      2808 1.34875E-02-7.47804E-04-1.18597E-13
 -1      2809 1.36304E-02-7.53437E-04-1.20958E-13
 -1      2810 1.34112E-02-7.07884E-04-1.17253E-13
 -1      2811 1.37732E-02-7.59043E-04-1.23325E-13
 -1      2812 1.39161E-02-7.64625E-04-1.25704E-13
 -1      2813 1.36969E-02-7.19141E-04-1.21966E-13
 -1      2814 1.40589E-02-7.70190E-04-1.28095E-13
 -1      2815 1.42018E-02-7.75743E-04-1.30493E-13
 -1      2816 1.39826E-02-7.30296E-04-1.26722E-13
 -1      2817 2.35235E-03 4.08530E-04-3.65257E-15
 -1      2818 2.19999E-03 3.96445E-04-3.20153E-15
 -1      2819 2.39671E-03 3.74375E-04-3.98467E-15
 -1      2820 3.05090E-03-1.03240E-04-1.07213E-14
 -1      2821 2.95218E-03-7.62985E-05-1.05759E-14
 -1      2822 2.04881E-03 3.85354E-04-2.78080E-15
 -1      2823 1.89863E-03 3.74626E-04-2.38987E-15
 -1      2824 2.09522E-03 3.52376E-04-3.07182E-15
 -1      2825 2.97892E-03 4.82159E-04-5.76397E-15
 -1      2826 2.81932E-03 4.58389E-04-5.19059E-15
 -1      2827 2.70477E-03 4.04129E-04-5.01876E-15
 -1      2828 3.30573E-03 5.44592E-04-7.00247E-15
 -1      2829 3.14122E-03 5.10580E-04-6.36780E-15
 -1      2830 3.02224E-03 4.47842E-04-6.17388E-15
 -1      2831 3.64254E-03 6.30328E-04-8.36373E-15
 -1      2832 3.47323E-03 5.84348E-04-7.66783E-15
 -1      2833 3.35183E-03 5.11950E-04-7.44927E-15
 -1      2834 3.98655E-03 7.38750E-04-9.85167E-15
 -1      2835 3.81428E-03 6.82070E-04-9.09177E-15
 -1      2836 3.69450E-03 6.01659E-04-8.84878E-15
 -1      2837 4.33070E-03 8.59162E-04-1.14710E-14
 -1      2838 4.15942E-03 7.98864E-04-1.06446E-14
 -1      2839 4.04683E-03 7.16955E-04-1.03734E-14
 -1      2840 4.66636E-03 9.66541E-04-1.32284E-14
 -1      2841 4.50015E-03 9.16807E-04-1.23319E-14
 -1      2842 4.39972E-03 8.45107E-04-1.20309E-14
 -1      2843 4.98875E-03 1.02693E-03-1.51285E-14
 -1      2844 4.82823E-03 1.00504E-03-1.41603E-14
 -1      2845 4.74111E-03 9.55397E-04-1.38287E-14
 -1      2846 5.30568E-03 1.01453E-03-1.71733E-14
 -1      2847 5.14619E-03 1.03054E-03-1.61331E-14
 -1      2848 5.06801E-03 1.00584E-03-1.57714E-14
 -1      2849 5.62987E-03 9.31971E-04-1.93631E-14
 -1      2850 5.46561E-03 9.80440E-04-1.82500E-14
 -1      2851 5.39213E-03 9.70890E-04-1.78618E-14
 -1      2852 5.96757E-03 8.07501E-04-2.16936E-14
 -1      2853 5.79716E-03 8.72251E-04-2.05105E-14
 -1      2854 5.72873E-03 8.63343E-04-2.00964E-14
 -1      2855 6.31333E-03 6.76257E-04-2.41667E-14
 -1      2856 6.14048E-03 7.40944E-04-2.29125E-14
 -1      2857 6.07947E-03 7.24666E-04-2.24737E-14
 -1      2858 6.65754E-03 5.60342E-04-2.67749E-14
 -1      2859 6.48630E-03 6.15471E-04-2.54536E-14
 -1      2860 6.43363E-03 5.91623E-04-2.49904E-14
 -1      2861 6.99426E-03 4.69207E-04-2.95174E-14
 -1      2862 6.82731E-03 5.11627E-04-2.81297E-14
 -1      2863 6.78061E-03 4.82404E-04-2.76408E-14
 -1      2864 7.32111E-03 4.02858E-04-3.23851E-14
 -1      2865 7.15908E-03 4.33214E-04-3.09364E-14
 -1      2866 7.11526E-03 4.01157E-04-3.04231E-14
 -1      2867 7.63870E-03 3.57409E-04-3.53757E-14
 -1      2868 7.48106E-03 3.77877E-04-3.38661E-14
 -1      2869 7.43720E-03 3.44365E-04-3.33292E-14
 -1      2870 7.94871E-03 3.27963E-04-3.84750E-14
 -1      2871 7.79458E-03 3.41010E-04-3.69111E-14
 -1      2872 7.74870E-03 3.06648E-04-3.63510E-14
 -1      2873 8.25291E-03 3.09940E-04-4.16848E-14
 -1      2874 8.10145E-03 3.17786E-04-4.00661E-14
 -1      2875 8.05252E-03 2.82822E-04-3.94836E-14
 -1      2876 8.55274E-03 2.99541E-04-4.49953E-14
 -1      2877 8.40329E-03 3.03987E-04-4.33281E-14
 -1      2878 8.35100E-03 2.68565E-04-4.27229E-14
 -1      2879 8.84928E-03 2.93829E-04-4.84050E-14
 -1      2880 8.70135E-03 2.96243E-04-4.66871E-14
 -1      2881 8.64586E-03 2.60497E-04-4.60623E-14
 -1      2882 9.14330E-03 2.90661E-04-5.19172E-14
 -1      2883 8.99654E-03 2.92028E-04-5.01485E-14
 -1      2884 8.93824E-03 2.56090E-04-4.95020E-14
 -1      2885 9.43537E-03 2.88546E-04-5.55236E-14
 -1      2886 9.28953E-03 2.89540E-04-5.37084E-14
 -1      2887 9.22888E-03 2.53531E-04-5.30401E-14
 -1      2888 9.72592E-03 2.86502E-04-5.92227E-14
 -1      2889 9.58080E-03 2.87558E-04-5.73625E-14
 -1      2890 9.51829E-03 2.51579E-04-5.66763E-14
 -1      2891 1.00153E-02 2.83930E-04-6.30108E-14
 -1      2892 9.87071E-03 2.85308E-04-6.11061E-14
 -1      2893 9.80678E-03 2.49429E-04-6.04029E-14
 -1      2894 1.03037E-02 2.80500E-04-6.68860E-14
 -1      2895 1.01596E-02 2.82335E-04-6.49369E-14
 -1      2896 1.00946E-02 2.46602E-04-6.42153E-14
 -1      2897 1.05914E-02 2.76071E-04-7.08508E-14
 -1      2898 1.04476E-02 2.78415E-04-6.88574E-14
 -1      2899 1.03818E-02 2.42851E-04-6.81154E-14
 -1      2900 1.08785E-02 2.70621E-04-7.49109E-14
 -1      2901 1.07350E-02 2.73473E-04-7.28698E-14
 -1      2902 1.06687E-02 2.38082E-04-7.21068E-14
 -1      2903 1.11652E-02 2.64204E-04-7.90606E-14
 -1      2904 1.10219E-02 2.67530E-04-7.69741E-14
 -1      2905 1.09552E-02 2.32307E-04-7.61921E-14
 -1      2906 1.14515E-02 2.56917E-04-8.32961E-14
 -1      2907 1.13084E-02 2.60664E-04-8.11685E-14
 -1      2908 1.12415E-02 2.25595E-04-8.03664E-14
 -1      2909 1.17377E-02 2.48872E-04-8.76134E-14
 -1      2910 1.15946E-02 2.52983E-04-8.54455E-14
 -1      2911 1.15277E-02 2.18050E-04-8.46209E-14
 -1      2912 1.20237E-02 2.40188E-04-9.20047E-14
 -1      2913 1.18807E-02 2.44604E-04-8.97991E-14
 -1      2914 1.18136E-02 2.09788E-04-8.89547E-14
 -1      2915 1.23095E-02 2.30979E-04-9.64668E-14
 -1      2916 1.21666E-02 2.35644E-04-9.42267E-14
 -1      2917 1.20995E-02 2.00925E-04-9.33598E-14
 -1      2918 1.25953E-02 2.21347E-04-1.00997E-13
 -1      2919 1.24524E-02 2.26211E-04-9.87251E-14
 -1      2920 1.23854E-02 1.91571E-04-9.78359E-14
 -1      2921 1.28810E-02 2.11383E-04-1.05585E-13
 -1      2922 1.27382E-02 2.16402E-04-1.03284E-13
 -1      2923 1.26711E-02 1.81824E-04-1.02377E-13
 -1      2924 1.31667E-02 2.01166E-04-1.10220E-13
 -1      2925 1.30239E-02 2.06303E-04-1.07898E-13
 -1      2926 1.29569E-02 1.71773E-04-1.06974E-13
 -1      2927 1.34524E-02 1.90764E-04-1.14894E-13
 -1      2928 1.33096E-02 1.95985E-04-1.12554E-13
 -1      2929 1.32426E-02 1.61490E-04-1.11619E-13
 -1      2930 1.37381E-02 1.80233E-04-1.19596E-13
 -1      2931 1.35953E-02 1.85512E-04-1.17244E-13
 -1      2932 1.35283E-02 1.51040E-04-1.16301E-13
 -1      2933 1.40238E-02 1.69622E-04-1.24320E-13
 -1      2934 1.38810E-02 1.74935E-04-1.21955E-13
 -1      2935 1.38140E-02 1.40476E-04-1.21007E-13
 -1      2936 1.42788E-02 1.52133E-04-1.28587E-13
 -1      2937 1.41360E-02 1.57460E-04-1.26214E-13
 -1      2938 1.40691E-02 1.23003E-04-1.25260E-13
 -1      2939 1.42934E-02 9.86601E-05-1.29054E-13
 -1      2940 1.43313E-02-3.08052E-04-1.31245E-13
 -1      2941 1.43260E-02-2.65882E-04-1.31009E-13
 -1      2942 1.43102E-02-1.39373E-04-1.30284E-13
 -1      2943 1.43050E-02-9.72044E-05-1.30038E-13
 -1      2944 1.43420E-02-3.92392E-04-1.31710E-13
 -1      2945 1.43367E-02-3.50222E-04-1.31478E-13
 -1      2946 1.42103E-02-3.24429E-04-1.29293E-13
 -1      2947 1.43207E-02-2.23712E-04-1.30769E-13
 -1      2948 1.43155E-02-1.81542E-04-1.30528E-13
 -1      2949 1.41891E-02-1.55793E-04-1.28344E-13
 -1      2950 1.41996E-02-2.40111E-04-1.28825E-13
 -1      2951 1.74925E-03 3.63452E-04-2.03037E-15
 -1      2952 1.60044E-03 3.51313E-04-1.70151E-15
 -1      2953 1.79798E-03 3.32471E-04-2.28088E-15
 -1      2954 1.43527E-02-4.75303E-04-1.32151E-13
 -1      2955 1.43474E-02-4.33848E-04-1.31933E-13
 -1      2956 1.42209E-02-4.08032E-04-1.29745E-13
 -1      2957 1.43636E-02-5.59641E-04-1.32595E-13
 -1      2958 1.43581E-02-5.17472E-04-1.32375E-13
 -1      2959 1.42317E-02-4.91635E-04-1.30186E-13
 -1      2960 1.43746E-02-6.43974E-04-1.33025E-13
 -1      2961 1.43691E-02-6.01809E-04-1.32811E-13
 -1      2962 1.42426E-02-5.75954E-04-1.30622E-13
 -1      2963 6.21917E-03 4.51039E-04-2.24266E-14
 -1      2964 6.39888E-03 3.46668E-04-2.32018E-14
 -1      2965 5.09658E-03 9.48916E-04-1.64025E-14
 -1      2966 5.25983E-03 9.34820E-04-1.73326E-14
 -1      2967 8.19219E-04 2.32420E-04-4.86915E-16
 -1      2968 6.59726E-03 2.39191E-04-2.39447E-14
 -1      2969 6.77365E-03 1.54964E-04-2.46298E-14
 -1      2970 6.81260E-03-3.03744E-04-2.58101E-14
 -1      2971 6.62141E-03-3.89669E-04-2.50284E-14
 -1      2972 6.43248E-03-4.92616E-04-2.45377E-14
 -1      2973 6.25437E-03-6.02776E-04-2.40503E-14
 -1      2974 6.53583E-03-4.58895E-04-2.54142E-14
 -1      2975 1.43952E-02-7.84911E-04-1.33750E-13
 -1      2976 1.44155E-02-7.49596E-04-1.33997E-13
 -1      2977 1.42985E-02-7.80328E-04-1.32121E-13
 -1      2978 7.44872E-03-7.68830E-05-2.70903E-14
 -1      2979 7.45847E-03-8.26743E-05-2.73070E-14
 -1      2980 4.03871E-03 4.76182E-04-1.21044E-14
 -1      2981 4.23245E-03 5.94018E-04-1.26042E-14
 -1      2982 6.05220E-03-7.24282E-04-2.32156E-14
 -1      2983 5.86847E-03-8.36635E-04-2.23389E-14
 -1      2984 7.66488E-04 8.91215E-05-6.64209E-16
 -1      2985 7.58990E-04 7.05190E-05-6.81584E-16
 -1      2986 8.68446E-04 6.94061E-05-8.74260E-16
 -1      2987 8.86459E-04 1.10832E-04-8.32491E-16
 -1      2988 7.57364E-04-6.99045E-05-7.55187E-16
 -1      2989 7.64698E-04-8.80108E-05-7.54456E-16
 -1      2990 2.84449E-03-2.94414E-05-1.02852E-14
 -1      2991 2.90427E-03-1.83529E-05-1.04435E-14
 -1      2992 4.48391E-03 7.35188E-04-1.34871E-14
 -1      2993 4.65621E-03 8.23338E-04-1.42253E-14
 -1      2994 3.73637E-03-3.93211E-04-1.21539E-14
 -1      2995 3.55122E-03-3.01061E-04-1.16985E-14
 -1      2996 3.26675E-03 9.70426E-05-1.07108E-14
 -1      2997 3.42603E-03 1.61642E-04-1.09164E-14
 -1      2998 2.99439E-03 6.92459E-06-1.04713E-14
 -1      2999 3.11356E-03 4.31526E-05-1.04974E-14
 -1      3000 2.92762E-03 5.81211E-07-9.97602E-15
 -1      3001 6.94670E-04-1.62976E-04-5.59760E-16
 -1      3002 4.79402E-03 8.81775E-04-1.48485E-14
 -1      3003 4.92320E-03 9.24624E-04-1.54894E-14
 -1      3004 4.71068E-03 8.59621E-04-1.43102E-14
 -1      3005 3.63832E-03 2.60165E-04-1.12625E-14
 -1      3006 3.83238E-03 3.59581E-04-1.16624E-14
 -1      3007 1.45215E-03 3.37368E-04-1.40277E-15
 -1      3008 1.30406E-03 3.21157E-04-1.13481E-15
 -1      3009 1.21024E-03 2.78582E-04-1.06326E-15
 -1      3010 1.50331E-03 3.09488E-04-1.61137E-15
 -1      3011 5.68850E-03-9.32291E-04-2.13404E-14
 -1      3012 5.52051E-03-1.01180E-03-2.03670E-14
 -1      3013 5.81208E-03-8.82725E-04-2.22077E-14
 -1      3014 4.64453E-03-9.19690E-04-1.53566E-14
 -1      3015 4.47479E-03-8.22825E-04-1.45833E-14
 -1      3016 5.45036E-03 8.79044E-04-1.84258E-14
 -1      3017 5.58323E-03 8.15602E-04-1.91765E-14
 -1      3018 7.73476E-04-1.07644E-04-7.51759E-16
 -1      3019 7.83558E-04-1.29124E-04-7.46378E-16
 -1      3020 8.84073E-04-1.09330E-04-9.53474E-16
 -1      3021 8.52667E-04-4.49699E-07-9.30611E-16
 -1      3022 7.42814E-04-7.50012E-06-7.39155E-16
 -1      3023 7.44144E-04-2.22389E-05-7.45687E-16
 -1      3024 1.42222E-02-7.40434E-04-1.30739E-13
 -1      3025 7.04099E-03-2.22564E-04-2.69896E-14
 -1      3026 6.93095E-03-2.57264E-04-2.63969E-14
 -1      3027 6.83250E-03-3.13940E-04-2.65025E-14
 -1      3028 3.08684E-03-1.29301E-04-1.03994E-14
 -1      3029 2.88526E-03-6.46140E-05-1.01836E-14
 -1      3030 5.00667E-03 9.46098E-04-1.58289E-14
 -1      3031 6.89281E-03 1.07534E-04-2.52787E-14
 -1      3032 7.00512E-03 7.01812E-05-2.59347E-14
 -1      3033 6.83074E-03 1.51873E-04-2.54596E-14
 -1      3034 1.42985E-02 5.68576E-05-1.29311E-13
 -1      3035 1.41863E-02 6.90364E-05-1.27412E-13
 -1      3036 1.43036E-02 1.50524E-05-1.29566E-13
 -1      3037 6.52445E-03 2.97936E-04-2.40506E-14
 -1      3038 6.11800E-03 5.19836E-04-2.20842E-14
 -1      3039 6.24695E-03 4.69608E-04-2.29513E-14
 -1      3040 6.02989E-03 5.86590E-04-2.17433E-14
 -1      3041 1.44100E-02-7.07435E-04-1.33794E-13
 -1      3042 5.34965E-03 9.18639E-04-1.78242E-14
 -1      3043 8.77177E-04 2.17575E-04-6.05107E-16
 -1      3044 5.70812E-03 7.58346E-04-1.99037E-14
 -1      3045 3.15871E-03 7.29119E-05-1.02081E-14
 -1      3046 7.23298E-03-2.02632E-05-2.61999E-14
 -1      3047 7.30942E-03-3.55060E-05-2.68854E-14
 -1      3048 7.17274E-03 5.71004E-06-2.64270E-14
 -1      3049 3.84990E-03-4.65006E-04-1.22935E-14
 -1      3050 3.71314E-03-4.18682E-04-1.16341E-14
 -1      3051 3.94961E-03-5.38614E-04-1.24317E-14
 -1      3052 7.45754E-03-8.96583E-05-2.76648E-14
 -1      3053 7.44603E-03-9.73832E-05-2.80241E-14
 -1      3054 7.49220E-03-8.69747E-05-2.83347E-14
 -1      3055 4.34678E-03 6.72587E-04-1.28095E-14
 -1      3056 4.44221E-03 7.43500E-04-1.30136E-14
 -1      3057 4.20865E-03 6.15198E-04-1.21503E-14
 -1      3058 7.28018E-03-1.32118E-04-2.71171E-14
 -1      3059 7.23537E-03-1.56426E-04-2.76062E-14
 -1      3060 7.35628E-03-1.21719E-04-2.78457E-14
 -1      3061 6.17287E-03-6.73975E-04-2.40650E-14
 -1      3062 3.90767E-03 4.24104E-04-1.15197E-14
 -1      3063 2.80084E-03-3.95353E-05-9.85151E-15
 -1      3064 2.81625E-03-3.57116E-05-1.00679E-14
 -1      3065 2.81160E-03-2.69109E-05-9.73550E-15
 -1      3066 5.30279E-03-1.07505E-03-1.90764E-14
 -1      3067 5.14538E-03-1.08542E-03-1.80980E-14
 -1      3068 7.43556E-03-7.03017E-05-2.73113E-14
 -1      3069 1.43069E-02-6.19797E-05-1.29931E-13
 -1      3070 1.43017E-02-2.01707E-05-1.29678E-13
 -1      3071 1.41895E-02-7.98091E-06-1.27779E-13
 -1      3072 1.41857E-02-7.84167E-05-1.27997E-13
 -1      3073 7.47037E-04-3.73194E-05-7.50539E-16
 -1      3074 7.51445E-04-5.31408E-05-7.53859E-16
 -1      3075 8.66483E-04-6.90634E-05-9.54640E-16
 -1      3076 8.55876E-04-3.36358E-05-9.46685E-16
 -1      3077 3.41570E-03-2.59948E-04-1.10568E-14
 -1      3078 9.93155E-04 2.21771E-04-7.92389E-16
 -1      3079 8.03305E-04-1.58261E-04-7.45375E-16
 -1      3080 8.32775E-04-2.05948E-04-7.30739E-16
 -1      3081 9.66890E-04-2.34116E-04-9.35179E-16
 -1      3082 9.16607E-04-1.62337E-04-9.49964E-16
 -1      3083 3.50805E-03 2.15894E-04-1.07523E-14
 -1      3084 1.02273E-03-2.16208E-04-1.07850E-15
 -1      3085 1.42528E-02-7.11001E-04-1.31172E-13
 -1      3086 1.43440E-02-6.73418E-04-1.32594E-13
 -1      3087 1.42175E-02-6.47552E-04-1.30407E-13
 -1      3088 1.41561E-02-7.06421E-04-1.29547E-13
 -1      3089 4.97497E-03-1.05829E-03-1.71010E-14
 -1      3090 4.82321E-03-1.00309E-03-1.62565E-14
 -1      3091 5.06048E-03-1.08226E-03-1.76010E-14
 -1      3092 4.72868E-03-9.73440E-04-1.57058E-14
 -1      3093 1.03899E-03 1.88868E-04-9.51767E-16
 -1      3094 1.02340E-03 1.60169E-04-9.87261E-16
 -1      3095 5.66734E-03 8.03548E-04-1.97412E-14
 -1      3096 5.83838E-03 7.03835E-04-2.07343E-14
 -1      3097 2.74481E-03 3.68350E-04-5.39544E-15
 -1      3098 2.59055E-03 3.52572E-04-4.84417E-15
 -1      3099 1.44476E-03-2.42368E-04-2.04172E-15
 -1      3100 1.58750E-03-2.52562E-04-2.42116E-15
 -1      3101 1.73035E-03-2.61398E-04-2.83302E-15
 -1      3102 1.87356E-03-2.69232E-04-3.27697E-15
 -1      3103 1.63441E-03-2.25871E-04-2.63636E-15
 -1      3104 2.01707E-03-2.76657E-04-3.75249E-15
 -1      3105 2.16124E-03-2.84175E-04-4.25957E-15
 -1      3106 1.91571E-03-2.39790E-04-3.52299E-15
 -1      3107 2.30621E-03-2.92354E-04-4.79795E-15
 -1      3108 2.45250E-03-3.01919E-04-5.36778E-15
 -1      3109 2.19810E-03-2.52470E-04-4.53472E-15
 -1      3110 2.60049E-03-3.13373E-04-5.96880E-15
 -1      3111 2.75091E-03-3.27865E-04-6.60092E-15
 -1      3112 2.48366E-03-2.67889E-04-5.67057E-15
 -1      3113 2.90449E-03-3.45784E-04-7.26310E-15
 -1      3114 3.06207E-03-3.69033E-04-7.95697E-15
 -1      3115 2.77643E-03-2.91015E-04-6.92874E-15
 -1      3116 3.22491E-03-3.97858E-04-8.68275E-15
 -1      3117 3.39348E-03-4.35265E-04-9.43984E-15
 -1      3118 3.08320E-03-3.29001E-04-8.30956E-15
 -1      3119 3.86677E-03-5.66323E-04-1.16374E-14
 -1      3120 4.06086E-03-6.47078E-04-1.25151E-14
 -1      3121 4.41836E-03-8.39572E-04-1.40520E-14
 -1      3122 4.61110E-03-9.30129E-04-1.50308E-14
 -1      3123 5.49427E-03-1.03889E-03-2.03914E-14
 -1      3124 5.67986E-03-9.69005E-04-2.16011E-14
 -1      3125 6.23018E-03-7.13064E-04-2.51313E-14
 -1      3126 6.42350E-03-6.37015E-04-2.64693E-14
 -1      3127 6.61279E-03-5.73838E-04-2.78359E-14
 -1      3128 6.79410E-03-5.22510E-04-2.92287E-14
 -1      3129 6.56913E-03-5.44806E-04-2.70787E-14
 -1      3130 6.96917E-03-4.83351E-04-3.06503E-14
 -1      3131 7.13685E-03-4.52592E-04-3.20982E-14
 -1      3132 6.93097E-03-4.48681E-04-2.98656E-14
 -1      3133 7.29898E-03-4.30312E-04-3.35728E-14
 -1      3134 7.45603E-03-4.14198E-04-3.50712E-14
 -1      3135 7.26103E-03-3.95537E-04-3.27569E-14
 -1      3136 7.60915E-03-4.03855E-04-3.65976E-14
 -1      3137 7.75918E-03-3.97587E-04-3.81513E-14
 -1      3138 7.56780E-03-3.70064E-04-3.57522E-14
 -1      3139 7.90682E-03-3.95072E-04-3.97317E-14
 -1      3140 8.05274E-03-3.95353E-04-4.13380E-14
 -1      3141 7.86068E-03-3.62118E-04-3.88543E-14
 -1      3142 8.19734E-03-3.98087E-04-4.29710E-14
 -1      3143 8.34109E-03-4.02695E-04-4.46300E-14
 -1      3144 8.14615E-03-3.65370E-04-4.20620E-14
 -1      3145 8.48417E-03-4.08851E-04-4.63144E-14
 -1      3146 8.62690E-03-4.16200E-04-4.80240E-14
 -1      3147 8.42822E-03-3.75950E-04-4.53746E-14
 -1      3148 8.76932E-03-4.24459E-04-4.97571E-14
 -1      3149 8.91166E-03-4.33410E-04-5.15160E-14
 -1      3150 8.70917E-03-3.91172E-04-4.87888E-14
 -1      3151 9.05390E-03-4.42823E-04-5.32989E-14
 -1      3152 9.19617E-03-4.52563E-04-5.51078E-14
 -1      3153 8.99018E-03-4.09105E-04-5.23003E-14
 -1      3154 9.33842E-03-4.62460E-04-5.69402E-14
 -1      3155 9.48076E-03-4.72431E-04-5.87952E-14
 -1      3156 9.27178E-03-4.28360E-04-5.59093E-14
 -1      3157 9.62312E-03-4.82360E-04-6.06752E-14
 -1      3158 9.76557E-03-4.92199E-04-6.25764E-14
 -1      3159 9.55413E-03-4.47965E-04-5.96173E-14
 -1      3160 9.90805E-03-5.01872E-04-6.44993E-14
 -1      3161 1.00506E-02-5.11358E-04-6.64452E-14
 -1      3162 9.83723E-03-4.67274E-04-6.34170E-14
 -1      3163 1.01932E-02-5.20614E-04-6.84087E-14
 -1      3164 1.03359E-02-5.29633E-04-7.03941E-14
 -1      3165 1.01210E-02-4.85893E-04-6.73021E-14
 -1      3166 1.04786E-02-5.38396E-04-7.23993E-14
 -1      3167 1.06213E-02-5.46906E-04-7.44197E-14
 -1      3168 1.04053E-02-5.03615E-04-7.12671E-14
 -1      3169 1.07640E-02-5.55161E-04-7.64587E-14
 -1      3170 1.09068E-02-5.63169E-04-7.85163E-14
 -1      3171 1.06900E-02-5.20366E-04-7.53080E-14
 -1      3172 1.10496E-02-5.70937E-04-8.05897E-14
 -1      3173 1.11925E-02-5.78477E-04-8.26795E-14
 -1      3174 1.09750E-02-5.36157E-04-7.94193E-14
 -1      3175 1.13353E-02-5.85802E-04-8.47851E-14
 -1      3176 1.14781E-02-5.92925E-04-8.69067E-14
 -1      3177 1.12603E-02-5.51057E-04-8.35953E-14
 -1      3178 1.16210E-02-5.99862E-04-8.90450E-14
 -1      3179 1.17639E-02-6.06626E-04-9.11974E-14
 -1      3180 1.15457E-02-5.65160E-04-8.78385E-14
 -1      3181 1.19067E-02-6.13233E-04-9.33653E-14
 -1      3182 1.20496E-02-6.19695E-04-9.55478E-14
 -1      3183 1.18313E-02-5.78576E-04-9.21425E-14
 -1      3184 1.21925E-02-6.26027E-04-9.77469E-14
 -1      3185 1.23354E-02-6.32241E-04-9.99608E-14
 -1      3186 1.21169E-02-5.91415E-04-9.65077E-14
 -1      3187 1.24782E-02-6.38351E-04-1.02190E-13
 -1      3188 1.26211E-02-6.44367E-04-1.04438E-13
 -1      3189 1.24026E-02-6.03780E-04-1.00934E-13
 -1      3190 1.27640E-02-6.50301E-04-1.06706E-13
 -1      3191 1.29069E-02-6.56161E-04-1.08990E-13
 -1      3192 1.26884E-02-6.15764E-04-1.05429E-13
 -1      3193 1.30498E-02-6.61958E-04-1.11289E-13
 -1      3194 1.31926E-02-6.67699E-04-1.13603E-13
 -1      3195 1.29741E-02-6.27450E-04-1.09993E-13
 -1      3196 1.33355E-02-6.73394E-04-1.15934E-13
 -1      3197 1.34784E-02-6.79048E-04-1.18279E-13
 -1      3198 1.32599E-02-6.38909E-04-1.14620E-13
 -1      3199 1.36212E-02-6.84669E-04-1.20635E-13
 -1      3200 1.37641E-02-6.90262E-04-1.23000E-13
 -1      3201 1.35456E-02-6.50200E-04-1.19302E-13
 -1      3202 1.38887E-02-6.95575E-04-1.25071E-13
 -1      3203 1.40316E-02-7.01132E-04-1.27458E-13
 -1      3204 1.40622E-02-6.71706E-04-1.27887E-13
 -1      3205 1.38131E-02-6.61114E-04-1.23731E-13
 -1      3206 2.43851E-03 3.39731E-04-4.32275E-15
 -1      3207 2.28836E-03 3.28833E-04-3.83099E-15
 -1      3208 2.47764E-03 3.04423E-04-4.66693E-15
 -1      3209 2.86314E-03-7.06272E-05-9.66386E-15
 -1      3210 2.81137E-03-5.32417E-05-9.66893E-15
 -1      3211 1.40998E-02-4.24015E-04-1.27787E-13
 -1      3212 1.40945E-02-3.82583E-04-1.27570E-13
 -1      3213 3.39485E-03 4.76595E-04-7.90114E-15
 -1      3214 3.22667E-03 4.40677E-04-7.22941E-15
 -1      3215 3.74438E-03 5.70462E-04-9.33617E-15
 -1      3216 3.56792E-03 5.19491E-04-8.60293E-15
 -1      3217 3.43472E-03 4.38747E-04-8.35683E-15
 -1      3218 4.10731E-03 6.93913E-04-1.08976E-14
 -1      3219 3.92541E-03 6.28729E-04-1.01009E-14
 -1      3220 3.79221E-03 5.37652E-04-9.82780E-15
 -1      3221 4.45571E-03 8.07334E-04-1.26335E-14
 -1      3222 4.27144E-03 7.34355E-04-1.17692E-14
 -1      3223 4.87918E-03 9.48766E-04-1.48701E-14
 -1      3224 4.70462E-03 9.00845E-04-1.39175E-14
 -1      3225 5.20006E-03 9.73195E-04-1.67861E-14
 -1      3226 5.03136E-03 9.74512E-04-1.57610E-14
 -1      3227 5.84769E-03 7.74145E-04-2.09190E-14
 -1      3228 5.66894E-03 8.47449E-04-1.97584E-14
 -1      3229 6.19808E-03 5.96529E-04-2.31683E-14
 -1      3230 6.01069E-03 6.75619E-04-2.19396E-14
 -1      3231 6.90797E-03 4.04985E-04-2.85147E-14
 -1      3232 6.73700E-03 4.50591E-04-2.71520E-14
 -1      3233 7.23786E-03 3.35477E-04-3.13348E-14
 -1      3234 7.07517E-03 3.67156E-04-2.99093E-14
 -1      3235 7.03889E-03 3.30887E-04-2.93949E-14
 -1      3236 7.55304E-03 2.88773E-04-3.42771E-14
 -1      3237 7.39712E-03 3.09819E-04-3.27907E-14
 -1      3238 7.36092E-03 2.73854E-04-3.22525E-14
 -1      3239 7.85750E-03 2.58633E-04-3.73310E-14
 -1      3240 7.70640E-03 2.72051E-04-3.57910E-14
 -1      3241 7.66770E-03 2.36925E-04-3.52289E-14
 -1      3242 8.15479E-03 2.40005E-04-4.04965E-14
 -1      3243 8.00685E-03 2.48178E-04-3.89007E-14
 -1      3244 7.96442E-03 2.13679E-04-3.83173E-14
 -1      3245 8.44760E-03 2.29047E-04-4.37645E-14
 -1      3246 8.30161E-03 2.33777E-04-4.21176E-14
 -1      3247 8.25507E-03 1.99538E-04-4.15124E-14
 -1      3248 8.73769E-03 2.22886E-04-4.71322E-14
 -1      3249 8.59288E-03 2.25512E-04-4.54363E-14
 -1      3250 8.54236E-03 1.91270E-04-4.48097E-14
 -1      3251 9.02617E-03 2.19429E-04-5.06031E-14
 -1      3252 8.88206E-03 2.20919E-04-4.88547E-14
 -1      3253 8.82798E-03 1.86538E-04-4.82084E-14
 -1      3254 9.31371E-03 2.17196E-04-5.41701E-14
 -1      3255 9.17001E-03 2.18226E-04-5.23746E-14
 -1      3256 9.11288E-03 1.83670E-04-5.17063E-14
 -1      3257 9.60067E-03 2.15185E-04-5.78322E-14
 -1      3258 9.45723E-03 2.16205E-04-5.59890E-14
 -1      3259 9.39760E-03 1.81495E-04-5.53027E-14
 -1      3260 9.88728E-03 2.12761E-04-6.15831E-14
 -1      3261 9.74400E-03 2.14050E-04-5.96959E-14
 -1      3262 9.68237E-03 1.79231E-04-5.89904E-14
 -1      3263 1.01737E-02 2.09554E-04-6.54223E-14
 -1      3264 1.00305E-02 2.11268E-04-6.34926E-14
 -1      3265 9.96731E-03 1.76390E-04-6.27682E-14
 -1      3266 1.04599E-02 2.05386E-04-6.93484E-14
 -1      3267 1.03168E-02 2.07594E-04-6.73741E-14
 -1      3268 1.02524E-02 1.72700E-04-6.66324E-14
 -1      3269 1.07460E-02 2.00211E-04-7.33676E-14
 -1      3270 1.06029E-02 2.02924E-04-7.13456E-14
 -1      3271 1.05377E-02 1.68045E-04-7.05841E-14
 -1      3272 1.10320E-02 1.94062E-04-7.74763E-14
 -1      3273 1.08890E-02 1.97255E-04-7.54102E-14
 -1      3274 1.08232E-02 1.62413E-04-7.46279E-14
 -1      3275 1.13179E-02 1.87022E-04-8.16708E-14
 -1      3276 1.11750E-02 1.90648E-04-7.95639E-14
 -1      3277 1.11087E-02 1.55856E-04-7.87626E-14
 -1      3278 1.16038E-02 1.79198E-04-8.59466E-14
 -1      3279 1.14609E-02 1.83202E-04-8.37989E-14
 -1      3280 1.13943E-02 1.48464E-04-8.29779E-14
 -1      3281 1.18897E-02 1.70703E-04-9.02944E-14
 -1      3282 1.17467E-02 1.75028E-04-8.81103E-14
 -1      3283 1.16800E-02 1.40345E-04-8.72704E-14
 -1      3284 1.21755E-02 1.61652E-04-9.47146E-14
 -1      3285 1.20326E-02 1.66241E-04-9.24976E-14
 -1      3286 1.19657E-02 1.31610E-04-9.16341E-14
 -1      3287 1.24612E-02 1.52149E-04-9.92042E-14
 -1      3288 1.23184E-02 1.56952E-04-9.69500E-14
 -1      3289 1.22514E-02 1.22367E-04-9.60687E-14
 -1      3290 1.27470E-02 1.42288E-04-1.03757E-13
 -1      3291 1.26041E-02 1.47259E-04-1.01474E-13
 -1      3292 1.25372E-02 1.12714E-04-1.00571E-13
 -1      3293 1.30328E-02 1.32148E-04-1.08365E-13
 -1      3294 1.28899E-02 1.37249E-04-1.06054E-13
 -1      3295 1.28229E-02 1.02736E-04-1.05134E-13
 -1      3296 1.33185E-02 1.21801E-04-1.13015E-13
 -1      3297 1.31756E-02 1.26997E-04-1.10684E-13
 -1      3298 1.31087E-02 9.25106E-05-1.09751E-13
 -1      3299 1.36042E-02 1.11305E-04-1.17702E-13
 -1      3300 1.34614E-02 1.16569E-04-1.15353E-13
 -1      3301 1.33944E-02 8.21000E-05-1.14411E-13
 -1      3302 1.38900E-02 1.00709E-04-1.22415E-13
 -1      3303 1.37471E-02 1.06017E-04-1.20058E-13
 -1      3304 1.36802E-02 7.15588E-05-1.19102E-13
 -1      3305 1.40942E-02 7.87936E-05-1.25857E-13
 -1      3306 1.39820E-02 9.09626E-05-1.23965E-13
 -1      3307 1.39151E-02 5.65083E-05-1.23010E-13
 -1      3308 1.40993E-02 3.69986E-05-1.26113E-13
 -1      3309 1.84533E-03 3.01561E-04-2.53855E-15
 -1      3310 1.69923E-03 2.92186E-04-2.16823E-15
 -1      3311 3.45748E-03-3.07274E-04-1.07879E-14
 -1      3312 3.28060E-03-2.29304E-04-1.03602E-14
 -1      3313 1.40891E-02-3.40436E-04-1.27341E-13
 -1      3314 1.40838E-02-2.98290E-04-1.27111E-13
 -1      3315 1.39680E-02-3.56431E-04-1.25396E-13
 -1      3316 6.49040E-03 3.43850E-04-2.42633E-14
 -1      3317 6.66389E-03 2.48199E-04-2.50276E-14
 -1      3318 1.41216E-02-5.92255E-04-1.28655E-13
 -1      3319 1.41161E-02-5.50105E-04-1.28441E-13
 -1      3320 2.84598E-03-6.20563E-06-9.45573E-15
 -1      3321 2.92236E-03 1.61959E-05-9.47978E-15
 -1      3322 5.36666E-03 9.38425E-04-1.78595E-14
 -1      3323 3.76889E-03 3.74660E-04-1.08922E-14
 -1      3324 3.95129E-03 4.78659E-04-1.13123E-14
 -1      3325 3.09274E-03-1.53365E-04-9.96303E-15
 -1      3326 2.96800E-03-1.08962E-04-9.75165E-15
 -1      3327 5.42593E-03-1.05244E-03-1.98902E-14
 -1      3328 1.41107E-02-5.08133E-04-1.28227E-13
 -1      3329 1.41052E-02-4.65985E-04-1.28007E-13
 -1      3330 1.39788E-02-4.40521E-04-1.25839E-13
 -1      3331 1.39897E-02-5.24439E-04-1.26270E-13
 -1      3332 2.13965E-03 3.19302E-04-3.36978E-15
 -1      3333 1.99205E-03 3.10420E-04-2.93893E-15
 -1      3334 1.89110E-03 2.70710E-04-2.80349E-15
 -1      3335 1.16016E-03-2.15929E-04-1.38041E-15
 -1      3336 1.30236E-03-2.30261E-04-1.69491E-15
 -1      3337 1.35357E-03-2.07296E-04-1.87727E-15
 -1      3338 4.36917E-03-7.67580E-04-1.40878E-14
 -1      3339 4.23246E-03-6.96851E-04-1.34713E-14
 -1      3340 7.41311E-03-5.82503E-05-2.77068E-14
 -1      3341 7.48282E-03-7.14213E-05-2.83735E-14
 -1      3342 3.06229E-03 4.11552E-04-6.58780E-15
 -1      3343 2.90199E-03 3.87551E-04-5.97653E-15
 -1      3344 2.78170E-03 3.31131E-04-5.77782E-15
 -1      3345 5.84462E-03-8.86077E-04-2.26062E-14
 -1      3346 4.77690E-03-1.00766E-03-1.59213E-14
 -1      3347 9.70862E-04 4.58549E-05-1.11207E-15
 -1      3348 9.66136E-04 2.68405E-05-1.12891E-15
 -1      3349 1.15839E-03 2.49681E-04-1.03610E-15
 -1      3350 1.08722E-03 2.14232E-04-9.84821E-16
 -1      3351 1.20095E-03 2.11991E-04-1.22240E-15
 -1      3352 1.30335E-03 2.66219E-04-1.29173E-15
 -1      3353 6.36799E-03-5.86349E-04-2.53214E-14
 -1      3354 6.18425E-03-6.95651E-04-2.44631E-14
 -1      3355 9.96593E-04-1.80057E-04-1.08454E-15
 -1      3356 1.07786E-03-1.97996E-04-1.22805E-15
 -1      3357 9.73153E-04-1.47462E-04-1.08478E-15
 -1      3358 6.04071E-03-7.95810E-04-2.38822E-14
 -1      3359 3.05454E-03 6.00022E-05-9.62045E-15
 -1      3360 3.18997E-03 1.07021E-04-9.82154E-15
 -1      3361 3.36521E-03 1.80914E-04-1.00743E-14
 -1      3362 3.55213E-03 2.68130E-04-1.04006E-14
 -1      3363 5.54166E-03 8.84560E-04-1.89605E-14
 -1      3364 9.63551E-04 8.43524E-06-1.14337E-15
 -1      3365 9.63197E-04-9.72015E-06-1.15542E-15
 -1      3366 1.07557E-03 1.88118E-05-1.37648E-15
 -1      3367 7.15209E-03-1.92799E-04-2.77162E-14
 -1      3368 7.06675E-03-2.36514E-04-2.78233E-14
 -1      3369 7.25223E-03-1.73057E-04-2.84488E-14
 -1      3370 5.97236E-03 6.49807E-04-2.15694E-14
 -1      3371 1.40766E-02-6.46698E-04-1.28059E-13
 -1      3372 1.41073E-02-6.17267E-04-1.28486E-13
 -1      3373 1.39808E-02-5.91406E-04-1.26314E-13
 -1      3374 1.39520E-02-6.41414E-04-1.25976E-13
 -1      3375 2.79323E-03-1.58921E-05-9.24665E-15
 -1      3376 2.77147E-03-1.60769E-06-8.76797E-15
 -1      3377 2.75132E-03-2.19526E-05-9.03886E-15
 -1      3378 2.76656E-03-4.44668E-05-9.34389E-15
 -1      3379 6.78022E-03 1.99074E-04-2.56803E-14
 -1      3380 6.89353E-03 1.56639E-04-2.63417E-14
 -1      3381 6.74524E-03 2.47008E-04-2.58976E-14
 -1      3382 3.75871E-03-5.40510E-04-1.10855E-14
 -1      3383 3.70403E-03-4.61795E-04-1.12160E-14
 -1      3384 3.61569E-03-3.97067E-04-1.10932E-14
 -1      3385 3.57573E-03-4.81890E-04-1.02615E-14
 -1      3386 4.95832E-03-1.06720E-03-1.69750E-14
 -1      3387 3.23400E-03 1.56535E-04-9.48772E-15
 -1      3388 2.18195E-03 2.86064E-04-3.67496E-15
 -1      3389 3.46089E-03-3.55998E-04-1.03861E-14
 -1      3390 3.09896E-03 3.72992E-04-7.00788E-15
 -1      3391 4.14102E-03 6.39718E-04-1.14621E-14
 -1      3392 3.60528E-03 3.26262E-04-1.02042E-14
 -1      3393 6.56084E-03 5.03752E-04-2.58226E-14
 -1      3394 6.38195E-03 5.65447E-04-2.45248E-14
 -1      3395 1.40680E-02-1.72205E-04-1.26408E-13
 -1      3396 1.40627E-02-1.30057E-04-1.26166E-13
 -1      3397 3.13168E-03-1.95439E-04-9.70836E-15
 -1      3398 9.75440E-04-6.58828E-05-1.17721E-15
 -1      3399 9.83751E-04-8.63625E-05-1.17961E-15
 -1      3400 6.39598E-03 4.07110E-04-2.39023E-14
 -1      3401 6.54112E-03 3.55126E-04-2.48726E-14
 -1      3402 6.30983E-03 4.71167E-04-2.35429E-14
 -1      3403 1.40785E-02-2.56322E-04-1.26883E-13
 -1      3404 1.40732E-02-2.14175E-04-1.26646E-13
 -1      3405 1.39468E-02-1.88431E-04-1.24475E-13
 -1      3406 1.39574E-02-2.72343E-04-1.24940E-13
 -1      3407 7.05218E-03 7.62635E-05-2.68002E-14
 -1      3408 7.10910E-03 3.83253E-05-2.66148E-14
 -1      3409 7.20480E-03 1.50242E-05-2.73031E-14
 -1      3410 2.94159E-03 4.45731E-05-9.10940E-15
 -1      3411 9.71514E-04-1.04292E-04-1.13586E-15
 -1      3412 9.83199E-04-1.27411E-04-1.13291E-15
 -1      3413 1.06076E-03-1.41591E-04-1.28169E-15
 -1      3414 1.08082E-03-1.01209E-04-1.38019E-15
 -1      3415 3.90345E-03 5.18703E-04-1.06530E-14
 -1      3416 4.04509E-03 5.66572E-04-1.12805E-14
 -1      3417 7.50974E-03-7.91719E-05-2.87367E-14
 -1      3418 7.52577E-03-8.54850E-05-2.91023E-14
 -1      3419 7.51181E-03-6.96518E-05-2.91390E-14
 -1      3420 7.42927E-03-1.10908E-04-2.85183E-14
 -1      3421 7.40761E-03-1.28614E-04-2.90151E-14
 -1      3422 7.49026E-03-1.05510E-04-2.91961E-14
 -1      3423 1.00936E-03 1.33819E-04-1.01854E-15
 -1      3424 9.97062E-04 1.09458E-04-1.04666E-15
 -1      3425 1.13524E-03 1.57893E-04-1.22209E-15
 -1      3426 6.68433E-03-4.06739E-04-2.64862E-14
 -1      3427 6.52507E-03-4.98062E-04-2.59772E-14
 -1      3428 6.91534E-03-3.15312E-04-2.76776E-14
 -1      3429 6.80109E-03-3.57853E-04-2.70796E-14
 -1      3430 6.78744E-03-4.01863E-04-2.76559E-14
 -1      3431 7.37905E-03-4.22520E-05-2.79385E-14
 -1      3432 1.13225E-03-1.79253E-04-1.38336E-15
 -1      3433 4.45320E-03-8.37009E-04-1.43213E-14
 -1      3434 6.52401E-03-5.29423E-04-2.63889E-14
 -1      3435 1.40646E-02-9.48479E-05-1.26064E-13
 -1      3436 1.40665E-02-5.96377E-05-1.25959E-13
 -1      3437 1.39435E-02-1.11274E-04-1.24135E-13
 -1      3438 9.86406E-04 8.68267E-05-1.07135E-15
 -1      3439 9.77686E-04 6.57465E-05-1.09317E-15
 -1      3440 1.08660E-03 5.99618E-05-1.33736E-15
 -1      3441 1.10689E-03 1.05585E-04-1.28664E-15
 -1      3442 4.08343E-03-6.33607E-04-1.27692E-14
 -1      3443 3.41930E-03-3.93802E-04-9.84556E-15
 -1      3444 5.11746E-03-1.09601E-03-1.79695E-14
 -1      3445 6.69658E-03 4.16480E-04-2.66619E-14
 -1      3446 1.57398E-03 2.86890E-04-1.86064E-15
 -1      3447 1.42851E-03 2.74862E-04-1.54737E-15
 -1      3448 1.37533E-03 2.46901E-04-1.51047E-15
 -1      3449 1.62304E-03 2.58778E-04-2.08785E-15
 -1      3450 9.65082E-04-2.79147E-05-1.16492E-15
 -1      3451 9.69160E-04-4.65147E-05-1.17231E-15
 -1      3452 1.08414E-03-6.07839E-05-1.42209E-15
 -1      3453 5.29267E-03-1.09170E-03-1.90976E-14
 -1      3454 1.81835E-03-2.05617E-04-3.29732E-15
 -1      3455 1.95638E-03-2.10939E-04-3.77092E-15
 -1      3456 2.09433E-03-2.16031E-04-4.27554E-15
 -1      3457 2.23263E-03-2.21280E-04-4.81096E-15
 -1      3458 1.99558E-03-1.82670E-04-4.02116E-15
 -1      3459 2.37130E-03-2.27063E-04-5.37669E-15
 -1      3460 2.51113E-03-2.34042E-04-5.97348E-15
 -1      3461 2.26478E-03-1.90551E-04-5.08850E-15
 -1      3462 2.65231E-03-2.42479E-04-6.59951E-15
 -1      3463 2.79615E-03-2.53668E-04-7.25591E-15
 -1      3464 2.53471E-03-2.00183E-04-6.27601E-15
 -1      3465 2.94324E-03-2.67772E-04-7.94240E-15
 -1      3466 3.09540E-03-2.87350E-04-8.65954E-15
 -1      3467 2.80958E-03-2.15350E-04-7.58311E-15
 -1      3468 3.09900E-03 1.34036E-04-8.89518E-15
 -1      3469 3.25281E-03 2.00034E-04-9.13026E-15
 -1      3470 7.23869E-03-3.51639E-04-3.19317E-14
 -1      3471 7.39091E-03-3.37710E-04-3.34019E-14
 -1      3472 7.53815E-03-3.29580E-04-3.48970E-14
 -1      3473 7.68209E-03-3.25049E-04-3.64181E-14
 -1      3474 7.51523E-03-2.88246E-04-3.40438E-14
 -1      3475 7.82331E-03-3.23916E-04-3.79663E-14
 -1      3476 7.96305E-03-3.25035E-04-3.95412E-14
 -1      3477 7.79048E-03-2.86007E-04-3.70822E-14
 -1      3478 8.10156E-03-3.28269E-04-4.11417E-14
 -1      3479 8.23960E-03-3.33019E-04-4.27693E-14
 -1      3480 8.06015E-03-2.92037E-04-4.02259E-14
 -1      3481 8.37726E-03-3.39088E-04-4.44230E-14
 -1      3482 8.51499E-03-3.46172E-04-4.61021E-14
 -1      3483 8.32867E-03-3.03376E-04-4.34749E-14
 -1      3484 8.65278E-03-3.54054E-04-4.78066E-14
 -1      3485 8.79090E-03-3.62567E-04-4.95346E-14
 -1      3486 8.59825E-03-3.18166E-04-4.68275E-14
 -1      3487 8.92927E-03-3.71510E-04-5.12865E-14
 -1      3488 9.06806E-03-3.80789E-04-5.30646E-14
 -1      3489 8.86987E-03-3.35105E-04-5.02786E-14
 -1      3490 9.20718E-03-3.90239E-04-5.48686E-14
 -1      3491 9.34672E-03-3.99804E-04-5.66951E-14
 -1      3492 9.14383E-03-3.53200E-04-5.38299E-14
 -1      3493 9.48658E-03-4.09360E-04-5.85458E-14
 -1      3494 9.62682E-03-4.18877E-04-6.04210E-14
 -1      3495 9.42006E-03-3.71699E-04-5.74787E-14
 -1      3496 9.76735E-03-4.28267E-04-6.23186E-14
 -1      3497 9.90820E-03-4.37518E-04-6.42368E-14
 -1      3498 9.69832E-03-3.90058E-04-6.12223E-14
 -1      3499 1.00493E-02-4.46573E-04-6.61756E-14
 -1      3500 1.01907E-02-4.55433E-04-6.81361E-14
 -1      3501 9.97831E-03-4.07912E-04-6.50536E-14
 -1      3502 1.03322E-02-4.64066E-04-7.01173E-14
 -1      3503 1.04740E-02-4.72479E-04-7.21176E-14
 -1      3504 1.02597E-02-4.25048E-04-6.89694E-14
 -1      3505 1.06159E-02-4.80657E-04-7.41360E-14
 -1      3506 1.07580E-02-4.88612E-04-7.61728E-14
 -1      3507 1.05423E-02-4.41368E-04-7.29655E-14
 -1      3508 1.09002E-02-4.96343E-04-7.82272E-14
 -1      3509 1.10425E-02-5.03863E-04-8.02993E-14
 -1      3510 1.08257E-02-4.56855E-04-7.70360E-14
 -1      3511 1.11849E-02-5.11178E-04-8.23841E-14
 -1      3512 1.13274E-02-5.18302E-04-8.44881E-14
 -1      3513 1.11098E-02-4.71548E-04-8.11748E-14
 -1      3514 1.14700E-02-5.25246E-04-8.66096E-14
 -1      3515 1.16126E-02-5.32023E-04-8.87459E-14
 -1      3516 1.13945E-02-4.85517E-04-8.53809E-14
 -1      3517 1.17553E-02-5.38647E-04-9.08979E-14
 -1      3518 1.18980E-02-5.45129E-04-9.30644E-14
 -1      3519 1.16795E-02-4.98853E-04-8.96527E-14
 -1      3520 1.20408E-02-5.51483E-04-9.52448E-14
 -1      3521 1.21836E-02-5.57720E-04-9.74435E-14
 -1      3522 1.19647E-02-5.11649E-04-9.39855E-14
 -1      3523 1.23264E-02-5.63853E-04-9.96568E-14
 -1      3524 1.24692E-02-5.69892E-04-1.01884E-13
 -1      3525 1.22502E-02-5.23995E-04-9.83779E-14
 -1      3526 1.26121E-02-5.75847E-04-1.04133E-13
 -1      3527 1.27549E-02-5.81728E-04-1.06397E-13
 -1      3528 1.25358E-02-5.35977E-04-1.02838E-13
 -1      3529 1.28978E-02-5.87544E-04-1.08676E-13
 -1      3530 1.30406E-02-5.93303E-04-1.10973E-13
 -1      3531 1.28215E-02-5.47668E-04-1.07361E-13
 -1      3532 1.31835E-02-5.99013E-04-1.13284E-13
 -1      3533 1.33264E-02-6.04679E-04-1.15610E-13
 -1      3534 1.31072E-02-5.59136E-04-1.11951E-13
 -1      3535 1.34693E-02-6.10311E-04-1.17952E-13
 -1      3536 1.36122E-02-6.15912E-04-1.20304E-13
 -1      3537 1.33930E-02-5.70434E-04-1.16602E-13
 -1      3538 3.28695E-03-3.17268E-04-9.56957E-15
 -1      3539 2.86016E-03-8.98935E-05-9.24701E-15
 -1      3540 3.46817E-03 3.97361E-04-8.81730E-15
 -1      3541 3.29614E-03 3.60169E-04-8.11075E-15
 -1      3542 4.58454E-03 8.51588E-04-1.33178E-14
 -1      3543 7.17225E-03 2.60781E-04-3.02823E-14
 -1      3544 7.00919E-03 2.92102E-04-2.88802E-14
 -1      3545 8.06891E-03 1.71798E-04-3.93069E-14
 -1      3546 7.92539E-03 1.79412E-04-3.77333E-14
 -1      3547 8.35295E-03 1.61380E-04-4.25321E-14
 -1      3548 8.21127E-03 1.65949E-04-4.09057E-14
 -1      3549 8.17021E-03 1.32914E-04-4.03002E-14
 -1      3550 8.63502E-03 1.55172E-04-4.58588E-14
 -1      3551 8.49410E-03 1.57877E-04-4.41828E-14
 -1      3552 8.44803E-03 1.25308E-04-4.35565E-14
 -1      3553 8.91653E-03 1.51390E-04-4.92872E-14
 -1      3554 8.77577E-03 1.53063E-04-4.75605E-14
 -1      3555 8.72534E-03 1.20504E-04-4.69134E-14
 -1      3556 9.19823E-03 1.48755E-04-5.28135E-14
 -1      3557 9.05731E-03 1.49985E-04-5.10380E-14
 -1      3558 9.00321E-03 1.17203E-04-5.03696E-14
 -1      3559 9.48046E-03 1.46379E-04-5.64369E-14
 -1      3560 9.33925E-03 1.47570E-04-5.46152E-14
 -1      3561 9.28212E-03 1.14474E-04-5.39253E-14
 -1      3562 9.76332E-03 1.43674E-04-6.01537E-14
 -1      3563 9.62180E-03 1.45089E-04-5.82845E-14
 -1      3564 9.56221E-03 1.11671E-04-5.75773E-14
 -1      3565 1.00468E-02 1.40281E-04-6.39566E-14
 -1      3566 9.90498E-03 1.42074E-04-6.20427E-14
 -1      3567 9.84345E-03 1.08370E-04-6.13198E-14
 -1      3568 1.03308E-02 1.36013E-04-6.78446E-14
 -1      3569 1.01888E-02 1.38260E-04-6.58901E-14
 -1      3570 1.01257E-02 1.04321E-04-6.51472E-14
 -1      3571 1.06153E-02 1.30803E-04-7.18244E-14
 -1      3572 1.04730E-02 1.33524E-04-6.98237E-14
 -1      3573 1.04088E-02 9.94045E-05-6.90622E-14
 -1      3574 1.09002E-02 1.24668E-04-7.58933E-14
 -1      3575 1.07577E-02 1.27847E-04-7.38476E-14
 -1      3576 1.06927E-02 9.35947E-05-7.30667E-14
 -1      3577 1.11853E-02 1.17672E-04-8.00483E-14
 -1      3578 1.10427E-02 1.21271E-04-7.79598E-14
 -1      3579 1.09770E-02 8.69275E-05-7.71593E-14
 -1      3580 1.14707E-02 1.09909E-04-8.42867E-14
 -1      3581 1.13280E-02 1.13880E-04-8.21579E-14
 -1      3582 1.12618E-02 7.94761E-05-8.13387E-14
 -1      3583 1.17561E-02 1.01484E-04-8.85927E-14
 -1      3584 1.16134E-02 1.05773E-04-8.64306E-14
 -1      3585 1.15470E-02 7.13332E-05-8.55931E-14
 -1      3586 1.20417E-02 9.25025E-05-9.29745E-14
 -1      3587 1.18989E-02 9.70567E-05-9.07760E-14
 -1      3588 1.18323E-02 6.25984E-05-8.99184E-14
 -1      3589 1.23274E-02 8.30644E-05-9.74221E-14
 -1      3590 1.21846E-02 8.78351E-05-9.51918E-14
 -1      3591 1.21178E-02 5.33696E-05-9.43142E-14
 -1      3592 1.26131E-02 7.32600E-05-1.01937E-13
 -1      3593 1.24703E-02 7.82032E-05-9.96708E-14
 -1      3594 1.24034E-02 4.37381E-05-9.87759E-14
 -1      3595 1.28989E-02 6.31683E-05-1.06511E-13
 -1      3596 1.27560E-02 6.82460E-05-1.04217E-13
 -1      3597 1.26891E-02 3.37852E-05-1.03301E-13
 -1      3598 1.31846E-02 5.28577E-05-1.11137E-13
 -1      3599 1.30417E-02 5.80369E-05-1.08818E-13
 -1      3600 1.29748E-02 2.35822E-05-1.07886E-13
 -1      3601 1.34704E-02 4.23858E-05-1.15805E-13
 -1      3602 1.33275E-02 4.76390E-05-1.13468E-13
 -1      3603 1.32606E-02 1.31896E-05-1.12525E-13
 -1      3604 1.37561E-02 3.18018E-05-1.20506E-13
 -1      3605 1.36132E-02 3.71054E-05-1.18151E-13
 -1      3606 1.35463E-02 2.65921E-06-1.17200E-13
 -1      3607 3.12998E-03 3.32025E-04-7.43272E-15
 -1      3608 2.96984E-03 3.09514E-04-6.78421E-15
 -1      3609 3.15498E-03 2.88046E-04-7.86263E-15
 -1      3610 3.12820E-03-2.45844E-04-9.16612E-15
 -1      3611 2.96789E-03-1.79267E-04-8.80289E-15
 -1      3612 1.38470E-02-3.72767E-04-1.23454E-13
 -1      3613 1.38416E-02-3.30649E-04-1.23229E-13
 -1      3614 1.93537E-03 2.39975E-04-3.07617E-15
 -1      3615 1.79302E-03 2.33461E-04-2.66578E-15
 -1      3616 7.78041E-03 1.88975E-04-3.61857E-14
 -1      3617 7.63328E-03 2.01338E-04-3.46668E-14
 -1      3618 7.88985E-03 1.45195E-04-3.71484E-14
 -1      3619 7.48346E-03 2.16729E-04-3.31760E-14
 -1      3620 7.33011E-03 2.36498E-04-3.17142E-14
 -1      3621 7.30506E-03 1.97191E-04-3.11753E-14
 -1      3622 7.60337E-03 1.64985E-04-3.41048E-14
 -1      3623 6.34114E-03 4.96226E-04-2.39567E-14
 -1      3624 2.82338E-03 3.59220E-05-8.48327E-15
 -1      3625 2.93714E-03 7.57725E-05-8.61363E-15
 -1      3626 2.83386E-03-1.07566E-04-8.74966E-15
 -1      3627 2.75279E-03-7.36269E-05-8.67188E-15
 -1      3628 7.33278E-03-1.71229E-05-2.82099E-14
 -1      3629 7.44313E-03-4.07581E-05-2.90492E-14
 -1      3630 3.36789E-03 2.75055E-04-9.13924E-15
 -1      3631 3.55795E-03 3.61815E-04-9.59294E-15
 -1      3632 2.81428E-03 2.92522E-04-6.16595E-15
 -1      3633 2.66247E-03 2.78966E-04-5.57733E-15
 -1      3634 2.84207E-03 2.52109E-04-6.56001E-15
 -1      3635 3.71503E-03 4.56338E-04-9.87188E-15
 -1      3636 1.40819E-02-2.89271E-05-1.26094E-13
 -1      3637 1.40839E-02 6.28554E-06-1.25983E-13
 -1      3638 1.39917E-02 1.60461E-05-1.24432E-13
 -1      3639 1.39608E-02-4.53686E-05-1.24166E-13
 -1      3640 6.71216E-03-4.69298E-04-2.77558E-14
 -1      3641 2.71177E-03-4.95968E-05-8.68803E-15
 -1      3642 2.71761E-03-3.59481E-05-8.86508E-15
 -1      3643 2.67402E-03-2.59853E-05-8.39746E-15
 -1      3644 1.13936E-03-1.55998E-04-1.43963E-15
 -1      3645 1.21907E-03-1.70649E-04-1.60661E-15
 -1      3646 1.14744E-03-1.33876E-04-1.49369E-15
 -1      3647 2.22204E-03 2.52731E-04-3.98719E-15
 -1      3648 2.07824E-03 2.46237E-04-3.51653E-15
 -1      3649 1.97799E-03 2.09334E-04-3.35632E-15
 -1      3650 2.51362E-03 2.68516E-04-5.01797E-15
 -1      3651 2.36697E-03 2.59888E-04-4.48780E-15
 -1      3652 2.54620E-03 2.31789E-04-5.37476E-15
 -1      3653 1.54220E-03-1.92755E-04-2.44363E-15
 -1      3654 1.68037E-03-1.99646E-04-2.85487E-15
 -1      3655 1.72539E-03-1.73862E-04-3.07626E-15
 -1      3656 6.82056E-03-4.24787E-04-2.83620E-14
 -1      3657 7.35005E-03-1.52613E-04-2.91285E-14
 -1      3658 7.28488E-03-1.83909E-04-2.92394E-14
 -1      3659 7.43548E-03-1.39670E-04-2.98132E-14
 -1      3660 1.35707E-03-1.80940E-04-1.94320E-15
 -1      3661 6.99210E-03-3.88585E-04-2.97667E-14
 -1      3662 3.21921E-03 2.43534E-04-8.55656E-15
 -1      3663 2.95210E-03 1.13139E-04-8.27744E-15
 -1      3664 7.03649E-03-2.79617E-04-2.84121E-14
 -1      3665 2.69909E-03 1.01411E-05-8.09187E-15
 -1      3666 2.75725E-03 2.10641E-05-8.28751E-15
 -1      3667 2.73839E-03 4.78368E-05-7.81564E-15
 -1      3668 1.37198E-02-6.26020E-04-1.22098E-13
 -1      3669 1.38444E-02-6.31325E-04-1.24167E-13
 -1      3670 1.38587E-02-6.06328E-04-1.24336E-13
 -1      3671 1.36435E-02-5.86141E-04-1.20737E-13
 -1      3672 7.00261E-03 1.19004E-04-2.70273E-14
 -1      3673 7.10671E-03 8.80674E-05-2.77195E-14
 -1      3674 6.96424E-03 1.64089E-04-2.72498E-14
 -1      3675 1.67108E-03 2.30805E-04-2.32321E-15
 -1      3676 1.54891E-03 2.27115E-04-2.00451E-15
 -1      3677 1.71796E-03 2.02931E-04-2.56627E-15
 -1      3678 1.18877E-03 3.04358E-05-1.62960E-15
 -1      3679 1.18526E-03 9.22054E-06-1.64913E-15
 -1      3680 1.20425E-03 7.51649E-05-1.58161E-15
 -1      3681 1.19517E-03 5.22671E-05-1.60721E-15
 -1      3682 1.30336E-03 4.30505E-05-1.90196E-15
 -1      3683 1.38996E-02 2.58010E-05-1.22881E-13
 -1      3684 7.14387E-03-3.16504E-04-3.03840E-14
 -1      3685 1.37152E-02-3.05059E-04-1.21073E-13
 -1      3686 1.38363E-02-2.88708E-04-1.23004E-13
 -1      3687 1.38310E-02-2.46768E-04-1.22776E-13
 -1      3688 7.28941E-03 1.07285E-05-2.84007E-14
 -1      3689 1.16695E-03-9.25593E-05-1.59538E-15
 -1      3690 1.15653E-03-1.12792E-04-1.54561E-15
 -1      3691 1.23317E-03-1.24683E-04-1.72015E-15
 -1      3692 1.38731E-02-5.81329E-04-1.24505E-13
 -1      3693 1.38875E-02-5.56330E-04-1.24672E-13
 -1      3694 1.37655E-02-5.71247E-04-1.22700E-13
 -1      3695 1.07468E-03-2.04945E-05-1.40469E-15
 -1      3696 7.53353E-03-5.91948E-05-2.99356E-14
 -1      3697 7.57119E-03-6.83879E-05-3.03083E-14
 -1      3698 2.67314E-03-6.23037E-05-8.21097E-15
 -1      3699 7.51386E-03-3.98860E-05-3.02155E-14
 -1      3700 7.56911E-03-8.70766E-05-3.00153E-14
 -1      3701 7.53860E-03-9.51090E-05-2.96064E-14
 -1      3702 7.54207E-03-1.06738E-04-3.01116E-14
 -1      3703 1.38257E-02-2.04826E-04-1.22543E-13
 -1      3704 1.38205E-02-1.62883E-04-1.22305E-13
 -1      3705 1.37046E-02-2.21211E-04-1.20615E-13
 -1      3706 1.40767E-03-1.58907E-04-2.12902E-15
 -1      3707 1.26391E-03 1.82547E-04-1.44233E-15
 -1      3708 1.24599E-03 1.52896E-04-1.48318E-15
 -1      3709 1.37012E-02-1.44109E-04-1.20285E-13
 -1      3710 1.38223E-02-1.27695E-04-1.22209E-13
 -1      3711 1.38242E-02-9.25036E-05-1.22108E-13
 -1      3712 2.82188E-03-1.82059E-04-7.91268E-15
 -1      3713 2.83805E-03-1.37780E-04-8.41910E-15
 -1      3714 2.71181E-03-1.16116E-04-7.87093E-15
 -1      3715 2.68952E-03-1.75461E-04-7.23298E-15
 -1      3716 2.25974E-03 2.19184E-04-4.30648E-15
 -1      3717 1.38821E-02-5.14378E-04-1.24462E-13
 -1      3718 4.31901E-03-7.92619E-04-1.35623E-14
 -1      3719 1.38327E-02-8.64575E-06-1.21921E-13
 -1      3720 1.15696E-03-6.99453E-05-1.59101E-15
 -1      3721 1.23048E-03-7.94483E-05-1.76936E-15
 -1      3722 1.14961E-03-4.83999E-05-1.58364E-15
 -1      3723 1.38524E-02-4.14709E-04-1.23674E-13
 -1      3724 1.37259E-02-3.88908E-04-1.21515E-13
 -1      3725 1.38578E-02-4.56652E-04-1.23888E-13
 -1      3726 6.83954E-03 3.30396E-04-2.75084E-14
 -1      3727 6.66346E-03 3.79236E-04-2.61679E-14
 -1      3728 6.98643E-03 2.50367E-04-2.83634E-14
 -1      3729 6.72393E-03 2.90412E-04-2.61157E-14
 -1      3730 6.83162E-03 2.46551E-04-2.67829E-14
 -1      3731 1.90222E-03-1.52251E-04-3.77151E-15
 -1      3732 2.03388E-03-1.55278E-04-4.27344E-15
 -1      3733 2.16464E-03-1.58105E-04-4.80491E-15
 -1      3734 2.29501E-03-1.60870E-04-5.36685E-15
 -1      3735 2.07147E-03-1.28808E-04-4.52698E-15
 -1      3736 2.42463E-03-1.63819E-04-5.95831E-15
 -1      3737 2.55454E-03-1.67412E-04-6.57916E-15
 -1      3738 2.32349E-03-1.32222E-04-5.64587E-15
 -1      3739 2.29501E-03 1.85798E-04-4.63173E-15
 -1      3740 2.15675E-03 1.82319E-04-4.12281E-15
 -1      3741 7.50017E-03-2.47962E-04-3.31945E-14
 -1      3742 7.63215E-03-2.47767E-04-3.46854E-14
 -1      3743 2.86343E-03 2.10790E-04-6.95930E-15
 -1      3744 2.71742E-03 2.01387E-04-6.33380E-15
 -1      3745 3.06148E-03 2.22762E-04-7.86276E-15
 -1      3746 7.76216E-03-2.49380E-04-3.62011E-14
 -1      3747 7.89210E-03-2.52641E-04-3.77445E-14
 -1      3748 7.73844E-03-2.14024E-04-3.53240E-14
 -1      3749 8.02154E-03-2.57223E-04-3.93126E-14
 -1      3750 8.15158E-03-2.62765E-04-4.09085E-14
 -1      3751 7.98554E-03-2.23803E-04-3.84040E-14
 -1      3752 8.28194E-03-2.69103E-04-4.25318E-14
 -1      3753 8.41317E-03-2.76138E-04-4.41797E-14
 -1      3754 8.23680E-03-2.36283E-04-4.15915E-14
 -1      3755 8.54507E-03-2.83677E-04-4.58538E-14
 -1      3756 8.67791E-03-2.91695E-04-4.75516E-14
 -1      3757 8.49297E-03-2.50605E-04-4.48832E-14
 -1      3758 8.81153E-03-3.00004E-04-4.92753E-14
 -1      3759 8.94606E-03-3.08608E-04-5.10226E-14
 -1      3760 8.75401E-03-2.66232E-04-4.82742E-14
 -1      3761 9.08136E-03-3.17338E-04-5.27947E-14
 -1      3762 9.21748E-03-3.26205E-04-5.45936E-14
 -1      3763 9.01956E-03-2.82680E-04-5.17656E-14
 -1      3764 9.35429E-03-3.35070E-04-5.64150E-14
 -1      3765 9.49181E-03-3.43947E-04-5.82592E-14
 -1      3766 9.28910E-03-2.99503E-04-5.53534E-14
 -1      3767 9.62993E-03-3.52731E-04-6.01297E-14
 -1      3768 9.76864E-03-3.61436E-04-6.20223E-14
 -1      3769 9.56204E-03-3.16317E-04-5.90396E-14
 -1      3770 9.90786E-03-3.69987E-04-6.39348E-14
 -1      3771 1.00476E-02-3.78402E-04-6.58682E-14
 -1      3772 9.83785E-03-3.32831E-04-6.28180E-14
 -1      3773 1.01877E-02-3.86631E-04-6.78255E-14
 -1      3774 1.03282E-02-3.94694E-04-6.98026E-14
 -1      3775 1.01160E-02-3.48850E-04-6.66833E-14
 -1      3776 1.04690E-02-4.02560E-04-7.17974E-14
 -1      3777 1.06101E-02-4.10249E-04-7.38125E-14
 -1      3778 1.03961E-02-3.64268E-04-7.06322E-14
 -1      3779 1.07515E-02-4.17745E-04-7.58464E-14
 -1      3780 1.08932E-02-4.25067E-04-7.78982E-14
 -1      3781 1.06776E-02-3.79046E-04-7.46584E-14
 -1      3782 1.10350E-02-4.32210E-04-7.99674E-14
 -1      3783 1.11770E-02-4.39191E-04-8.20520E-14
 -1      3784 1.09603E-02-3.93193E-04-7.87590E-14
 -1      3785 1.13191E-02-4.46011E-04-8.41542E-14
 -1      3786 1.14614E-02-4.52688E-04-8.62737E-14
 -1      3787 1.12439E-02-4.06752E-04-8.29288E-14
 -1      3788 1.16038E-02-4.59226E-04-8.84084E-14
 -1      3789 1.17463E-02-4.65639E-04-9.05598E-14
 -1      3790 1.15282E-02-4.19784E-04-8.71648E-14
 -1      3791 1.18888E-02-4.71936E-04-9.27240E-14
 -1      3792 1.20314E-02-4.78128E-04-9.49043E-14
 -1      3793 1.18130E-02-4.32361E-04-9.14629E-14
 -1      3794 1.21741E-02-4.84224E-04-9.71006E-14
 -1      3795 1.23168E-02-4.90234E-04-9.93137E-14
 -1      3796 1.20981E-02-4.44553E-04-9.58240E-14
 -1      3797 1.24596E-02-4.96167E-04-1.01543E-13
 -1      3798 1.26024E-02-5.02031E-04-1.03788E-13
 -1      3799 1.23835E-02-4.56428E-04-1.00249E-13
 -1      3800 1.27452E-02-5.07834E-04-1.06050E-13
 -1      3801 1.28881E-02-5.13584E-04-1.08326E-13
 -1      3802 1.26690E-02-4.68050E-04-1.04738E-13
 -1      3803 1.30309E-02-5.19287E-04-1.10620E-13
 -1      3804 1.31738E-02-5.24948E-04-1.12930E-13
 -1      3805 1.29547E-02-4.79471E-04-1.09292E-13
 -1      3806 1.33167E-02-5.30576E-04-1.15253E-13
 -1      3807 1.34595E-02-5.36173E-04-1.17593E-13
 -1      3808 1.32404E-02-4.90739E-04-1.13909E-13
 -1      3809 8.81317E-03 8.71257E-05-4.79718E-14
 -1      3810 8.67640E-03 8.89896E-05-4.62656E-14
 -1      3811 8.54005E-03 9.11630E-05-4.45840E-14
 -1      3812 8.40387E-03 9.37376E-05-4.29282E-14
 -1      3813 8.62880E-03 5.85355E-05-4.56180E-14
 -1      3814 8.26790E-03 9.68617E-05-4.12988E-14
 -1      3815 8.13173E-03 1.00718E-04-3.96946E-14
 -1      3816 8.36151E-03 6.31650E-05-4.23011E-14
 -1      3817 9.08792E-03 8.38635E-05-5.14576E-14
 -1      3818 8.95030E-03 8.54310E-05-4.97031E-14
 -1      3819 8.89845E-03 5.46958E-05-4.90353E-14
 -1      3820 9.36449E-03 8.07364E-05-5.50417E-14
 -1      3821 9.22596E-03 8.23033E-05-5.32373E-14
 -1      3822 9.17066E-03 5.10930E-05-5.25499E-14
 -1      3823 9.64283E-03 7.73000E-05-5.87207E-14
 -1      3824 9.50343E-03 7.90682E-05-5.68699E-14
 -1      3825 9.44536E-03 4.73194E-05-5.61622E-14
 -1      3826 9.92275E-03 7.32646E-05-6.24874E-14
 -1      3827 9.78259E-03 7.53622E-05-6.05928E-14
 -1      3828 9.72232E-03 4.30896E-05-5.98677E-14
 -1      3829 1.02040E-02 6.84665E-05-6.63402E-14
 -1      3830 1.00632E-02 7.09609E-05-6.44029E-14
 -1      3831 1.00012E-02 3.82184E-05-6.36591E-14
 -1      3832 1.04864E-02 6.28412E-05-7.02820E-14
 -1      3833 1.03451E-02 6.57538E-05-6.82994E-14
 -1      3834 1.02817E-02 3.26102E-05-6.75372E-14
 -1      3835 1.07697E-02 5.63937E-05-7.43130E-14
 -1      3836 1.06280E-02 5.97150E-05-7.22865E-14
 -1      3837 1.05636E-02 2.62424E-05-7.15052E-14
 -1      3838 1.10537E-02 4.91725E-05-7.84293E-14
 -1      3839 1.09116E-02 5.28735E-05-7.63617E-14
 -1      3840 1.08465E-02 1.91402E-05-7.55618E-14
 -1      3841 1.13383E-02 4.12533E-05-8.26311E-14
 -1      3842 1.11959E-02 4.52935E-05-8.05195E-14
 -1      3843 1.11302E-02 1.13587E-05-7.97035E-14
 -1      3844 1.16232E-02 3.27250E-05-8.68991E-14
 -1      3845 1.14807E-02 3.70589E-05-8.47558E-14
 -1      3846 1.14146E-02 2.97229E-06-8.39195E-14
 -1      3847 1.19084E-02 2.36796E-05-9.12405E-14
 -1      3848 1.17658E-02 2.82610E-05-8.90609E-14
 -1      3849 1.16994E-02-5.93692E-06-8.82061E-14
 -1      3850 1.21939E-02 1.42054E-05-9.56510E-14
 -1      3851 1.20511E-02 1.89908E-05-9.34388E-14
 -1      3852 1.19845E-02-1.52866E-05-9.25627E-14
 -1      3853 1.24794E-02 4.38367E-06-1.00124E-13
 -1      3854 1.23366E-02 9.33340E-06-9.78783E-14
 -1      3855 1.22699E-02-2.49991E-05-9.69855E-14
 -1      3856 1.27651E-02-5.71363E-06-1.04666E-13
 -1      3857 1.26222E-02-6.34407E-07-1.02388E-13
 -1      3858 1.25554E-02-3.50040E-05-1.01476E-13
 -1      3859 1.30508E-02-1.60242E-05-1.09262E-13
 -1      3860 1.29079E-02-1.08455E-05-1.06956E-13
 -1      3861 1.28411E-02-4.52394E-05-1.06028E-13
 -1      3862 1.33366E-02-2.64950E-05-1.13909E-13
 -1      3863 1.31937E-02-2.12423E-05-1.11580E-13
 -1      3864 1.31268E-02-5.56519E-05-1.10638E-13
 -1      3865 2.78004E-03 1.12961E-04-7.35330E-15
 -1      3866 2.92214E-03 1.65423E-04-7.60839E-15
 -1      3867 7.99529E-03 1.05436E-04-3.81157E-14
 -1      3868 7.85797E-03 1.11430E-04-3.65637E-14
 -1      3869 8.09580E-03 6.92595E-05-3.90879E-14
 -1      3870 6.63955E-03 3.46084E-04-2.57378E-14
 -1      3871 7.24798E-03 4.42530E-05-2.86333E-14
 -1      3872 7.37564E-03 1.18073E-05-2.95608E-14
 -1      3873 7.21207E-03 8.21897E-05-2.88653E-14
 -1      3874 6.48332E-03 4.44036E-04-2.49245E-14
 -1      3875 1.41259E-03-1.34558E-04-2.19081E-15
 -1      3876 1.16397E-03-9.35707E-06-1.61251E-15
 -1      3877 1.16607E-03-3.00582E-05-1.62565E-15
 -1      3878 1.23694E-03-3.77119E-05-1.80662E-15
 -1      3879 1.27475E-03 6.71801E-07-1.88867E-15
 -1      3880 6.96064E-03 2.29245E-04-2.79180E-14
 -1      3881 6.97892E-03 1.87335E-04-2.76943E-14
 -1      3882 7.08193E-03 1.53563E-04-2.83966E-14
 -1      3883 7.12283E-03 1.98872E-04-2.93010E-14
 -1      3884 2.61805E-03-7.31392E-05-7.69355E-15
 -1      3885 2.59099E-03-4.91553E-05-7.71171E-15
 -1      3886 1.32362E-03 2.20263E-04-1.47088E-15
 -1      3887 1.43534E-03 2.13154E-04-1.76057E-15
 -1      3888 1.63701E-03-1.44526E-04-2.85977E-15
 -1      3889 1.77001E-03-1.48694E-04-3.30008E-15
 -1      3890 1.81442E-03-1.24181E-04-3.52698E-15
 -1      3891 1.22986E-03 1.25233E-04-1.51969E-15
 -1      3892 1.21592E-03 9.93764E-05-1.55256E-15
 -1      3893 1.32404E-03 9.13464E-05-1.84386E-15
 -1      3894 1.38173E-02-3.93457E-05-1.21789E-13
 -1      3895 7.64812E-03-6.99911E-05-3.16395E-14
 -1      3896 7.60996E-03-7.95129E-05-3.08249E-14
 -1      3897 7.63883E-03-8.95535E-05-3.13420E-14
 -1      3898 7.49103E-03-1.74145E-05-3.04583E-14
 -1      3899 7.59035E-03-3.87879E-05-3.13648E-14
 -1      3900 7.46666E-03 9.57385E-06-3.06986E-14
 -1      3901 2.59419E-03-2.61872E-05-7.76695E-15
 -1      3902 2.63542E-03-1.01737E-05-7.93135E-15
 -1      3903 2.60090E-03 9.47697E-06-7.47540E-15
 -1      3904 7.26007E-03-2.51286E-04-3.05401E-14
 -1      3905 1.37556E-02-4.88539E-04-1.22301E-13
 -1      3906 2.57475E-03 1.94789E-04-5.73761E-15
 -1      3907 2.43405E-03 1.89681E-04-5.17026E-15
 -1      3908 2.59892E-03 1.57358E-04-6.10616E-15
 -1      3909 1.35550E-03 1.45745E-04-1.77022E-15
 -1      3910 2.01917E-03 1.78994E-04-3.64410E-15
 -1      3911 1.88175E-03 1.75421E-04-3.19445E-15
 -1      3912 2.05887E-03 1.48934E-04-3.93854E-15
 -1      3913 1.36961E-02-5.57906E-05-1.19871E-13
 -1      3914 1.34605E-03-9.60660E-05-2.06321E-15
 -1      3915 1.51539E-03-1.25910E-04-2.51349E-15
 -1      3916 1.56555E-03-1.03988E-04-2.71178E-15
 -1      3917 1.33445E-03-7.18286E-05-2.05642E-15
 -1      3918 7.39759E-03-2.03387E-04-3.11495E-14
 -1      3919 1.48564E-03 1.88348E-04-1.97075E-15
 -1      3920 2.60208E-03-9.62060E-05-7.38571E-15
 -1      3921 2.57524E-03-1.38776E-04-6.88608E-15
 -1      3922 2.32770E-03 1.52450E-04-4.96390E-15
 -1      3923 1.46429E-03 1.56847E-04-2.01901E-15
 -1      3924 1.44516E-03 1.27274E-04-2.06263E-15
 -1      3925 1.57404E-03 1.67692E-04-2.28387E-15
 -1      3926 1.36579E-02-5.61159E-04-1.20905E-13
 -1      3927 1.69227E-03 1.69016E-04-2.62381E-15
 -1      3928 7.27783E-03 1.76401E-04-3.07127E-14
 -1      3929 7.25355E-03 1.54654E-04-3.02501E-14
 -1      3930 7.42767E-03 1.58904E-04-3.21526E-14
 -1      3931 1.41941E-03 5.65169E-05-2.19321E-15
 -1      3932 1.41111E-03 3.24963E-05-2.22177E-15
 -1      3933 1.51758E-03 2.05507E-05-2.56418E-15
 -1      3934 1.40562E-03 8.91599E-06-2.24452E-15
 -1      3935 2.69517E-03 7.04230E-05-7.32611E-15
 -1      3936 2.65505E-03 1.15880E-04-6.70181E-15
 -1      3937 1.36223E-02-3.70810E-05-1.18596E-13
 -1      3938 1.34794E-02-3.17759E-05-1.16248E-13
 -1      3939 1.35816E-02-5.21299E-04-1.19542E-13
 -1      3940 1.35942E-02-3.21303E-04-1.19146E-13
 -1      3941 1.35888E-02-2.79399E-04-1.18922E-13
 -1      3942 7.82982E-03 7.79599E-05-3.59810E-14
 -1      3943 7.71953E-03 1.18853E-04-3.50396E-14
 -1      3944 7.57895E-03 1.28540E-04-3.35434E-14
 -1      3945 1.73863E-03 1.42521E-04-2.87289E-15
 -1      3946 7.60216E-03-1.10622E-04-3.11577E-14
 -1      3947 7.54539E-03-1.22509E-04-3.07380E-14
 -1      3948 1.38423E-03-1.14433E-05-2.20382E-15
 -1      3949 7.67415E-03-3.69238E-05-3.26258E-14
 -1      3950 7.67935E-03-5.56370E-05-3.23737E-14
 -1      3951 1.35835E-02-2.37493E-04-1.18696E-13
 -1      3952 1.35783E-02-1.95586E-04-1.18463E-13
 -1      3953 1.34625E-02-2.53759E-04-1.16778E-13
 -1      3954 1.35801E-02-1.60427E-04-1.18368E-13
 -1      3955 1.35819E-02-1.25264E-04-1.18271E-13
 -1      3956 1.34590E-02-1.76735E-04-1.16455E-13
 -1      3957 2.62980E-03 5.47050E-05-7.14558E-15
 -1      3958 7.50790E-03-1.41120E-04-3.08564E-14
 -1      3959 7.72553E-03-6.86733E-05-3.29058E-14
 -1      3960 2.52433E-03-3.40167E-05-7.26922E-15
 -1      3961 1.36049E-02-4.05116E-04-1.19585E-13
 -1      3962 1.35995E-02-3.63209E-04-1.19367E-13
 -1      3963 1.34731E-02-3.37525E-04-1.17225E-13
 -1      3964 1.35573E-02-4.63617E-04-1.18981E-13
 -1      3965 1.34126E-02-6.61963E-05-1.15295E-13
 -1      3966 1.36293E-02-9.02134E-05-1.18912E-13
 -1      3967 1.43722E-03 1.03940E-04-2.11292E-15
 -1      3968 1.42293E-03 7.75776E-05-2.14860E-15
 -1      3969 1.52909E-03 6.66614E-05-2.48940E-15
 -1      3970 1.54268E-03 1.12214E-04-2.38737E-15
 -1      3971 2.23137E-03-1.04838E-04-5.33861E-15
 -1      3972 2.35140E-03-1.05550E-04-5.92530E-15
 -1      3973 1.63087E-03 3.28080E-05-2.90315E-15
 -1      3974 1.62404E-03 7.83081E-06-2.93190E-15
 -1      3975 7.71788E-03-1.81236E-04-3.44499E-14
 -1      3976 7.83357E-03-1.86816E-04-3.59608E-14
 -1      3977 7.95090E-03-1.92576E-04-3.74993E-14
 -1      3978 8.07071E-03-1.98851E-04-3.90638E-14
 -1      3979 7.91702E-03-1.63636E-04-3.65967E-14
 -1      3980 8.19226E-03-2.05268E-04-4.06548E-14
 -1      3981 8.31590E-03-2.12119E-04-4.22729E-14
 -1      3982 8.14775E-03-1.76109E-04-3.97223E-14
 -1      3983 8.44115E-03-2.19107E-04-4.39156E-14
 -1      3984 8.56819E-03-2.26426E-04-4.55838E-14
 -1      3985 8.38915E-03-1.89207E-04-4.29513E-14
 -1      3986 8.69669E-03-2.33855E-04-4.72777E-14
 -1      3987 8.82668E-03-2.41529E-04-4.89957E-14
 -1      3988 8.63916E-03-2.02883E-04-4.62841E-14
 -1      3989 8.95795E-03-2.49263E-04-5.07388E-14
 -1      3990 9.09049E-03-2.57146E-04-5.25060E-14
 -1      3991 8.89621E-03-2.17089E-04-4.97160E-14
 -1      3992 9.22411E-03-2.65028E-04-5.42970E-14
 -1      3993 9.35878E-03-2.72968E-04-5.61132E-14
 -1      3994 9.15907E-03-2.31650E-04-5.32454E-14
 -1      3995 9.49437E-03-2.80850E-04-5.79548E-14
 -1      3996 9.63084E-03-2.88718E-04-5.98191E-14
 -1      3997 9.42673E-03-2.46340E-04-5.68726E-14
 -1      3998 9.76806E-03-2.96481E-04-6.17042E-14
 -1      3999 9.90600E-03-3.04177E-04-6.36113E-14
 -1      4000 9.69835E-03-2.60954E-04-6.05938E-14
 -1      4001 1.00446E-02-3.11743E-04-6.55420E-14
 -1      4002 1.01837E-02-3.19207E-04-6.74928E-14
 -1      4003 9.97321E-03-2.75327E-04-6.44040E-14
 -1      4004 1.03233E-02-3.26529E-04-6.94660E-14
 -1      4005 1.04634E-02-3.33733E-04-7.14577E-14
 -1      4006 1.02507E-02-2.89363E-04-6.83009E-14
 -1      4007 1.06039E-02-3.40793E-04-7.34688E-14
 -1      4008 1.07447E-02-3.47731E-04-7.55001E-14
 -1      4009 1.05302E-02-3.03008E-04-7.22814E-14
 -1      4010 1.08858E-02-3.54530E-04-7.75490E-14
 -1      4011 1.10272E-02-3.61212E-04-7.96163E-14
 -1      4012 1.08115E-02-3.16242E-04-7.63398E-14
 -1      4013 1.11689E-02-3.67768E-04-8.17006E-14
 -1      4014 1.13107E-02-3.74216E-04-8.38015E-14
 -1      4015 1.10939E-02-3.29079E-04-8.04726E-14
 -1      4016 1.14528E-02-3.80554E-04-8.59196E-14
 -1      4017 1.15949E-02-3.86796E-04-8.80536E-14
 -1      4018 1.13774E-02-3.41551E-04-8.46744E-14
 -1      4019 1.17372E-02-3.92944E-04-9.02040E-14
 -1      4020 1.18797E-02-3.99010E-04-9.23673E-14
 -1      4021 1.16616E-02-3.53701E-04-8.89424E-14
 -1      4022 1.20222E-02-4.04998E-04-9.45483E-14
 -1      4023 1.21647E-02-4.10918E-04-9.67449E-14
 -1      4024 1.19463E-02-3.65573E-04-9.32720E-14
 -1      4025 1.23074E-02-4.16774E-04-9.89552E-14
 -1      4026 1.24501E-02-4.22575E-04-1.01184E-13
 -1      4027 1.22314E-02-3.77215E-04-9.76637E-14
 -1      4028 1.25929E-02-4.28325E-04-1.03428E-13
 -1      4029 1.27356E-02-4.34030E-04-1.05689E-13
 -1      4030 1.25167E-02-3.88667E-04-1.02120E-13
 -1      4031 1.28785E-02-4.39697E-04-1.07964E-13
 -1      4032 1.30213E-02-4.45328E-04-1.10256E-13
 -1      4033 1.28023E-02-3.99970E-04-1.06639E-13
 -1      4034 1.31641E-02-4.50930E-04-1.12565E-13
 -1      4035 1.33070E-02-4.56507E-04-1.14889E-13
 -1      4036 1.30879E-02-4.11154E-04-1.11222E-13
 -1      4037 9.25145E-03 1.87581E-05-5.36463E-14
 -1      4038 9.11589E-03 2.09113E-05-5.18623E-14
 -1      4039 8.98118E-03 2.30348E-05-5.01027E-14
 -1      4040 8.84726E-03 2.50895E-05-4.83669E-14
 -1      4041 9.06146E-03-8.21878E-06-5.11744E-14
 -1      4042 2.44933E-03-4.28156E-05-6.76432E-15
 -1      4043 2.46125E-03-1.81709E-05-6.81689E-15
 -1      4044 8.45090E-03 3.15224E-05-4.33090E-14
 -1      4045 8.32045E-03 3.38574E-05-4.16744E-14
 -1      4046 2.52537E-03 1.15106E-04-6.08834E-15
 -1      4047 9.52477E-03 1.41230E-05-5.72854E-14
 -1      4048 9.38774E-03 1.64827E-05-5.54530E-14
 -1      4049 9.33041E-03-1.34152E-05-5.47457E-14
 -1      4050 9.80072E-03 8.96522E-06-6.10168E-14
 -1      4051 9.66243E-03 1.16063E-05-5.91405E-14
 -1      4052 9.60280E-03-1.90612E-05-5.84127E-14
 -1      4053 1.00789E-02 3.17592E-06-6.48341E-14
 -1      4054 9.93954E-03 6.14526E-06-6.29149E-14
 -1      4055 9.87810E-03-2.52323E-05-6.21706E-14
 -1      4056 1.03589E-02-3.29005E-06-6.87391E-14
 -1      4057 1.02187E-02 2.10572E-08-6.67757E-14
 -1      4058 1.01558E-02-3.19848E-05-6.60140E-14
 -1      4059 1.06404E-02-1.04237E-05-7.27326E-14
 -1      4060 1.04995E-02-6.77987E-06-7.07245E-14
 -1      4061 1.04355E-02-3.93246E-05-6.99436E-14
 -1      4062 1.09230E-02-1.81900E-05-7.68125E-14
 -1      4063 1.07816E-02-1.42343E-05-7.47630E-14
 -1      4064 1.07168E-02-4.72246E-05-7.39619E-14
 -1      4065 1.12065E-02-2.65319E-05-8.09758E-14
 -1      4066 1.10647E-02-2.22955E-05-7.88853E-14
 -1      4067 1.09993E-02-5.56462E-05-7.80670E-14
 -1      4068 1.14908E-02-3.53803E-05-8.52097E-14
 -1      4069 1.13486E-02-3.08988E-05-8.30848E-14
 -1      4070 1.12827E-02-6.45346E-05-8.22492E-14
 -1      4071 1.17755E-02-4.46623E-05-8.95124E-14
 -1      4072 1.16331E-02-3.99725E-05-8.73526E-14
 -1      4073 1.15669E-02-7.38288E-05-8.65007E-14
 -1      4074 1.20606E-02-5.43071E-05-9.38864E-14
 -1      4075 1.19180E-02-4.94441E-05-9.16903E-14
 -1      4076 1.18516E-02-8.34676E-05-9.08201E-14
 -1      4077 1.23459E-02-6.42488E-05-9.83215E-14
 -1      4078 1.22032E-02-5.92449E-05-9.60961E-14
 -1      4079 1.21366E-02-9.33925E-05-9.52070E-14
 -1      4080 1.26315E-02-7.44284E-05-1.02826E-13
 -1      4081 1.24887E-02-6.93123E-05-1.00564E-13
 -1      4082 1.24220E-02-1.03550E-04-9.96577E-14
 -1      4083 1.29171E-02-8.47943E-05-1.07390E-13
 -1      4084 1.27743E-02-7.95907E-05-1.05101E-13
 -1      4085 1.27075E-02-1.13893E-04-1.04173E-13
 -1      4086 1.32028E-02-9.53023E-05-1.12012E-13
 -1      4087 1.30600E-02-9.00328E-05-1.09697E-13
 -1      4088 1.29932E-02-1.24380E-04-1.08753E-13
 -1      4089 1.35081E-02-1.06556E-04-1.17000E-13
 -1      4090 1.33652E-02-1.01235E-04-1.14657E-13
 -1      4091 1.34308E-02-4.37878E-04-1.16843E-13
 -1      4092 1.33414E-02-2.70005E-04-1.14868E-13
 -1      4093 1.33361E-02-2.28147E-04-1.14642E-13
 -1      4094 7.22215E-03 1.04696E-04-2.93243E-14
 -1      4095 7.35411E-03 6.49787E-05-3.02626E-14
 -1      4096 7.23795E-03 1.27828E-04-2.97833E-14
 -1      4097 7.66671E-03-1.02754E-04-3.19820E-14
 -1      4098 7.68758E-03-1.17288E-04-3.26254E-14
 -1      4099 7.72413E-03-9.49484E-05-3.28135E-14
 -1      4100 1.49425E-03-2.43920E-05-2.54273E-15
 -1      4101 1.36587E-03-3.14878E-05-2.15989E-15
 -1      4102 1.35030E-03-5.16264E-05-2.11319E-15
 -1      4103 1.72578E-03 1.16496E-04-2.93572E-15
 -1      4104 7.66099E-03-8.42640E-06-3.29078E-14
 -1      4105 7.75997E-03-2.85948E-05-3.39406E-14
 -1      4106 2.55264E-03 2.69103E-05-7.00102E-15
 -1      4107 2.50050E-03 4.63950E-05-6.53987E-15
 -1      4108 2.49028E-03 4.97279E-06-6.85189E-15
 -1      4109 1.73201E-03-9.82785E-05-3.28773E-15
 -1      4110 1.85941E-03-1.00426E-04-3.75588E-15
 -1      4111 2.35809E-03 1.19967E-04-5.30279E-15
 -1      4112 2.22785E-03 1.19906E-04-4.75669E-15
 -1      4113 7.81758E-03-6.95951E-05-3.43158E-14
 -1      4114 7.77301E-03-8.30802E-05-3.35619E-14
 -1      4115 7.81324E-03-9.72250E-05-3.42220E-14
 -1      4116 2.48704E-03-9.37727E-05-6.72953E-15
 -1      4117 8.19097E-03 3.64235E-05-4.00652E-14
 -1      4118 8.06202E-03 3.91388E-05-3.84823E-14
 -1      4119 8.28043E-03 5.84810E-06-4.10472E-14
 -1      4120 8.71427E-03 2.71864E-05-4.66561E-14
 -1      4121 8.58209E-03 2.92882E-05-4.49698E-14
 -1      4122 8.79650E-03-3.36433E-06-4.76990E-14
 -1      4123 7.45835E-03 3.93443E-05-3.11171E-14
 -1      4124 7.57270E-03 8.77899E-06-3.20369E-14
 -1      4125 7.66510E-03 1.73755E-05-3.33387E-14
 -1      4126 7.47317E-03 5.98206E-05-3.15914E-14
 -1      4127 1.98521E-03-1.02297E-04-4.25407E-15
 -1      4128 2.10942E-03-1.03646E-04-4.78168E-15
 -1      4129 2.14834E-03-7.98192E-05-5.03749E-15
 -1      4130 1.90554E-03-7.74915E-05-3.98637E-15
 -1      4131 2.09754E-03 1.19561E-04-4.23988E-15
 -1      4132 1.96644E-03 1.18844E-04-3.75259E-15
 -1      4133 2.13536E-03 9.09437E-05-4.54857E-15
 -1      4134 2.42276E-03 8.33364E-05-5.85374E-15
 -1      4135 2.40223E-03-6.94843E-05-6.38670E-15
 -1      4136 7.86135E-03-2.45214E-05-3.53698E-14
 -1      4137 7.85915E-03-5.02638E-05-3.50771E-14
 -1      4138 1.63349E-03 5.42161E-05-2.85450E-15
 -1      4139 1.73678E-03 4.10559E-05-3.24369E-15
 -1      4140 1.63906E-03 7.65756E-05-2.80242E-15
 -1      4141 1.73020E-03-5.36736E-06-3.32331E-15
 -1      4142 1.62215E-03-1.65652E-05-2.95556E-15
 -1      4143 7.38288E-03 1.12534E-04-3.12058E-14
 -1      4144 7.58497E-03-1.50621E-04-3.20913E-14
 -1      4145 7.46416E-03-1.71071E-04-3.11470E-14
 -1      4146 1.33546E-02-3.98080E-04-1.15487E-13
 -1      4147 2.39808E-03-3.65257E-06-6.36760E-15
 -1      4148 1.46229E-03-6.61657E-05-2.43519E-15
 -1      4149 2.31721E-03-5.22556E-05-5.96791E-15
 -1      4150 7.55225E-03 1.08550E-04-3.30621E-14
 -1      4151 8.53601E-03 1.28167E-06-4.43221E-14
 -1      4152 1.32984E-02-1.35616E-04-1.13705E-13
 -1      4153 7.91464E-03-6.67603E-05-3.57542E-14
 -1      4154 1.33467E-02-3.11863E-04-1.15093E-13
 -1      4155 1.32203E-02-2.86225E-04-1.12968E-13
 -1      4156 1.33520E-02-3.53721E-04-1.15312E-13
 -1      4157 1.60514E-03-3.79593E-05-2.90633E-15
 -1      4158 2.34976E-03 5.47383E-05-5.72579E-15
 -1      4159 1.61652E-03-8.24754E-05-2.91331E-15
 -1      4160 1.32966E-02-1.70736E-04-1.13801E-13
 -1      4161 1.31755E-02-1.87027E-04-1.11907E-13
 -1      4162 7.94961E-03 4.15890E-06-3.67990E-14
 -1      4163 7.85154E-03 3.60503E-05-3.58606E-14
 -1      4164 7.78380E-03-1.31768E-04-3.42693E-14
 -1      4165 7.70462E-03-1.41619E-04-3.34181E-14
 -1      4166 1.82789E-03 1.02643E-04-3.33460E-15
 -1      4167 1.87366E-03 7.70450E-05-3.60505E-15
 -1      4168 7.72486E-03 4.00786E-05-3.43493E-14
 -1      4169 1.86463E-03 5.36255E-05-3.66573E-15
 -1      4170 1.85937E-03 3.12651E-05-3.72284E-15
 -1      4171 1.99461E-03 6.66209E-05-4.10984E-15
 -1      4172 1.85049E-03 5.74216E-06-3.75736E-15
 -1      4173 1.84810E-03-1.93023E-05-3.78648E-15
 -1      4174 1.97128E-03 1.68069E-05-4.21451E-15
 -1      4175 7.48849E-03 8.44847E-05-3.20736E-14
 -1      4176 7.68280E-03-1.66652E-04-3.37204E-14
 -1      4177 1.32282E-02-3.72381E-04-1.13366E-13
 -1      4178 8.10147E-03-1.48954E-04-3.87933E-14
 -1      4179 8.21722E-03-1.54967E-04-4.03792E-14
 -1      4180 8.33576E-03-1.60910E-04-4.19914E-14
 -1      4181 8.45704E-03-1.67113E-04-4.36301E-14
 -1      4182 8.28021E-03-1.34235E-04-4.10355E-14
 -1      4183 8.58057E-03-1.73264E-04-4.52932E-14
 -1      4184 8.70624E-03-1.79675E-04-4.69830E-14
 -1      4185 8.52037E-03-1.44990E-04-4.43066E-14
 -1      4186 8.83371E-03-1.86098E-04-4.86960E-14
 -1      4187 8.96288E-03-1.92707E-04-5.04336E-14
 -1      4188 8.77003E-03-1.56273E-04-4.76787E-14
 -1      4189 9.09351E-03-1.99321E-04-5.21969E-14
 -1      4190 9.22553E-03-2.06049E-04-5.39828E-14
 -1      4191 9.02712E-03-1.68025E-04-5.11503E-14
 -1      4192 9.35875E-03-2.12756E-04-5.57953E-14
 -1      4193 9.49309E-03-2.19516E-04-5.76318E-14
 -1      4194 9.29020E-03-1.80089E-04-5.47216E-14
 -1      4195 9.62843E-03-2.26230E-04-5.94875E-14
 -1      4196 9.76469E-03-2.32954E-04-6.13666E-14
 -1      4197 9.55813E-03-1.92311E-04-5.83850E-14
 -1      4198 9.90176E-03-2.39600E-04-6.32703E-14
 -1      4199 1.00396E-02-2.46230E-04-6.51948E-14
 -1      4200 9.83007E-03-2.04552E-04-6.21400E-14
 -1      4201 1.01780E-02-2.52780E-04-6.71419E-14
 -1      4202 1.03171E-02-2.59280E-04-6.91094E-14
 -1      4203 1.01052E-02-2.16782E-04-6.59857E-14
 -1      4204 1.04566E-02-2.65702E-04-7.10974E-14
 -1      4205 1.05967E-02-2.72066E-04-7.31053E-14
 -1      4206 1.03830E-02-2.28890E-04-6.99155E-14
 -1      4207 1.07371E-02-2.78343E-04-7.51328E-14
 -1      4208 1.08779E-02-2.84560E-04-7.71812E-14
 -1      4209 1.06627E-02-2.40845E-04-7.39273E-14
 -1      4210 1.10190E-02-2.90699E-04-7.92469E-14
 -1      4211 1.11604E-02-2.96780E-04-8.13298E-14
 -1      4212 1.09441E-02-2.52642E-04-7.80215E-14
 -1      4213 1.13021E-02-3.02791E-04-8.34282E-14
 -1      4214 1.14439E-02-3.08747E-04-8.55458E-14
 -1      4215 1.12268E-02-2.64285E-04-8.21860E-14
 -1      4216 1.15860E-02-3.14644E-04-8.76811E-14
 -1      4217 1.17281E-02-3.20492E-04-8.98307E-14
 -1      4218 1.15104E-02-2.75785E-04-8.64178E-14
 -1      4219 1.18705E-02-3.26290E-04-9.19951E-14
 -1      4220 1.20129E-02-3.32046E-04-9.41761E-14
 -1      4221 1.17947E-02-2.87156E-04-9.07186E-14
 -1      4222 1.21554E-02-3.37760E-04-9.63715E-14
 -1      4223 1.22980E-02-3.43440E-04-9.85823E-14
 -1      4224 1.20795E-02-2.98418E-04-9.50790E-14
 -1      4225 1.24407E-02-3.49087E-04-1.00811E-13
 -1      4226 1.25834E-02-3.54705E-04-1.03056E-13
 -1      4227 1.23646E-02-3.09589E-04-9.95036E-14
 -1      4228 1.27261E-02-3.60297E-04-1.05315E-13
 -1      4229 1.28689E-02-3.65867E-04-1.07590E-13
 -1      4230 1.26500E-02-3.20684E-04-1.03992E-13
 -1      4231 1.29771E-02-3.66373E-04-1.09315E-13
 -1      4232 1.31200E-02-3.71905E-04-1.11621E-13
 -1      4233 1.31174E-02-3.27609E-04-1.11444E-13
 -1      4234 1.29010E-02-3.26689E-04-1.07979E-13
 -1      4235 9.67955E-03-5.23259E-05-5.95437E-14
 -1      4236 9.54315E-03-4.89023E-05-5.76843E-14
 -1      4237 2.11869E-03 6.52257E-05-4.62107E-15
 -1      4238 9.95455E-03-5.95715E-05-6.33264E-14
 -1      4239 9.81669E-03-5.58958E-05-6.14245E-14
 -1      4240 9.75518E-03-8.58354E-05-6.06772E-14
 -1      4241 1.02321E-02-6.73120E-05-6.71958E-14
 -1      4242 1.00930E-02-6.33854E-05-6.52503E-14
 -1      4243 1.00302E-02-9.41824E-05-6.44863E-14
 -1      4244 1.05117E-02-7.55290E-05-7.11518E-14
 -1      4245 1.03716E-02-7.13692E-05-6.91629E-14
 -1      4246 1.03078E-02-1.02895E-04-6.83806E-14
 -1      4247 1.07928E-02-8.41875E-05-7.51961E-14
 -1      4248 1.06521E-02-7.98084E-05-7.31630E-14
 -1      4249 1.05874E-02-1.11969E-04-7.23630E-14
 -1      4250 1.10753E-02-9.32483E-05-7.93199E-14
 -1      4251 1.09339E-02-8.86725E-05-7.72469E-14
 -1      4252 1.08686E-02-1.21359E-04-7.64299E-14
 -1      4253 1.13587E-02-1.02663E-04-8.35207E-14
 -1      4254 1.12169E-02-9.79158E-05-8.14122E-14
 -1      4255 1.11512E-02-1.31029E-04-8.05744E-14
 -1      4256 1.16429E-02-1.12383E-04-8.77898E-14
 -1      4257 1.15007E-02-1.07489E-04-8.56483E-14
 -1      4258 1.14347E-02-1.40941E-04-8.47945E-14
 -1      4259 1.19276E-02-1.22360E-04-9.21252E-14
 -1      4260 1.17852E-02-1.17343E-04-8.99483E-14
 -1      4261 1.17189E-02-1.51059E-04-8.90798E-14
 -1      4262 1.22127E-02-1.32547E-04-9.65262E-14
 -1      4263 1.20701E-02-1.27430E-04-9.43181E-14
 -1      4264 1.20036E-02-1.61348E-04-9.34296E-14
 -1      4265 1.24980E-02-1.42906E-04-1.00993E-13
 -1      4266 1.23553E-02-1.37707E-04-9.87513E-14
 -1      4267 1.22887E-02-1.71778E-04-9.78448E-14
 -1      4268 1.27836E-02-1.53400E-04-1.05523E-13
 -1      4269 1.26408E-02-1.48138E-04-1.03250E-13
 -1      4270 1.25741E-02-1.82319E-04-1.02328E-13
 -1      4271 1.30509E-02-1.72842E-04-1.09857E-13
 -1      4272 1.29081E-02-1.67524E-04-1.07555E-13
 -1      4273 1.28414E-02-2.01774E-04-1.06615E-13
 -1      4274 1.30904E-02-2.30165E-04-1.10690E-13
 -1      4275 2.29659E-03-1.04146E-05-5.83572E-15
 -1      4276 2.32460E-03 1.41113E-05-5.86917E-15
 -1      4277 7.49113E-03-1.86337E-04-3.18534E-14
 -1      4278 8.61704E-03-2.79101E-05-4.53383E-14
 -1      4279 8.48986E-03-2.53632E-05-4.36734E-14
 -1      4280 8.05518E-03-2.02469E-05-3.79788E-14
 -1      4281 1.62901E-03-6.03032E-05-2.97912E-15
 -1      4282 7.85354E-03-1.16444E-04-3.49982E-14
 -1      4283 7.88686E-03-1.40277E-04-3.58162E-14
 -1      4284 7.99568E-03-1.46283E-04-3.73520E-14
 -1      4285 7.91510E-03-1.04071E-04-3.57701E-14
 -1      4286 1.75360E-03-5.26437E-05-3.42766E-15
 -1      4287 1.86083E-03-3.65077E-05-3.84562E-15
 -1      4288 1.88528E-03-5.93913E-05-3.93189E-15
 -1      4289 2.00660E-03-6.06257E-05-4.43862E-15
 -1      4290 1.97504E-03-2.56611E-05-4.31456E-15
 -1      4291 8.36445E-03-2.28498E-05-4.20332E-14
 -1      4292 8.24062E-03-2.05409E-05-4.04196E-14
 -1      4293 8.44319E-03-5.05669E-05-4.30246E-14
 -1      4294 8.87566E-03-3.33723E-05-4.87462E-14
 -1      4295 8.74561E-03-3.06120E-05-4.70289E-14
 -1      4296 8.69425E-03-5.66281E-05-4.63590E-14
 -1      4297 7.63094E-03 6.06567E-05-3.34583E-14
 -1      4298 2.23108E-03 4.55293E-05-5.22730E-15
 -1      4299 9.40764E-03-4.55574E-05-5.58495E-14
 -1      4300 9.27303E-03-4.23576E-05-5.40384E-14
 -1      4301 9.48334E-03-7.78783E-05-5.69563E-14
 -1      4302 8.07302E-03-8.78710E-05-3.79784E-14
 -1      4303 8.01372E-03-1.05793E-04-3.71855E-14
 -1      4304 9.13945E-03-3.92471E-05-5.22487E-14
 -1      4305 9.00694E-03-3.62747E-05-5.04849E-14
 -1      4306 9.21537E-03-7.03384E-05-5.33276E-14
 -1      4307 8.13697E-03-4.67993E-05-3.89284E-14
 -1      4308 2.10241E-03 2.48220E-05-4.74947E-15
 -1      4309 1.31121E-02-2.85810E-04-1.11224E-13
 -1      4310 1.29875E-02-2.71549E-04-1.09181E-13
 -1      4311 8.95203E-03-6.32419E-05-4.97953E-14
 -1      4312 8.24957E-03-9.02127E-05-4.04195E-14
 -1      4313 2.19831E-03-5.40882E-05-5.34176E-15
 -1      4314 2.26234E-03-2.75746E-05-5.68808E-15
 -1      4315 2.17642E-03-1.11935E-05-5.22007E-15
 -1      4316 2.08235E-03-5.32714E-05-4.78742E-15
 -1      4317 9.82986E-03-1.19664E-04-6.18152E-14
 -1      4318 9.69336E-03-1.15064E-04-5.99302E-14
 -1      4319 2.09128E-03-6.88340E-07-4.79005E-15
 -1      4320 8.36768E-03-9.41059E-05-4.20335E-14
 -1      4321 8.05967E-03-1.26602E-04-3.79878E-14
 -1      4322 8.48860E-03-9.79519E-05-4.36725E-14
 -1      4323 8.61180E-03-1.02231E-04-4.53372E-14
 -1      4324 8.73718E-03-1.06471E-04-4.70268E-14
 -1      4325 8.86438E-03-1.11028E-04-4.87418E-14
 -1      4326 8.99332E-03-1.15569E-04-5.04804E-14
 -1      4327 9.12375E-03-1.20338E-04-5.22441E-14
 -1      4328 9.25558E-03-1.25099E-04-5.40322E-14
 -1      4329 9.38864E-03-1.30026E-04-5.58455E-14
 -1      4330 9.73064E-03-1.73700E-04-6.06549E-14
 -1      4331 9.86717E-03-1.79369E-04-6.25487E-14
 -1      4332 1.00321E-02-1.81335E-04-6.48309E-14
 -1      4333 1.01703E-02-1.86947E-04-6.67716E-14
 -1      4334 1.03461E-02-1.65770E-04-6.91526E-14
 -1      4335 1.04856E-02-1.71032E-04-7.11408E-14
 -1      4336 1.06256E-02-1.76295E-04-7.31511E-14
 -1      4337 1.07660E-02-1.81599E-04-7.51825E-14
 -1      4338 1.09068E-02-1.86905E-04-7.72310E-14
 -1      4339 1.10479E-02-1.92240E-04-7.93018E-14
 -1      4340 1.11892E-02-1.97577E-04-8.13893E-14
 -1      4341 1.13308E-02-2.02936E-04-8.34911E-14
 -1      4342 1.14727E-02-2.08298E-04-8.56123E-14
 -1      4343 1.16147E-02-2.13676E-04-8.77524E-14
 -1      4344 1.17568E-02-2.19057E-04-8.99054E-14
 -1      4345 1.18991E-02-2.24449E-04-9.20762E-14
 -1      4346 1.20416E-02-2.29844E-04-9.42629E-14
 -1      4347 1.21841E-02-2.35247E-04-9.64629E-14
 -1      4348 1.23267E-02-2.40653E-04-9.86799E-14
 -1      4349 1.24693E-02-2.46065E-04-1.00917E-13
 -1      4350 1.26120E-02-2.51480E-04-1.03166E-13
 -1      4351 1.27548E-02-2.56898E-04-1.05433E-13
 -1      4352 1.28793E-02-2.71133E-04-1.07455E-13
 -1      4353 1.01327E-02-1.25158E-04-6.60157E-14
 -1      4354 9.99452E-03-1.20480E-04-6.40844E-14
 -1      4355 9.52285E-03-1.34949E-04-5.76789E-14
 -1      4356 2.05369E-03-1.86377E-05-4.65512E-15
 -1      4357 9.65807E-03-1.39976E-04-5.95348E-14
 -1      4358 2.06600E-03-3.58267E-05-4.72250E-15
 -1      4359 9.93111E-03-1.50198E-04-6.33182E-14
 -1      4360 1.02071E-02-1.60572E-04-6.71862E-14
 -1      4361 7.58111E-03-1.94932E-04-3.31019E-14
 -3
    1PSTEP                         2           1           1          
  100CL  101 1.000000000        4361                     0    1           1
 -4  STRESS      6    1
 -5  SXX         1    4    1    1
 -5  SYY         1    4    2    2
 -5  SZZ         1    4    3    3
 -5  SXY         1    4    1    2
 -5  SYZ         1    4    2    3
 -5  SZX         1    4    3    1
 -1         1-8.07044E-01-2.41656E+01-3.36708E+00-1.88436E+00-1.76802E-12-2.22159E-13
 -1         2-6.28954E-01-2.46104E+01-3.35056E+00-2.46706E-03 1.67416E-12-2.39045E-14
 -1         3 2.00000E+01 1.72304E-04-1.65203E-04 1.68137E-04-4.25708E-13-4.73281E-13
 -1         4 1.99999E+01 1.49029E-04-1.84142E-04-1.48334E-04 4.06737E-13-8.59303E-14
 -1         5 3.25152E+01 6.10831E+00 2.62103E+00 6.10293E+00-4.86625E-14 3.20953E-12
 -1         6 3.53324E+01 1.20753E+01 4.91852E+00-8.44514E+00-2.00284E-13 2.68696E-12
 -1         7 2.12454E+01 6.20950E+00-7.38065E-02-4.44446E+00-2.67009E-14 3.12240E-13
 -1         8 2.00984E+01 6.05503E+00 7.70543E-02-2.86452E+00-3.31610E-14-3.64901E-13
 -1         9 1.94526E+01 5.86196E+00 6.08572E-02-2.04318E+00-2.61458E-14-7.14878E-13
 -1        10 1.90289E+01 5.72951E+00 5.07012E-02-1.45552E+00-1.33660E-14-8.67800E-13
 -1        11 1.87076E+01 5.62982E+00 4.02959E-02-1.00532E+00-7.21471E-15-9.30418E-13
 -1        12 1.84658E+01 5.55518E+00 3.12540E-02-6.56649E-01-1.39645E-15-9.41817E-13
 -1        13 1.82969E+01 5.50348E+00 2.45766E-02-3.68677E-01 1.92207E-15-9.29806E-13
 -1        14 1.82125E+01 5.47771E+00 2.12974E-02-1.19810E-01 6.89401E-15-9.00109E-13
 -1        15 1.82165E+01 5.47895E+00 2.16757E-02 1.17657E-01 1.09164E-14-8.56047E-13
 -1        16 1.83079E+01 5.50685E+00 2.56292E-02 3.71161E-01 1.44520E-14-8.09846E-13
 -1        17 1.84808E+01 5.55959E+00 3.27385E-02 6.67760E-01 2.13909E-14-7.41647E-13
 -1        18 1.87224E+01 5.63422E+00 4.19978E-02 1.02681E+00 2.41578E-14-6.39327E-13
 -1        19 1.90406E+01 5.73312E+00 5.21399E-02 1.48979E+00 3.38184E-14-4.70284E-13
 -1        20 1.94568E+01 5.86445E+00 6.08192E-02 2.09000E+00 3.99958E-14-1.92521E-13
 -1        21 2.00880E+01 6.06697E+00 7.16897E-02 2.90972E+00 4.43326E-14 3.06280E-13
 -1        22 2.15604E+01 6.46858E+00 1.68534E-01 4.25442E+00 6.57807E-15 1.24913E-12
 -1        23 2.33222E+01-1.40407E+00-9.54445E-01-6.31381E-01-1.31554E-13 2.01222E-12
 -1        24 2.01378E+01-1.00220E-01-3.02819E-01 7.44527E-02-3.87902E-14 1.39004E-12
 -1        25 1.98486E+01-5.85486E-02-6.82804E-02 6.62288E-02-2.31707E-14 8.20883E-13
 -1        26 2.00672E+01-2.61942E-02-1.17717E-02 4.00185E-02 3.81748E-15 4.57297E-13
 -1        27 2.05683E+01-1.66248E-02-6.42866E-03 3.29649E-02-1.71783E-14 2.04305E-13
 -1        28 2.12598E+01-1.03975E-02-6.49579E-03 3.10873E-02-9.07071E-15 3.92394E-15
 -1        29 2.20805E+01-4.66150E-03-3.72318E-03 3.17178E-02 2.16937E-14-1.20185E-13
 -1        30 2.29607E+01 2.34972E-03 3.97334E-03 3.24130E-02-4.25522E-16-2.66592E-13
 -1        31 2.37953E+01 1.15593E-02 1.81783E-02 2.98638E-02-9.35699E-15-3.85704E-13
 -1        32 2.44228E+01 2.25751E-02 3.91979E-02 1.92401E-02-4.42578E-14-6.35803E-13
 -1        33 2.46242E+01 3.26756E-02 6.28346E-02-5.01119E-03 6.13613E-14-7.71194E-13
 -1        34 2.41678E+01 3.63097E-02 7.71561E-02-4.53712E-02-7.36867E-15-7.29410E-13
 -1        35 2.29290E+01 2.66793E-02 6.32699E-02-9.38987E-02 9.52558E-15-9.89375E-13
 -1        36 2.10664E+01 1.23798E-03 8.94928E-03-1.26793E-01 9.28934E-15-1.12993E-12
 -1        37 1.91316E+01-3.20631E-02-7.12031E-02-1.13135E-01-7.81554E-14-1.22852E-12
 -1        38 1.79176E+01-5.57038E-02-1.31432E-01-4.30839E-02-1.49368E-14-1.53449E-12
 -1        39 1.80146E+01-5.46810E-02-1.28667E-01 5.15420E-02-3.13456E-14-1.54125E-12
 -1        40 1.93963E+01-2.97403E-02-6.51402E-02 1.17854E-01 4.21729E-14-1.42412E-12
 -1        41 2.14407E+01 3.35021E-03 1.40012E-02 1.27207E-01-2.46595E-14-1.43467E-12
 -1        42 2.33638E+01 2.75394E-02 6.48160E-02 9.23460E-02-3.30335E-15-1.51418E-12
 -1        43 2.46469E+01 3.58712E-02 7.53925E-02 4.44480E-02-4.44241E-14-1.32835E-12
 -1        44 2.51626E+01 3.15629E-02 5.95105E-02 6.19964E-03 2.73145E-14-1.18921E-12
 -1        45 2.50513E+01 2.14980E-02 3.56240E-02-1.55726E-02-1.83198E-14-1.04851E-12
 -1        46 2.45457E+01 1.11427E-02 1.50895E-02-2.37601E-02 2.62323E-15-9.78362E-13
 -1        47 2.38569E+01 3.13662E-03 1.53352E-03-2.38226E-02 5.57289E-14-5.95876E-13
 -1        48 2.31325E+01-1.99193E-03-5.70494E-03-2.02144E-02 3.62478E-14-3.81951E-13
 -1        49 2.24583E+01-4.72490E-03-8.63282E-03-1.56177E-02 3.91793E-14-6.99587E-13
 -1        50 2.18744E+01-5.79754E-03-9.08378E-03-1.13228E-02-8.57151E-14-1.13497E-12
 -1        51 2.13921E+01-5.86005E-03-8.31935E-03-7.79813E-03 2.81862E-14-1.09098E-12
 -1        52 2.10075E+01-5.38186E-03-7.08261E-03-5.10691E-03 3.03319E-14-8.05102E-13
 -1        53 2.07090E+01-4.66511E-03-5.76418E-03-3.14771E-03-1.73318E-14-8.97518E-13
 -1        54 2.04830E+01-3.88802E-03-4.54648E-03-1.77360E-03 4.42654E-14-1.10332E-12
 -1        55 2.03156E+01-3.14684E-03-3.49967E-03-8.42999E-04-7.55166E-14-1.22752E-12
 -1        56 2.01946E+01-2.48734E-03-2.63766E-03-2.37074E-04 1.04400E-13-1.11172E-12
 -1        57 2.01093E+01-1.92592E-03-1.94838E-03 1.37557E-04 3.42806E-14-6.72118E-13
 -1        58 2.00511E+01-1.46283E-03-1.40957E-03 3.51515E-04 7.76926E-16-7.21333E-13
 -1        59 2.00129E+01-1.09014E-03-9.96539E-04 4.56918E-04 4.66037E-14-7.34169E-13
 -1        60 1.99893E+01-7.96442E-04-6.85818E-04 4.91562E-04-2.93580E-14-6.05799E-13
 -1        61 1.99761E+01-5.69347E-04-4.56589E-04 4.82453E-04 9.04715E-14-3.65374E-13
 -1        62 1.99701E+01-3.96882E-04-2.91066E-04 4.48568E-04-5.82532E-14-2.13261E-13
 -1        63 1.99688E+01-2.68113E-04-1.74373E-04 4.02968E-04-3.34833E-14-2.03772E-13
 -1        64 1.99707E+01-1.73373E-04-9.41956E-05 3.54370E-04-5.39280E-14-6.55571E-13
 -1        65 1.99745E+01-1.04247E-04-4.02703E-05 3.08290E-04-1.05073E-13-5.18289E-13
 -1        66 1.99793E+01-5.34126E-05-3.63118E-06 2.67763E-04 1.06687E-13-4.84210E-13
 -1        67 1.99844E+01-1.44133E-05 2.45425E-05 2.33586E-04 4.76957E-14-1.77258E-13
 -1        68 1.99896E+01 1.84986E-05 5.45280E-05 2.03683E-04 6.47286E-14-2.50100E-14
 -1        69 1.99942E+01 4.91247E-05 9.75066E-05 1.69780E-04 1.27985E-14-1.59267E-13
 -1        70 1.99978E+01 6.54485E-05 1.43224E-04 1.00312E-04-1.48215E-14-1.68354E-13
 -1        71 1.99998E+01-1.32091E-05 8.73273E-05-1.46477E-05-5.61898E-14-4.32792E-13
 -1        72 2.13669E+01-4.05201E-01-9.88117E-01-3.35306E-01 2.99587E-14 3.00773E-12
 -1        73 2.00955E+01-6.61977E-02-2.84362E-01-5.99597E-02 2.86767E-14 2.41235E-12
 -1        74 1.98299E+01-2.22692E-02-6.35603E-02-2.31615E-02 1.66927E-14 1.91773E-12
 -1        75 2.00236E+01-1.22043E-02-1.34172E-02-1.83743E-02 5.98480E-16 1.60731E-12
 -1        76 2.04852E+01-7.15709E-03-5.40068E-03-1.75032E-02 6.98302E-15 1.39892E-12
 -1        77 2.11144E+01-3.15972E-03-3.65604E-03-1.90776E-02 9.74448E-15 1.28880E-12
 -1        78 2.18414E+01 1.18010E-03 3.20050E-04-2.24482E-02-1.59365E-14 1.23204E-12
 -1        79 2.25893E+01 6.50211E-03 8.59136E-03-2.65330E-02 2.03786E-14 1.08319E-12
 -1        80 2.32516E+01 1.26898E-02 2.19129E-02-2.92182E-02-4.93645E-14 9.93781E-13
 -1        81 2.36806E+01 1.84482E-02 3.93072E-02-2.67398E-02 2.13239E-14 1.05517E-12
 -1        82 2.36964E+01 2.09813E-02 5.58581E-02-1.39367E-02 2.48683E-14 1.03036E-12
 -1        83 2.31357E+01 1.67145E-02 6.12545E-02 1.31930E-02-1.56385E-15 9.24696E-13
 -1        84 2.19504E+01 3.84682E-03 4.29326E-02 5.18643E-02-1.44569E-14 9.53040E-13
 -1        85 2.03286E+01-1.43868E-02-3.71493E-03 8.72960E-02 3.11028E-14 8.32560E-13
 -1        86 1.87392E+01-2.93779E-02-6.39807E-02 9.64154E-02 2.30933E-14 5.06695E-13
 -1        87 1.77887E+01-3.27120E-02-1.05487E-01 6.44735E-02-8.76189E-14 6.12461E-13
 -1        88 1.79012E+01-2.29093E-02-1.00948E-01 2.63050E-03-2.52047E-14 8.42050E-13
 -1        89 1.90467E+01-6.14122E-03-5.37015E-02-5.71222E-02 6.71496E-14 4.51281E-13
 -1        90 2.07621E+01 8.97211E-03 6.20530E-03-8.67704E-02-6.26998E-14 1.56580E-13
 -1        91 2.24436E+01 1.74873E-02 4.78718E-02-8.17557E-02 4.88196E-14 3.86059E-13
 -1        92 2.36585E+01 1.88523E-02 6.07382E-02-5.66766E-02-2.57997E-14 4.07322E-13
 -1        93 2.42584E+01 1.54468E-02 5.22145E-02-2.82570E-02 2.76681E-14 3.63506E-13
 -1        94 2.43141E+01 1.01831E-02 3.47424E-02-6.17627E-03-5.22022E-15 7.71262E-14
 -1        95 2.39938E+01 5.14848E-03 1.76533E-02 7.14486E-03-1.50479E-14 1.44765E-13
 -1        96 2.34697E+01 1.30935E-03 5.07982E-03 1.32372E-02 2.45270E-14 4.47283E-13
 -1        97 2.28746E+01-1.17024E-03-2.51480E-03 1.46619E-02-2.77827E-14 6.28295E-13
 -1        98 2.22937E+01-2.51600E-03-6.24740E-03 1.35939E-02 4.48675E-14 4.85618E-13
 -1        99 2.17732E+01-3.05932E-03-7.49200E-03 1.14751E-02-1.86898E-14 2.62863E-13
 -1       100 2.13322E+01-3.09924E-03-7.34501E-03 9.12470E-03 3.02898E-14 3.43875E-13
 -1       101 2.09732E+01-2.85917E-03-6.53174E-03 6.94595E-03 2.84427E-14 3.02853E-13
 -1       102 2.06903E+01-2.48870E-03-5.47979E-03 5.09929E-03 2.28334E-14 1.37035E-13
 -1       103 2.04733E+01-2.07998E-03-4.41799E-03 3.61753E-03-2.48106E-14 4.05109E-13
 -1       104 2.03110E+01-1.68524E-03-3.45557E-03 2.47380E-03 5.57895E-15 7.73010E-13
 -1       105 2.01927E+01-1.33091E-03-2.63474E-03 1.61814E-03 5.96560E-14 5.16426E-13
 -1       106 2.01088E+01-1.02759E-03-1.96228E-03 9.95843E-04-1.15363E-13 2.66584E-13
 -1       107 2.00512E+01-7.76729E-04-1.42761E-03 5.56011E-04 5.45704E-14-4.30891E-14
 -1       108 2.00133E+01-5.74828E-04-1.01286E-03 2.54920E-04-7.40312E-14-2.49304E-13
 -1       109 1.99898E+01-4.16077E-04-6.98277E-04 5.67188E-05-1.65092E-14-2.28307E-14
 -1       110 1.99765E+01-2.93851E-04-4.64922E-04-6.71273E-05 4.74784E-14-2.42325E-13
 -1       111 1.99705E+01-2.01563E-04-2.95832E-04-1.38844E-04 5.89228E-15-9.68246E-14
 -1       112 1.99692E+01-1.33088E-04-1.76397E-04-1.75451E-04-1.03859E-13-1.73639E-13
 -1       113 1.99710E+01-8.29179E-05-9.42797E-05-1.89801E-04 1.51609E-13-3.25695E-13
 -1       114 1.99747E+01-4.61749E-05-3.90656E-05-1.91478E-04-8.67351E-14-3.79494E-13
 -1       115 1.99795E+01-1.85080E-05-1.56979E-06-1.87516E-04 6.86025E-15-3.66769E-14
 -1       116 1.99846E+01 3.96444E-06 2.74112E-05-1.82754E-04 3.21548E-14 2.32866E-14
 -1       117 1.99897E+01 2.47184E-05 5.88217E-05-1.79540E-04 8.78032E-14-8.91180E-13
 -1       118 1.99943E+01 4.53206E-05 1.03969E-04-1.75620E-04-3.50167E-14-1.22691E-12
 -1       119 1.99979E+01 6.04455E-05 1.54628E-04-1.49524E-04 7.74325E-14-1.63125E-12
 -1       120 1.99998E+01-4.70012E-05 6.43580E-05-2.81967E-05 1.64345E-13-1.41741E-12
 -1       121 1.99998E+01-1.53963E-04 5.91442E-05 4.17577E-06-1.15978E-12-1.70397E-13
 -1       122 1.99999E+01-1.99335E-03 1.21953E-04-1.13524E-04-3.60966E-13 9.73349E-14
 -1       123 1.99998E+01-5.27233E-03 4.55104E-05-1.55184E-04-1.53671E-13-8.78558E-14
 -1       124 1.99998E+01-8.99259E-03-1.95326E-05-1.49151E-04-3.23174E-13 1.04322E-13
 -1       125 1.99998E+01-1.25019E-02-5.85354E-05-1.22124E-04-2.47303E-14 5.00842E-14
 -1       126 1.99998E+01-1.53534E-02-7.98582E-05-8.97431E-05-5.07215E-13-3.34142E-14
 -1       127 1.99997E+01-1.73938E-02-8.95390E-05-5.38272E-05-8.58550E-13 1.37357E-13
 -1       128 1.99997E+01-1.84400E-02-9.34510E-05-1.78191E-05-9.92818E-13-9.98373E-14
 -1       129 1.99997E+01-1.84361E-02-9.35272E-05 1.80521E-05-5.88912E-13 1.68799E-13
 -1       130 1.99997E+01-1.73813E-02-8.97842E-05 5.40506E-05-4.08193E-13-2.52208E-13
 -1       131 1.99998E+01-1.53314E-02-7.94818E-05 9.12303E-05-6.05203E-13 8.14505E-14
 -1       132 1.99998E+01-1.24702E-02-5.90409E-05 1.22987E-04-7.56282E-13 2.69105E-13
 -1       133 1.99998E+01-8.94854E-03-1.94329E-05 1.49587E-04-3.09517E-13-1.00156E-13
 -1       134 1.99998E+01-5.21432E-03 5.15241E-05 1.65263E-04-1.57109E-13 1.46227E-14
 -1       135 1.99999E+01-2.00945E-03 1.04802E-04 1.58279E-04 2.34215E-13 7.81139E-14
 -1       136 1.99999E+01-2.10063E-04 5.20242E-05-5.53745E-05 2.36729E-13 9.49624E-15
 -1       137-1.49220E+00-1.96266E+01-3.03759E+00-3.90768E+00 2.99141E-12 7.72472E-13
 -1       138-1.30848E+00-7.61066E+00-2.17569E+00-2.44170E+00 3.52945E-12 1.59475E-12
 -1       139 4.08306E+00 4.75046E+00-9.03131E-01 4.64429E+00 3.06394E-12 2.31587E-12
 -1       140 1.77624E+01 1.07224E+01 5.71995E-01 1.36171E+01 1.99701E-12 2.46148E-12
 -1       141 3.73209E+01 9.52949E+00 1.96303E+00 1.83045E+01 9.85406E-13 1.80173E-12
 -1       142 5.60412E+01 4.43847E+00 3.05896E+00 1.44193E+01 2.38823E-13 5.72264E-13
 -1       143 6.60771E+01 8.94617E-01 3.58297E+00 2.40248E+00 4.59771E-14-1.17944E-12
 -1       144 6.18751E+01 2.47179E+00 3.36415E+00-1.03595E+01 4.69555E-13-2.64611E-12
 -1       145 4.62478E+01 7.55181E+00 2.53022E+00-1.79090E+01 1.43921E-12-3.52246E-12
 -1       146 2.59877E+01 1.11719E+01 1.23560E+00-1.67395E+01 2.55485E-12-3.77853E-12
 -1       147 9.01029E+00 8.39016E+00-2.55999E-01-8.74854E+00 3.01725E-12-2.88208E-12
 -1       148 1.77879E-01-1.24055E+00-1.62669E+00-1.09717E-01 2.71744E-12-1.67205E-12
 -1       149-1.76911E+00-1.38001E+01-2.66479E+00 4.00272E+00 1.66867E-12-6.13287E-13
 -1       150-1.01098E+00-2.30850E+01-3.27413E+00 2.67020E+00 8.27116E-14-5.08690E-14
 -1       151-1.78769E+00-1.59168E+01-2.85663E+00-4.38723E+00-3.05478E-12-9.26884E-13
 -1       152-5.79537E-01-3.39625E+00-1.87548E+00-1.07636E+00-3.48743E-12-1.93895E-12
 -1       153 7.30067E+00 6.92804E+00-5.16216E-01 7.18514E+00-3.22997E-12-2.90801E-12
 -1       154 2.26071E+01 1.08897E+01 9.11073E-01 1.54267E+01-2.47341E-12-3.31019E-12
 -1       155 4.41537E+01 8.36438E+00 2.47354E+00 1.82066E+01-1.15055E-12-2.45431E-12
 -1       156 6.19574E+01 2.62612E+00 3.39905E+00 1.07704E+01-9.36820E-14-4.65378E-13
 -1       157 6.65175E+01 9.46352E-01 3.63780E+00-2.31577E+00-7.63244E-14 1.33108E-12
 -1       158 5.64392E+01 4.45482E+00 3.11279E+00-1.43250E+01-8.79047E-13 2.89457E-12
 -1       159 3.64872E+01 9.69261E+00 1.91735E+00-1.83330E+01-2.05025E-12 3.86280E-12
 -1       160 1.66860E+01 1.05157E+01 4.45828E-01-1.31743E+01-2.95214E-12 3.50620E-12
 -1       161 3.09105E+00 3.53408E+00-1.07509E+00-3.59023E+00-2.79321E-12 2.19613E-12
 -1       162-1.44466E+00-8.63810E+00-2.28397E+00 2.82220E+00-1.66345E-12 8.34860E-13
 -1       163-1.48049E+00-2.00311E+01-3.07612E+00 3.91040E+00 5.30409E-14 1.95156E-13
 -1       164 2.15457E+01 3.65338E+00-5.20615E-02-3.19932E+00-4.21843E-13-3.16309E-14
 -1       165 2.04269E+01 4.22794E+00-4.23498E-02-2.33756E+00-3.56251E-13-4.28980E-13
 -1       166 1.97424E+01 4.54474E+00-2.98463E-02-1.69917E+00-2.60509E-13-6.43255E-13
 -1       167 1.92592E+01 4.71961E+00-2.19883E-02-1.20542E+00-1.68508E-13-7.53229E-13
 -1       168 1.88972E+01 4.82887E+00-1.72064E-02-8.20784E-01-8.76562E-14-7.83422E-13
 -1       169 1.86301E+01 4.89894E+00-1.46381E-02-5.06392E-01-2.00831E-14-7.85735E-13
 -1       170 1.84687E+01 4.93710E+00-1.32887E-02-2.42399E-01 5.43241E-14-7.62114E-13
 -1       171 1.84185E+01 4.94723E+00-1.28931E-02-2.28473E-03 1.18754E-13-7.39325E-13
 -1       172 1.84806E+01 4.93073E+00-1.33848E-02 2.40271E-01 1.82103E-13-6.92716E-13
 -1       173 1.86510E+01 4.88696E+00-1.48329E-02 5.11115E-01 2.44237E-13-6.53675E-13
 -1       174 1.89167E+01 4.81397E+00-1.75501E-02 8.29308E-01 2.98057E-13-5.71394E-13
 -1       175 1.92835E+01 4.69962E+00-2.23411E-02 1.23073E+00 3.73070E-13-4.42049E-13
 -1       176 1.97644E+01 4.51916E+00-3.11151E-02 1.73946E+00 4.38056E-13-2.43866E-13
 -1       177 2.04454E+01 4.19993E+00-4.40677E-02 2.38709E+00 4.67961E-13 9.25510E-14
 -1       178 2.16476E+01 3.43074E+00-5.50348E-02 3.14845E+00 4.13074E-13 6.68202E-13
 -1       179 2.28894E+01 1.09905E+00-3.29826E-01 2.72969E+00 2.79193E-13 1.42020E-12
 -1       180 2.25728E+01 8.30809E-01 1.69358E-03-1.64973E+00-3.80685E-13 5.04652E-13
 -1       181 2.13139E+01 1.90227E-01-8.20349E-03-4.54058E-01-3.26296E-13 3.43624E-13
 -1       182 2.08493E+01 1.17613E-01 1.46846E-02 4.93723E-02-2.38439E-13 1.88859E-13
 -1       183 2.08650E+01 7.16823E-02 1.07395E-02 3.19682E-01-1.59240E-13 5.71917E-14
 -1       184 2.11456E+01 4.94863E-02 5.56337E-03 4.91937E-01-1.19717E-13-1.68734E-14
 -1       185 2.15967E+01 3.08975E-02 2.20197E-03 6.04694E-01-8.52011E-14-4.58665E-14
 -1       186 2.21480E+01 6.07059E-03-1.64585E-04 6.57980E-01-9.22806E-14-1.05276E-13
 -1       187 2.27289E+01-3.23975E-02-2.18143E-03 6.29711E-01-5.22499E-14-1.04440E-13
 -1       188 2.32529E+01-8.89132E-02-3.81890E-03 4.83198E-01-1.02329E-13-6.09198E-14
 -1       189 2.36104E+01-1.59202E-01-4.51774E-03 1.81557E-01-1.04781E-13-2.54408E-14
 -1       190 2.36788E+01-2.20984E-01-3.68868E-03-2.80656E-01-8.40864E-14-2.60772E-13
 -1       191 2.33588E+01-2.28141E-01-1.18113E-03-8.28221E-01-1.17343E-13-3.51446E-13
 -1       192 2.26442E+01-1.27534E-01 1.18495E-03-1.26672E+00-7.88662E-14-3.94324E-13
 -1       193 2.17034E+01 8.78065E-02 1.48934E-03-1.32518E+00-1.33149E-13-4.90281E-13
 -1       194 2.08927E+01 3.23243E-01-3.03891E-04-8.33162E-01-1.97474E-13-4.90290E-13
 -1       195 2.06059E+01 4.22069E-01-1.35400E-03 7.12728E-02-1.13971E-13-7.15751E-13
 -1       196 2.10098E+01 3.08507E-01 6.07802E-05 9.57297E-01-3.70875E-14-8.78519E-13
 -1       197 2.19128E+01 6.97989E-02 1.70619E-03 1.40896E+00 2.64684E-14-1.01603E-12
 -1       198 2.29164E+01-1.37501E-01 1.10365E-03 1.31658E+00-4.00222E-14-9.29121E-13
 -1       199 2.36772E+01-2.27525E-01-1.46909E-03 8.66999E-01 8.81391E-14-9.70757E-13
 -1       200 2.40437E+01-2.13383E-01-3.78878E-03 3.29286E-01 1.09771E-13-8.11646E-13
 -1       201 2.40319E+01-1.49615E-01-4.56810E-03-1.12920E-01 6.57330E-14-6.81508E-13
 -1       202 2.37423E+01-8.08123E-02-3.92590E-03-3.94736E-01 2.16211E-13-3.53713E-13
 -1       203 2.32917E+01-2.78335E-02-2.56833E-03-5.28692E-01 1.36655E-13-1.80468E-13
 -1       204 2.27772E+01 5.49483E-03-1.13580E-03-5.56831E-01 5.43397E-14-2.88059E-13
 -1       205 2.22662E+01 2.28919E-02-9.65845E-06-5.21832E-01-1.28584E-13-2.87496E-13
 -1       206 2.17982E+01 2.96678E-02 7.13412E-04-4.56004E-01-2.60994E-13-3.44214E-13
 -1       207 2.13923E+01 3.02501E-02 1.08375E-03-3.80186E-01 4.23572E-14-4.42518E-13
 -1       208 2.10536E+01 2.76723E-02 1.20214E-03-3.06233E-01 2.58714E-14-4.80394E-13
 -1       209 2.07796E+01 2.37866E-02 1.16535E-03-2.39995E-01-3.09964E-14-5.97147E-13
 -1       210 2.05633E+01 1.96273E-02 1.04672E-03-1.83690E-01-4.29519E-14-3.33185E-13
 -1       211 2.03963E+01 1.57196E-02 8.94731E-04-1.37523E-01-1.71668E-13-4.31569E-13
 -1       212 2.02702E+01 1.22934E-02 7.38239E-04-1.00688E-01 9.70356E-15-5.51237E-13
 -1       213 2.01768E+01 9.41660E-03 5.92698E-04-7.19538E-02 2.16819E-13-6.20379E-13
 -1       214 2.01093E+01 7.07350E-03 4.65164E-04-4.99845E-02 5.77889E-14-5.65955E-13
 -1       215 2.00617E+01 5.20992E-03 3.57762E-04-3.35079E-02-1.26301E-13-4.08645E-13
 -1       216 2.00293E+01 3.75769E-03 2.69920E-04-2.13908E-02 1.63229E-14-6.52159E-13
 -1       217 2.00081E+01 2.64735E-03 1.99730E-04-1.26653E-02 1.19007E-13-3.94899E-13
 -1       218 1.99951E+01 1.81424E-03 1.44737E-04-6.52932E-03 2.46599E-14-4.96055E-13
 -1       219 1.99879E+01 1.20102E-03 1.02374E-04-2.33419E-03-3.35967E-14-4.49987E-13
 -1       220 1.99847E+01 7.58180E-04 7.01841E-05 4.32522E-04-1.02319E-13-2.95545E-13
 -1       221 1.99843E+01 4.43566E-04 4.59234E-05 2.16539E-03 2.34933E-13-1.38648E-13
 -1       222 1.99857E+01 2.21154E-04 2.76039E-05 3.15781E-03 1.17786E-13 4.46241E-13
 -1       223 1.99880E+01 5.93061E-05 1.36171E-05 3.61555E-03 2.09930E-13 4.26833E-13
 -1       224 1.99908E+01-7.15050E-05 2.98557E-06 3.66627E-03 1.94457E-14 2.55823E-13
 -1       225 1.99937E+01-2.02386E-04-3.89963E-06 3.36423E-03-2.50251E-13 2.15669E-14
 -1       226 1.99963E+01-3.69359E-04-7.09048E-06 2.69415E-03 4.27115E-14-2.24275E-13
 -1       227 1.99983E+01-5.86526E-04-3.40645E-06 1.62180E-03-7.74828E-14 5.88768E-14
 -1       228 2.16616E+01 2.68119E-01-4.78032E-02 9.08043E-01 3.14235E-13 1.20315E-12
 -1       229 2.08563E+01 1.30396E-01 9.53391E-03 1.88717E-01 2.40841E-13 9.80797E-13
 -1       230 2.06715E+01 6.92090E-02 1.28555E-02-1.28915E-01 1.62834E-13 7.93624E-13
 -1       231 2.08248E+01 4.21912E-02 7.31410E-03-3.07153E-01 1.08433E-13 6.34350E-13
 -1       232 2.11817E+01 2.59954E-02 3.19258E-03-4.16422E-01 5.18275E-14 5.75769E-13
 -1       233 2.16564E+01 1.00783E-02 9.41260E-04-4.73453E-01 3.05297E-14 5.21699E-13
 -1       234 2.21751E+01-1.11560E-02-1.78608E-04-4.71960E-01 8.64010E-14 4.91350E-13
 -1       235 2.26562E+01-4.10337E-02-4.32377E-04-3.92665E-01 1.50175E-14 4.72790E-13
 -1       236 2.30017E+01-7.91908E-02 2.85104E-04-2.12358E-01-2.55655E-15 4.12758E-13
 -1       237 2.31016E+01-1.17765E-01 1.91149E-03 7.97814E-02 1.67162E-14 4.60059E-13
 -1       238 2.28603E+01-1.37596E-01 3.62471E-03 4.55377E-01 2.70777E-14 5.20218E-13
 -1       239 2.22470E+01-1.11188E-01 3.77511E-03 8.18717E-01 5.14506E-14 5.01931E-13
 -1       240 2.13599E+01-2.12494E-02 7.14765E-04 1.00868E+00 1.38869E-13 3.57488E-13
 -1       241 2.04555E+01 1.11437E-01-4.95085E-03 8.69110E-01 4.35906E-14 3.06965E-13
 -1       242 1.98813E+01 2.20154E-01-9.15708E-03 3.73189E-01-5.33783E-14 3.21635E-13
 -1       243 1.99006E+01 2.34600E-01-7.73296E-03-2.99052E-01-2.89820E-14 2.36295E-13
 -1       244 2.05218E+01 1.46164E-01-1.66522E-03-8.51744E-01 2.59911E-13 1.51323E-13
 -1       245 2.14936E+01 1.32941E-02 4.17054E-03-1.06916E+00 6.34717E-14 4.64698E-14
 -1       246 2.24654E+01-8.93457E-02 5.90429E-03-9.39280E-01-1.25550E-13 4.79469E-14
 -1       247 2.31753E+01-1.30341E-01 4.00654E-03-6.04662E-01-3.78378E-14 1.14818E-13
 -1       248 2.35203E+01-1.20588E-01 1.10150E-03-2.31235E-01 5.09644E-14 6.38477E-14
 -1       249 2.35263E+01-8.63592E-02-1.07629E-03 7.31553E-02 8.72011E-14 8.61687E-14
 -1       250 2.32839E+01-4.90260E-02-1.98634E-03 2.70557E-01-3.05630E-14-3.25495E-14
 -1       251 2.28956E+01-1.92429E-02-1.90297E-03 3.68840E-01-1.58676E-13 1.87712E-13
 -1       252 2.24466E+01 4.65276E-04-1.33712E-03 3.94274E-01-1.81226E-14 3.16189E-13
 -1       253 2.19970E+01 1.15261E-02-6.84790E-04 3.74384E-01 6.74297E-14 2.86479E-13
 -1       254 2.15829E+01 1.64644E-02-1.48683E-04 3.30872E-01 6.92673E-14 2.94536E-13
 -1       255 2.12221E+01 1.75836E-02 2.12587E-04 2.78409E-01 5.62300E-15 2.34445E-13
 -1       256 2.09204E+01 1.65818E-02 4.15212E-04 2.25823E-01-3.33932E-14 2.36424E-13
 -1       257 2.06761E+01 1.45719E-02 5.00158E-04 1.77809E-01 4.06453E-14 2.16576E-13
 -1       258 2.04835E+01 1.22240E-02 5.08567E-04 1.36418E-01-1.37903E-13 2.43580E-13
 -1       259 2.03353E+01 9.91104E-03 4.72852E-04 1.02135E-01 2.86906E-14 2.31401E-13
 -1       260 2.02239E+01 7.81950E-03 4.15506E-04 7.45931E-02 2.17734E-13 6.03044E-14
 -1       261 2.01421E+01 6.02540E-03 3.50854E-04 5.30214E-02-1.90851E-14 1.85986E-13
 -1       262 2.00836E+01 4.54214E-03 2.87342E-04 3.65031E-02 1.59185E-13 1.06268E-13
 -1       263 2.00430E+01 3.35026E-03 2.29475E-04 2.41238E-02 3.50500E-14 3.96447E-14
 -1       264 2.00159E+01 2.41525E-03 1.79238E-04 1.50464E-02-5.34415E-14-6.33419E-14
 -1       265 1.99988E+01 1.69762E-03 1.37092E-04 8.54350E-03 1.43319E-14 4.44131E-14
 -1       266 1.99888E+01 1.15835E-03 1.02634E-04 4.00558E-03-1.89490E-14 2.63193E-13
 -1       267 1.99839E+01 7.61479E-04 7.50114E-05 9.37117E-04 4.68015E-14 2.37600E-13
 -1       268 1.99825E+01 4.75183E-04 5.31708E-05-1.05386E-03 4.71520E-14 2.12224E-13
 -1       269 1.99833E+01 2.71766E-04 3.60186E-05-2.26788E-03-5.22940E-14 4.98061E-13
 -1       270 1.99855E+01 1.27016E-04 2.25794E-05-2.92558E-03 4.95480E-15 2.19639E-13
 -1       271 1.99885E+01 1.88756E-05 1.23259E-05-3.17684E-03 1.37461E-13-6.03556E-14
 -1       272 1.99916E+01-7.42143E-05 6.00188E-06-3.10588E-03 3.10023E-13-1.52896E-13
 -1       273 1.99947E+01-1.74321E-04 6.07762E-06-2.73385E-03 7.68347E-14-8.84165E-14
 -1       274 1.99972E+01-3.16938E-04 7.40583E-06-2.02014E-03 1.94259E-13 4.50565E-14
 -1       275 1.99990E+01-4.53999E-04 2.48370E-06-9.46921E-04-2.56619E-13-2.22413E-13
 -1       276 1.99993E+01-1.57012E-03-5.50183E-06-1.61917E-03-1.09355E-14 5.45689E-13
 -1       277 1.99995E+01-3.48893E-03-3.26543E-06-2.47856E-03-9.25574E-14-4.41426E-15
 -1       278 1.99998E+01-5.76353E-03-1.74361E-06-2.78629E-03-1.22510E-13 6.30319E-14
 -1       279 1.99999E+01-8.07121E-03 2.07483E-06-2.63825E-03-1.10590E-14 2.78225E-14
 -1       280 2.00000E+01-1.00937E-02 6.63139E-06-2.18987E-03-3.20828E-13-2.30834E-13
 -1       281 2.00001E+01-1.16957E-02 1.01468E-05-1.54483E-03-1.77783E-13-2.93091E-13
 -1       282 2.00001E+01-1.27022E-02 1.23260E-05-7.93873E-04-9.82405E-15 4.03510E-15
 -1       283 2.00001E+01-1.30437E-02 1.30468E-05 2.89959E-06-9.80023E-14-1.41234E-14
 -1       284 2.00001E+01-1.26975E-02 1.23402E-05 8.00117E-04-3.03789E-13-4.95549E-14
 -1       285 2.00001E+01-1.16854E-02 1.01191E-05 1.55248E-03-1.83235E-13-3.55721E-14
 -1       286 2.00000E+01-1.01104E-02 6.38393E-06 2.18973E-03-2.57732E-13-2.86732E-13
 -1       287 1.99999E+01-8.04867E-03 1.98782E-06 2.64586E-03-1.19803E-13 3.38387E-13
 -1       288 1.99998E+01-5.73864E-03-2.62799E-06 2.79151E-03 5.71791E-14 1.74214E-13
 -1       289 1.99995E+01-3.45830E-03-7.29563E-06 2.44028E-03 4.10664E-15 1.90148E-13
 -1       290 1.99990E+01-1.88309E-03-1.12938E-05 2.35429E-03-5.99008E-14 1.22266E-15
 -1       291-8.95744E-01-1.08440E+01-9.81960E-01 1.13443E+00 8.46725E-13 7.63112E-13
 -1       292 3.84479E+00-7.48701E+00-5.10445E-01 4.48602E+00 8.37330E-13 6.37067E-13
 -1       293 1.03117E+01-4.69933E+00-4.46456E-01 5.78576E+00 1.25724E-12 6.82232E-13
 -1       294 1.95523E+01-3.96650E-01-6.10381E-02 7.29184E+00 1.23968E-12 7.96530E-13
 -1       295 3.03871E+01 2.24654E+00 3.14780E-01 6.74475E+00 9.30256E-13 3.98515E-13
 -1       296 3.95688E+01 5.14528E+00 7.57352E-01 6.00345E+00 7.98134E-13 1.43524E-13
 -1       297 4.51353E+01 6.53061E+00 9.60046E-01 2.50910E+00 8.03690E-13-3.95642E-13
 -1       298 4.68798E+01 6.57668E+00 1.07495E+00-1.34399E+00 7.69995E-13-8.19754E-13
 -1       299 4.28548E+01 5.87413E+00 9.16623E-01-4.96103E+00 9.62633E-13-1.42497E-12
 -1       300 3.47047E+01 4.10477E+00 5.78480E-01-7.21077E+00 1.19484E-12-1.66533E-12
 -1       301 2.46053E+01 7.86700E-01 1.29665E-01-7.44096E+00 1.09288E-12-1.62473E-12
 -1       302 1.41076E+01-2.66742E+00-3.00716E-01-6.56890E+00 1.00550E-12-1.37657E-12
 -1       303 6.01226E+00-6.70098E+00-6.70866E-01-4.56200E+00 6.79456E-13-1.04870E-12
 -1       304 1.15933E+00-9.05512E+00-7.31171E-01-2.94850E+00 1.65840E-13-9.50823E-13
 -1       305-1.30266E+00-1.13214E+01-1.02330E+00-2.76304E-01-3.74770E-13-8.65419E-13
 -1       306 4.96810E-02-1.04793E+01-9.81538E-01 1.88848E+00-9.45632E-13-8.67653E-13
 -1       307 4.86828E+00-7.40052E+00-7.46089E-01 4.12594E+00-1.33801E-12-1.03027E-12
 -1       308 1.27155E+01-3.39965E+00-3.68440E-01 6.27107E+00-1.45195E-12-1.21037E-12
 -1       309 2.40016E+01-1.08776E+00 4.45664E-02 6.69712E+00-1.06481E-12-9.72222E-13
 -1       310 3.18389E+01 2.70343E+00 3.29184E-01 6.65306E+00-1.26534E-12-9.07774E-13
 -1       311 4.21537E+01 5.78627E+00 8.40984E-01 4.68237E+00-1.23455E-12-3.43142E-13
 -1       312 4.69905E+01 6.59896E+00 1.06060E+00 1.38066E+00-8.69166E-13 2.32793E-13
 -1       313 4.45658E+01 6.68798E+00 8.71750E-01-2.11537E+00-8.83960E-13 7.40824E-13
 -1       314 3.96724E+01 5.06626E+00 7.74219E-01-5.98734E+00-1.11475E-12 1.28728E-12
 -1       315 2.98494E+01 2.60977E+00 3.59669E-01-7.47569E+00-1.12479E-12 1.52756E-12
 -1       316 1.98187E+01-1.76141E+00-8.37983E-02-6.91251E+00-8.55316E-13 1.34326E-12
 -1       317 9.18655E+00-5.03359E+00-5.32177E-01-5.37676E+00-5.85532E-13 1.39466E-12
 -1       318 3.54791E+00-7.64639E+00-5.28380E-01-4.27968E+00 1.00447E-13 1.00232E-12
 -1       319-9.32815E-01-1.08771E+01-9.82911E-01-9.94691E-01 3.46626E-13 6.79470E-13
 -1       320 2.05065E+01 3.08805E+00-1.80945E-02-1.55967E+00-3.61825E-13-3.69833E-13
 -1       321 2.13290E+01 2.20585E+00-1.64058E-02-1.86941E+00-4.31679E-13-1.47009E-13
 -1       322 1.93871E+01 3.93871E+00-1.34044E-02-8.29566E-01-1.59236E-13-5.92299E-13
 -1       323 1.90083E+01 4.16794E+00-1.10182E-02-5.42338E-01-6.79419E-14-6.11806E-13
 -1       324 1.87524E+01 4.30926E+00-9.48757E-03-3.06380E-01 2.34065E-14-6.10304E-13
 -1       325 1.86271E+01 4.37392E+00-8.77360E-03-1.02378E-01 1.08834E-13-5.86159E-13
 -1       326 1.86369E+01 4.36632E+00-8.83344E-03 9.29010E-02 1.82578E-13-5.49839E-13
 -1       327 1.87796E+01 4.28744E+00-9.65746E-03 3.03281E-01 2.55442E-13-5.20009E-13
 -1       328 1.90414E+01 4.13788E+00-1.13301E-02 5.45969E-01 3.29535E-13-4.60522E-13
 -1       329 1.94221E+01 3.90181E+00-1.40574E-02 8.45257E-01 4.12266E-13-3.39992E-13
 -1       330 1.99169E+01 3.55040E+00-1.80546E-02 1.20265E+00 4.80027E-13-2.05995E-13
 -1       331 2.05515E+01 3.01333E+00-2.20246E-02 1.59396E+00 5.16875E-13-1.59170E-14
 -1       332 2.13130E+01 2.12455E+00-2.90768E-02 1.85128E+00 4.92954E-13 3.58120E-13
 -1       333 2.17410E+01 1.16928E+00-2.24802E-02 1.53175E+00 4.29438E-13 6.78943E-13
 -1       334 2.12343E+01 5.04298E-01 9.29900E-03 5.13865E-01 3.45322E-13 5.34631E-13
 -1       335 3.36183E+01 2.50297E+00 1.95752E-02 6.30363E-01-1.06385E-12 1.44856E-13
 -1       336 2.12674E+01 7.25940E-01 1.32322E-02-4.88656E-01-3.33386E-13-5.86703E-14
 -1       337 2.10666E+01 4.21996E-01 8.02989E-03 1.60405E-01-2.58758E-13-7.72969E-14
 -1       338 2.10768E+01 2.78570E-01 4.90285E-03 5.73086E-01-1.73531E-13-9.24548E-14
 -1       339 2.12516E+01 1.85670E-01 2.41400E-03 8.52033E-01-1.12047E-13-1.21182E-13
 -1       340 2.15515E+01 9.41829E-02 6.14430E-04 1.02702E+00-8.60037E-14-1.03190E-13
 -1       341 2.19427E+01-2.83773E-02-1.15650E-03 1.08871E+00-4.37402E-14-5.81208E-14
 -1       342 2.23932E+01-2.05009E-01-3.20360E-03 9.99472E-01-2.90278E-14-9.07168E-14
 -1       343 2.28653E+01-4.39540E-01-5.32279E-03 7.05180E-01-8.32648E-14-4.93007E-14
 -1       344 2.33014E+01-6.91013E-01-6.69678E-03 1.62018E-01-1.84511E-13-6.28165E-15
 -1       345 2.36086E+01-8.43222E-01-6.48388E-03-6.07706E-01-1.55089E-13 1.69152E-14
 -1       346 2.36634E+01-7.08488E-01-3.52875E-03-1.43477E+00-1.42611E-13 1.46534E-14
 -1       347 2.33753E+01-1.40560E-01-1.97877E-03-1.95305E+00-1.99398E-13-4.87034E-14
 -1       348 2.28427E+01 7.33594E-01-3.33287E-03-1.72402E+00-1.83864E-13-1.79750E-13
 -1       349 2.24189E+01 1.41189E+00-5.51230E-03-6.25620E-01-3.61058E-13-3.07604E-13
 -1       350 2.24634E+01 1.38060E+00-5.13328E-03 8.49528E-01-2.29595E-13-4.49559E-13
 -1       351 2.29569E+01 6.67803E-01-2.62294E-03 1.89215E+00-1.23391E-13-5.93740E-13
 -1       352 2.35263E+01-1.93444E-01-2.01198E-03 2.05577E+00 3.96590E-14-7.35871E-13
 -1       353 2.38338E+01-7.23911E-01-4.36391E-03 1.50510E+00 8.03749E-14-7.34262E-13
 -1       354 2.38024E+01-8.26784E-01-6.47302E-03 6.81705E-01 1.78840E-13-6.10456E-13
 -1       355 2.35274E+01-6.60776E-01-6.51604E-03-6.38576E-02 1.70663E-13-5.35136E-13
 -1       356 2.31293E+01-4.11396E-01-5.04666E-03-5.80629E-01 3.34548E-13-2.83122E-13
 -1       357 2.26919E+01-1.89467E-01-3.10333E-03-8.59594E-01 1.27888E-13-3.00382E-13
 -1       358 2.22621E+01-3.34118E-02-1.31225E-03-9.54189E-01 3.71319E-14-3.82340E-13
 -1       359 2.18632E+01 5.88107E-02-4.27294E-05-9.29122E-01-2.89352E-14-4.83316E-13
 -1       360 2.15063E+01 1.03505E-01 7.11317E-04-8.38038E-01-7.83437E-14-2.74419E-13
 -1       361 2.11961E+01 1.17680E-01 1.06807E-03-7.18434E-01-2.91944E-14 4.21451E-15
 -1       362 2.09329E+01 1.14451E-01 1.16367E-03-5.93634E-01-3.92343E-14-2.84018E-14
 -1       363 2.07146E+01 1.02581E-01 1.10891E-03-4.76613E-01-1.06592E-13-2.66794E-13
 -1       364 2.05372E+01 8.73927E-02 9.80585E-04-3.73549E-01 1.85079E-14-3.51084E-13
 -1       365 2.03958E+01 7.18701E-02 8.26300E-04-2.86502E-01-1.38437E-14-3.48082E-13
 -1       366 2.02852E+01 5.75339E-02 6.72777E-04-2.15211E-01-1.21476E-13-9.05059E-14
 -1       367 2.02003E+01 4.50417E-02 5.33351E-04-1.58238E-01-4.80998E-14-1.26198E-13
 -1       368 2.01363E+01 3.45667E-02 4.13442E-04-1.13656E-01 6.18815E-14-2.00038E-13
 -1       369 2.00890E+01 2.60274E-02 3.14050E-04-7.94327E-02-2.33756E-14-3.71691E-13
 -1       370 2.00550E+01 1.92231E-02 2.33903E-04-5.36479E-02-9.91097E-14-1.44503E-13
 -1       371 2.00310E+01 1.39085E-02 1.70714E-04-3.45879E-02 1.32270E-13-1.27259E-13
 -1       372 2.00148E+01 9.83456E-03 1.21869E-04-2.07836E-02 3.81844E-14-3.38134E-13
 -1       373 2.00043E+01 6.76819E-03 8.47971E-05-1.10124E-02 2.04751E-13-1.46138E-13
 -1       374 1.99979E+01 4.50112E-03 5.71264E-05-4.28224E-03-7.54597E-14 1.93750E-15
 -1       375 1.99945E+01 2.85203E-03 3.67427E-05 1.91971E-04 1.15905E-13 6.89482E-14
 -1       376 1.99931E+01 1.66486E-03 2.18247E-05 3.01416E-03 5.56222E-13 2.37371E-13
 -1       377 1.99931E+01 8.04802E-04 1.07657E-05 4.63156E-03 2.55167E-13 1.73775E-13
 -1       378 1.99940E+01 1.52763E-04 2.27469E-06 5.35596E-03-7.58442E-14 9.59642E-15
 -1       379 1.99952E+01-3.99201E-04-4.17367E-06 5.38111E-03-3.59197E-13 2.46278E-13
 -1       380 1.99966E+01-9.55420E-04-1.15045E-05 4.81168E-03-2.72826E-13 3.70226E-13
 -1       381 1.99978E+01-1.42785E-03-1.62946E-05 3.77939E-03 1.39901E-14 2.96194E-13
 -1       382 2.09766E+01 2.65557E-01 1.12399E-02-6.19342E-02 2.52140E-13 4.31407E-13
 -1       383 2.09741E+01 1.62163E-01 6.58660E-03-4.04027E-01 1.89506E-13 3.43518E-13
 -1       384 2.11646E+01 9.87130E-02 2.94273E-03-6.16824E-01 9.90372E-14 2.53504E-13
 -1       385 2.14824E+01 4.05739E-02 6.65361E-04-7.34647E-01 4.92705E-14 1.63452E-13
 -1       386 2.18716E+01-3.14613E-02-1.10325E-03-7.55545E-01 8.36823E-14 1.61406E-13
 -1       387 2.22771E+01-1.28259E-01-2.76587E-03-6.56053E-01 5.35225E-14 1.82965E-13
 -1       388 2.26357E+01-2.48895E-01-4.19098E-03-4.04760E-01-2.28116E-15 1.81860E-13
 -1       389 2.28727E+01-3.70031E-01-4.83818E-03 1.54057E-02-3.70392E-14 2.65651E-13
 -1       390 2.29069E+01-4.35025E-01-4.27049E-03 5.70225E-01 3.66374E-14 2.84191E-13
 -1       391 2.26745E+01-3.60729E-01-2.41960E-03 1.13102E+00 9.23179E-14 2.47834E-13
 -1       392 2.21824E+01-8.91465E-02 1.95135E-04 1.46518E+00 1.67509E-13 2.64078E-13
 -1       393 2.15710E+01 3.24661E-01 1.30411E-03 1.32451E+00 8.25468E-14 3.17416E-13
 -1       394 2.11104E+01 6.81457E-01 1.88473E-03 6.31198E-01 2.63947E-14 1.54997E-13
 -1       395 2.10633E+01 7.49435E-01 3.86479E-03-3.71035E-01 7.44587E-14 1.55689E-14
 -1       396 2.14714E+01 4.85394E-01 5.21973E-03-1.22566E+00 2.56479E-13-9.75591E-14
 -1       397 2.21303E+01 6.23452E-02 4.28405E-03-1.57981E+00 1.68339E-13-8.84869E-14
 -1       398 2.27425E+01-2.75665E-01 3.57536E-04-1.39815E+00-1.27626E-13-6.62903E-14
 -1       399 2.31216E+01-4.19130E-01-3.82296E-03-8.97154E-01-3.41845E-14-9.22696E-14
 -1       400 2.32258E+01-3.96039E-01-5.57510E-03-3.29664E-01 8.56520E-15-3.07044E-14
 -1       401 2.31024E+01-2.88953E-01-5.35728E-03 1.38421E-01 1.58919E-13 4.62553E-14
 -1       402 2.28280E+01-1.67723E-01-4.01450E-03 4.46762E-01-2.39470E-14-1.12544E-13
 -1       403 2.24734E+01-6.86652E-02-2.37297E-03 6.04387E-01-3.00782E-13-5.57295E-14
 -1       404 2.20923E+01-1.61914E-03-9.48957E-04 6.48915E-01-5.84380E-14 7.10392E-14
 -1       405 2.17207E+01 3.70282E-02 6.35752E-05 6.21138E-01 2.16421E-14 7.31511E-14
 -1       406 2.13804E+01 5.50506E-02 6.69253E-04 5.54135E-01 1.49691E-13 2.28466E-13
 -1       407 2.10824E+01 5.98880E-02 9.57721E-04 4.70952E-01 5.46661E-14 7.73793E-14
 -1       408 2.08305E+01 5.71931E-02 1.03442E-03 3.85950E-01-7.29213E-15 2.47690E-13
 -1       409 2.06234E+01 5.07663E-02 9.86249E-04 3.07125E-01 6.69675E-14 3.35187E-13
 -1       410 2.04575E+01 4.29539E-02 8.74876E-04 2.38245E-01-1.15644E-13 1.36506E-13
 -1       411 2.03274E+01 3.50972E-02 7.39740E-04 1.80484E-01 1.40830E-13 6.45094E-14
 -1       412 2.02275E+01 2.78931E-02 6.03844E-04 1.33540E-01 1.79101E-13 3.31128E-14
 -1       413 2.01525E+01 2.16471E-02 4.79269E-04 9.63548E-02 6.01342E-14 1.56441E-13
 -1       414 2.00975E+01 1.64368E-02 3.71337E-04 6.75579E-02 1.48640E-13 1.30234E-13
 -1       415 2.00581E+01 1.22167E-02 2.81418E-04 4.57235E-02 1.04976E-13 2.03216E-13
 -1       416 2.00307E+01 8.88132E-03 2.08703E-04 2.95116E-02-3.28110E-14 1.60961E-13
 -1       417 2.00124E+01 6.30240E-03 1.51324E-04 1.77352E-02 2.66428E-14 6.88257E-14
 -1       418 2.00007E+01 4.34936E-03 1.07004E-04 9.38436E-03-2.15576E-13-4.37173E-14
 -1       419 1.99940E+01 2.89977E-03 7.34123E-05 3.62707E-03-7.11412E-14 3.57821E-13
 -1       420 1.99907E+01 1.84382E-03 4.83420E-05-2.02854E-04 3.66448E-14 4.70726E-13
 -1       421 1.99897E+01 1.08530E-03 2.97819E-05-2.62268E-03 5.73610E-14 4.36112E-13
 -1       422 1.99902E+01 5.40104E-04 1.59578E-05-4.01854E-03 5.48508E-14 4.37235E-13
 -1       423 1.99916E+01 1.33104E-04 5.37654E-06-4.66141E-03 3.18851E-13 9.14858E-14
 -1       424 1.99935E+01-2.06594E-04-2.51401E-06-4.71978E-03 1.52259E-13-4.43646E-14
 -1       425 1.99955E+01-5.41321E-04-7.46525E-06-4.27002E-03 8.07387E-14 1.78566E-13
 -1       426 1.99974E+01-9.28996E-04-9.04485E-06-3.32521E-03-4.32914E-14 5.68263E-13
 -1       427 1.99984E+01-1.27618E-03-1.01248E-05-2.55968E-03 1.57938E-13 8.23839E-13
 -1       428 2.00001E+01-5.04495E-03 4.40780E-07-4.39922E-03-1.61462E-13 3.06520E-13
 -1       429 1.99994E+01-3.54975E-03-8.91544E-06-4.36102E-03-3.69317E-14-1.36119E-14
 -1       430 1.99988E+01-2.43135E-03-1.42203E-05-3.68330E-03-2.20488E-14-9.85976E-14
 -1       431 2.00005E+01-6.35766E-03 6.22773E-06-3.88722E-03-1.61930E-13-5.62204E-13
 -1       432 2.00008E+01-7.44023E-03 9.67792E-06-2.99415E-03-1.83495E-13 1.04655E-13
 -1       433 2.00010E+01-8.19514E-03 1.19067E-05-1.87263E-03 1.28552E-13 4.59233E-14
 -1       434 2.00010E+01-8.58171E-03 1.30485E-05-6.33628E-04-8.32662E-14-7.56373E-14
 -1       435 2.00010E+01-8.58169E-03 1.30426E-05 6.41694E-04-1.11115E-13-1.05104E-13
 -1       436 2.00010E+01-8.19437E-03 1.19466E-05 1.88247E-03-1.23669E-13-7.44173E-14
 -1       437 2.00008E+01-7.45351E-03 9.54098E-06 2.98888E-03-1.74309E-13-2.41798E-13
 -1       438 2.00005E+01-6.37394E-03 5.79341E-06 3.88864E-03 1.10860E-13 5.03781E-13
 -1       439 2.00000E+01-5.03223E-03 3.45857E-07 4.41180E-03 1.26099E-13 1.88225E-13
 -1       440 1.99994E+01-3.55085E-03-9.60809E-06 4.40711E-03-2.00339E-13-5.63117E-14
 -1       441 1.18223E+01-5.53805E+00-1.64239E-02 7.00110E+00 1.60025E-13 1.34635E-13
 -1       442 9.74131E-01-4.68051E+00-1.03309E-01 1.20318E-01 6.23850E-14 8.37275E-13
 -1       443 3.39258E+00-4.61556E+00-4.24587E-02 4.03927E+00-2.04420E-14 6.84508E-13
 -1       444 1.98070E+01-5.14759E+00-2.82588E-02 6.45206E+00 3.74381E-13 8.67847E-14
 -1       445 2.95874E+01-2.41934E+00-4.50611E-03 2.47782E+00-5.88404E-13 4.78367E-14
 -1       446 3.50739E+01 8.01933E+00-1.65618E-03 2.13770E-01-1.10112E-12 5.99642E-14
 -1       447 2.70039E+01-2.83172E+00-7.27567E-03 4.36188E+00 5.53335E-13-8.77354E-14
 -1       448 1.98786E+01 3.60107E+00-1.91404E-02-1.18038E+00-2.58416E-13-5.22940E-13
 -1       449 3.57260E+01 5.67428E+00 9.85786E-02 1.86438E-01 8.81767E-13-3.75339E-13
 -1       450 3.59563E+01 8.07323E+00 8.32630E-02-1.39943E-01 8.80185E-13-3.22386E-13
 -1       451 3.65742E+01 7.01062E+00 1.29115E-01-1.53833E-01 9.43606E-13-4.76591E-13
 -1       452 3.40638E+01 3.39530E+00 4.91598E-02-6.74511E-01 6.82510E-13-4.23328E-13
 -1       453 3.03179E+01-1.03994E+00 2.11441E-02-2.75792E+00 3.91520E-13-5.30354E-13
 -1       454 2.31749E+01-4.47107E+00-2.21077E-02-5.76137E+00 1.20862E-13-8.17180E-13
 -1       455 1.49485E+01-5.70282E+00-5.36060E-02-7.12599E+00-4.41314E-15-8.79494E-13
 -1       456 7.39560E+00-5.47509E+00-7.24748E-02-6.17499E+00-8.10046E-14-8.62976E-13
 -1       457 1.72018E+00-4.77771E+00-8.31394E-02-2.39026E+00-7.41698E-14-1.02723E-12
 -1       458 1.81517E+00-4.28540E+00-2.39535E-02 1.89869E+00-5.23886E-14-1.01796E-12
 -1       459 5.59047E+00-5.59565E+00-1.19709E-01 5.49908E+00-2.78416E-13-7.79751E-13
 -1       460 1.35943E+01-5.79472E+00-5.46816E-02 7.08266E+00-3.25906E-13-5.40614E-13
 -1       461 2.14578E+01-5.16236E+00-3.46730E-02 6.15471E+00-3.91007E-13-5.03229E-13
 -1       462 3.55505E+01 7.06860E+00 4.23269E-02-3.33337E-01-1.20366E-12 3.85664E-14
 -1       463 3.47450E+01 5.29019E+00-7.44385E-04 4.43492E-01-8.81351E-13 2.05086E-13
 -1       464 3.24300E+01 8.81086E-01 1.62570E-03-9.45781E-01-5.33136E-13 1.38820E-13
 -1       465 2.73590E+01-2.79534E+00-1.09318E-02-3.93674E+00-2.49495E-13 5.17045E-13
 -1       466 1.81753E+01-5.29911E+00-5.87879E-02-6.60747E+00 1.26371E-13 9.95912E-13
 -1       467 1.10548E+01-5.60187E+00-3.03080E-02-6.83165E+00 1.83076E-13 1.21313E-12
 -1       468 3.22369E+00-4.58239E+00-3.85988E-02-3.77697E+00 1.28592E-13 9.05831E-13
 -1       469 3.25903E+01 1.41238E+00 1.09327E-02 8.42411E-01 6.89834E-13-2.84120E-13
 -1       470 9.27715E+00-3.86783E+00 1.18221E-01 6.25501E+00-2.88131E-13 4.29060E-13
 -1       471 8.68510E+00-3.81552E+00 1.14917E-01-5.97854E+00 2.06578E-13 1.10853E-12
 -1       472 2.46833E+01-5.41496E+00 6.48815E-03-4.49166E+00 2.59216E-13 3.64327E-13
 -1       473 6.32129E+00-3.32882E+00 1.04469E-01-5.07430E+00-1.63043E-13-8.97227E-13
 -1       474 2.10770E+01 9.14382E-01 4.20119E-03 3.63731E-01 3.59180E-13 1.41402E-13
 -1       475 1.90379E+01 3.62130E+00-4.09776E-03-2.64512E-01-1.65816E-14-5.50159E-13
 -1       476 1.93953E+01 3.35583E+00-4.87231E-03-4.31263E-01-1.16596E-13-5.39109E-13
 -1       477 1.87558E+01 3.81367E+00-3.47786E-03-1.38166E-02 1.32173E-13-5.08376E-13
 -1       478 1.88463E+01 3.74894E+00-3.65740E-03 1.07756E-01 2.06295E-13-4.80738E-13
 -1       479 1.90783E+01 3.58257E+00-4.20169E-03 2.51434E-01 2.76763E-13-4.40580E-13
 -1       480 1.94428E+01 3.30564E+00-5.08101E-03 4.34127E-01 3.67731E-13-3.53579E-13
 -1       481 1.99156E+01 2.90646E+00-6.07920E-03 6.50050E-01 4.07053E-13-2.37900E-13
 -1       482 2.04838E+01 2.34731E+00-5.59490E-03 8.72820E-01 4.51280E-13-9.94272E-14
 -1       483 2.09385E+01 1.13470E+00 3.69093E-03-2.25456E-01-2.83158E-13-2.19512E-13
 -1       484 3.06824E+01 4.00789E+00-1.54138E-01-1.84125E+00-9.73430E-13 5.09294E-13
 -1       485 2.09821E+01 5.66384E-01 5.41541E-03-2.34145E-01 2.69115E-13 8.72859E-14
 -1       486 2.08466E+01 1.88739E+00-5.64580E-03-9.12354E-01-3.41219E-13-2.80849E-13
 -1       487 2.08973E+01 7.46470E-01 2.39813E-03 3.79541E-01-1.96580E-13-1.80525E-13
 -1       488 2.09193E+01 5.17170E-01 1.39334E-03 8.26647E-01-1.51198E-13-1.54438E-13
 -1       489 2.10329E+01 3.33671E-01 6.05673E-04 1.14998E+00-1.02801E-13-1.68596E-13
 -1       490 2.12482E+01 1.27448E-01-1.03693E-04 1.35877E+00-4.96483E-14-1.63138E-13
 -1       491 2.15796E+01-1.54768E-01-9.97150E-04 1.43304E+00-6.79574E-14-1.85753E-13
 -1       492 2.20493E+01-5.47929E-01-2.14380E-03 1.32411E+00-2.00102E-14-2.10323E-13
 -1       493 2.26749E+01-1.03929E+00-3.35601E-03 9.60012E-01-5.13391E-14-1.32483E-13
 -1       494 2.34304E+01-1.50894E+00-3.92697E-03 2.71661E-01-8.89028E-14 3.92882E-14
 -1       495 2.41816E+01-1.67001E+00-5.35707E-03-7.27657E-01-5.20614E-14 1.96826E-13
 -1       496 2.46694E+01-1.11334E+00-6.48914E-03-1.79384E+00-2.15157E-13 2.71134E-13
 -1       497 2.46116E+01 3.85960E-01-2.15685E-02-2.32870E+00-3.55965E-13 1.54505E-13
 -1       498 2.41601E+01 2.20334E+00-3.91194E-02-1.64713E+00-4.91839E-13-8.89955E-14
 -1       499 2.39117E+01 3.01406E+00-4.46469E-02 1.55138E-01-4.82125E-13-3.25184E-13
 -1       500 2.42207E+01 2.09405E+00-3.60106E-02 1.89485E+00-2.64226E-13-5.65020E-13
 -1       501 2.46885E+01 2.52328E-01-1.86500E-02 2.47037E+00-7.82061E-14-6.38866E-13
 -1       502 2.47172E+01-1.16940E+00-8.49208E-03 1.87506E+00 5.29566E-14-5.19002E-13
 -1       503 2.42253E+01-1.65826E+00-4.88480E-03 8.04123E-01 2.16684E-13-3.46937E-13
 -1       504 2.34824E+01-1.45708E+00-3.59774E-03-1.66003E-01 2.32023E-13-3.61247E-13
 -1       505 2.27496E+01-9.85131E-01-2.81631E-03-8.22583E-01 3.73981E-13-1.84159E-13
 -1       506 2.21419E+01-5.15522E-01-2.01144E-03-1.17042E+00 2.84672E-13-2.69449E-13
 -1       507 2.16752E+01-1.61201E-01-9.63923E-04-1.28822E+00 6.54766E-14-2.41110E-13
 -1       508 2.13224E+01 6.36194E-02-2.25831E-04-1.25905E+00-1.32677E-13-1.89580E-13
 -1       509 2.10510E+01 1.84599E-01 2.21196E-04-1.14727E+00 1.39750E-14-2.14346E-13
 -1       510 2.08366E+01 2.34599E-01 4.43561E-04-9.97227E-01 8.19806E-14-8.70468E-14
 -1       511 2.06634E+01 2.41285E-01 5.20055E-04-8.37166E-01-1.09537E-13-1.01541E-13
 -1       512 2.05215E+01 2.24353E-01 5.11814E-04-6.83688E-01-1.48360E-13-2.18962E-14
 -1       513 2.04052E+01 1.96501E-01 4.60660E-04-5.45508E-01-1.61958E-13-9.68066E-14
 -1       514 2.03104E+01 1.65311E-01 3.92592E-04-4.26288E-01-3.31567E-14-6.45710E-15
 -1       515 2.02339E+01 1.34983E-01 3.22290E-04-3.26628E-01 7.82215E-15-4.95024E-14
 -1       516 2.01731E+01 1.07611E-01 2.57162E-04-2.45396E-01-3.00520E-14 9.99051E-14
 -1       517 2.01254E+01 8.40364E-02 2.00443E-04-1.80587E-01-4.04299E-14 9.29197E-14
 -1       518 2.00887E+01 6.43881E-02 1.53004E-04-1.29869E-01-1.29227E-13-1.30002E-13
 -1       519 2.00609E+01 4.84238E-02 1.14502E-04-9.08961E-02 1.47464E-13-6.28111E-15
 -1       520 2.00403E+01 3.57276E-02 8.39857E-05-6.14873E-02-1.07484E-14-1.43161E-13
 -1       521 2.00254E+01 2.58235E-02 6.02887E-05-3.97070E-02-1.25064E-13-3.27696E-13
 -1       522 2.00149E+01 1.82373E-02 4.22315E-05-2.38986E-02 1.31925E-13-3.25073E-13
 -1       523 2.00077E+01 1.25279E-02 2.87136E-05-1.26836E-02 2.10347E-13-1.56630E-13
 -1       524 2.00030E+01 8.30150E-03 1.87493E-05-4.94384E-03 3.20341E-13 2.58041E-13
 -1       525 2.00002E+01 5.21445E-03 1.14449E-05 2.04709E-04 1.27783E-13 3.70117E-13
 -1       526 1.99986E+01 2.96972E-03 6.16253E-06 3.44017E-03 2.72865E-13 1.17288E-14
 -1       527 1.99979E+01 1.31073E-03 2.17549E-06 5.26359E-03-6.41210E-15-2.54466E-15
 -1       528 1.99978E+01 1.16911E-05-6.13949E-07 6.02386E-03-2.63747E-15 3.55322E-14
 -1       529 1.99981E+01-1.12562E-03-3.17020E-06 5.94391E-03-2.75888E-13-2.16811E-14
 -1       530 2.11328E+01 2.06666E-01 1.00117E-03-9.05027E-01 1.39436E-13 2.82079E-14
 -1       531 2.13657E+01 4.53630E-02-2.08628E-04-1.04709E+00 6.52628E-14-4.24357E-16
 -1       532 2.16858E+01-1.57851E-01-1.35353E-03-1.05161E+00 4.05005E-14 4.29408E-14
 -1       533 2.20788E+01-4.18665E-01-2.58253E-03-8.84048E-01-2.59536E-14 7.86654E-14
 -1       534 2.25196E+01-7.16774E-01-3.64563E-03-5.03502E-01-5.77113E-14 1.27206E-13
 -1       535 2.29540E+01-9.68202E-01-3.78158E-03 1.06736E-01 6.24274E-14 5.44921E-14
 -1       536 2.32774E+01-1.00663E+00-3.15702E-03 8.82920E-01 4.30704E-14 1.01410E-13
 -1       537 2.33484E+01-6.30154E-01-2.52563E-03 1.60618E+00 3.70577E-14 1.66516E-13
 -1       538 2.30998E+01 2.12852E-01-2.48289E-03 1.89311E+00 1.21857E-13 1.61089E-13
 -1       539 2.26552E+01 1.24231E+00-7.47216E-03 1.40152E+00 1.46762E-13 9.86292E-14
 -1       540 2.23890E+01 1.82169E+00-6.79207E-03 1.74701E-01 1.92236E-13 6.03792E-16
 -1       541 2.25618E+01 1.52021E+00-3.95251E-03-1.17541E+00 1.97448E-13-1.39041E-13
 -1       542 2.30160E+01 5.80986E-01-2.04851E-03-1.96210E+00 2.12345E-13-1.72529E-14
 -1       543 2.34000E+01-3.88474E-01-4.15868E-04-1.90726E+00 4.17242E-14-6.14738E-14
 -1       544 2.34593E+01-9.17072E-01-4.06366E-03-1.29704E+00-1.00327E-13-2.19048E-13
 -1       545 2.32396E+01-9.97174E-01-4.61620E-03-5.18050E-01 6.86950E-15-2.08111E-13
 -1       546 2.28584E+01-7.99186E-01-4.20382E-03 1.52956E-01-1.83996E-14-1.78645E-13
 -1       547 2.24339E+01-5.12758E-01-3.17459E-03 6.10787E-01 9.22717E-14 3.65078E-14
 -1       548 2.20306E+01-2.52706E-01-1.94370E-03 8.59575E-01-1.66542E-13 1.10777E-14
 -1       549 2.16722E+01-6.21154E-02-8.73778E-04 9.46822E-01-1.30960E-13-2.58642E-13
 -1       550 2.13622E+01 5.74803E-02-9.81693E-05 9.26572E-01-1.71828E-14-2.54499E-13
 -1       551 2.10972E+01 1.21036E-01 3.77692E-04 8.44018E-01 6.16150E-14-2.30876E-13
 -1       552 2.08728E+01 1.46162E-01 6.13258E-04 7.31924E-01 8.23596E-14-1.99361E-13
 -1       553 2.06846E+01 1.47623E-01 6.89402E-04 6.11813E-01-1.18009E-13-9.09794E-15
 -1       554 2.05289E+01 1.36065E-01 6.70156E-04 4.96563E-01-3.13113E-14-1.31633E-14
 -1       555 2.04018E+01 1.18484E-01 6.01085E-04 3.93002E-01 1.11769E-13 4.39881E-14
 -1       556 2.02997E+01 9.91499E-02 5.11794E-04 3.04011E-01 4.27228E-14-6.46052E-14
 -1       557 2.02190E+01 8.04779E-02 4.19754E-04 2.30054E-01 1.37650E-13 7.29735E-14
 -1       558 2.01563E+01 6.36966E-02 3.34261E-04 1.70222E-01 1.66289E-13 2.03743E-13
 -1       559 2.01086E+01 4.93039E-02 2.59579E-04 1.22922E-01-4.73233E-14 3.17395E-13
 -1       560 2.00728E+01 3.73719E-02 1.97047E-04 8.63052E-02 3.23146E-15 3.73384E-13
 -1       561 2.00467E+01 2.77430E-02 1.46312E-04 5.85224E-02 2.45404E-13 4.58137E-13
 -1       562 2.00280E+01 2.01502E-02 1.06187E-04 3.78645E-02 1.99913E-14 3.06742E-13
 -1       563 2.00151E+01 1.42877E-02 7.51550E-05 2.28283E-02 8.70947E-14 4.47599E-13
 -1       564 2.00064E+01 9.84991E-03 5.16384E-05 1.21397E-02-2.32695E-13 1.55909E-13
 -1       565 2.00010E+01 6.55248E-03 3.41382E-05 4.75174E-03 8.29583E-15 1.31292E-13
 -1       566 1.99979E+01 4.14061E-03 2.12911E-05-1.71289E-04-7.89822E-15-1.70744E-14
 -1       567 1.99964E+01 2.39029E-03 1.18788E-05-3.27559E-03 6.45099E-14 1.10794E-13
 -1       568 1.99960E+01 1.10513E-03 4.83014E-06-5.04071E-03 3.25870E-13 2.81708E-13
 -1       569 1.99963E+01 1.11595E-04-6.04055E-07-5.80212E-03 2.47580E-13 4.19490E-13
 -1       570 1.99970E+01-7.51198E-04-7.09352E-06-5.78642E-03 3.81440E-14 1.86529E-13
 -1       571 1.99979E+01-1.59986E-03-1.00551E-05-5.10220E-03-2.29662E-13 2.74458E-13
 -1       572 2.00016E+01-4.13359E-03 3.86931E-06-4.15201E-03 5.98353E-14-2.84659E-13
 -1       573 2.00020E+01-4.50272E-03 4.76018E-06-2.90965E-03 1.89263E-13 4.21265E-13
 -1       574 1.99998E+01-2.85271E-03-2.98973E-06-5.51074E-03 1.72347E-13 9.08834E-14
 -1       575 2.00008E+01-3.59057E-03 1.34263E-06-5.07151E-03-1.70476E-13-2.28060E-13
 -1       576 2.00022E+01-4.71398E-03 5.56723E-06-1.49188E-03 2.01209E-13-1.94155E-13
 -1       577 2.00023E+01-4.78375E-03 5.84273E-06 2.66756E-06 1.17448E-13-1.62401E-13
 -1       578 2.00022E+01-4.71939E-03 5.48593E-06 1.49892E-03 6.14935E-14-3.92323E-14
 -1       579 2.00020E+01-4.51681E-03 4.72864E-06 2.89850E-03 7.04298E-14-2.50604E-13
 -1       580 2.00016E+01-4.15020E-03 3.35556E-06 4.15023E-03 1.27351E-13 4.55200E-14
 -1       581 2.00009E+01-3.58269E-03 1.48153E-06 5.09124E-03-1.09478E-13 1.54975E-13
 -1       582 1.99998E+01-2.81821E-03-2.74745E-06 5.49564E-03-2.64239E-13 3.84070E-14
 -1       583 1.86894E+01-5.42726E+00 6.28207E-02 6.38575E+00-1.41276E-14 1.06547E-14
 -1       584 2.89600E+01-2.54195E+00-7.29717E-02 5.63787E-01 3.86996E-13-3.93283E-13
 -1       585 2.10008E+01 3.61432E-01 2.73898E-03-6.39261E-01 2.03354E-13 6.55010E-14
 -1       586 4.45201E+00-1.95358E+00 1.46188E-01 2.17589E+00-2.52999E-13 5.81951E-13
 -1       587 2.60707E+01-5.07273E+00-4.90701E-03 3.34585E+00-1.09867E-13 1.04458E-13
 -1       588 2.50260E+01-5.20614E+00-1.06530E-03 3.94226E+00 1.07366E-13-4.11143E-13
 -1       589 2.13729E+01-5.70305E+00 4.33144E-02-5.83988E+00-3.52836E-13-5.48228E-13
 -1       590 1.88206E+01 3.77197E+00-3.62005E-03-1.30731E-01 6.38935E-14-5.45968E-13
 -1       591 3.03621E+01 6.36076E+00-1.60487E-01-1.39809E+00 7.92283E-13-8.18304E-14
 -1       592 3.09840E+01 7.27442E+00-1.38853E-01 5.90408E-01 8.94701E-13-1.71807E-14
 -1       593 3.11834E+01 4.72934E+00-1.29120E-01 1.51167E+00 5.90986E-13 4.22232E-14
 -1       594 2.99277E+01-3.13976E-01-1.14928E-01 9.59296E-01 8.84813E-14 1.94081E-13
 -1       595 2.73176E+01-4.33121E+00-3.48374E-02-2.58057E+00-1.97682E-13-7.98875E-14
 -1       596 3.02271E+01 6.19772E+00-1.63008E-01 1.50252E+00-8.59743E-13-2.05294E-13
 -1       597 1.40376E+01-4.74527E+00 1.16592E-01-7.05256E+00-3.20910E-13-7.30346E-13
 -1       598 4.49236E+00-1.53469E+00 1.84271E-01-6.66344E-01 3.42703E-14-1.01166E-12
 -1       599 6.41131E+00-2.71915E+00 1.35660E-01 4.50082E+00 1.85844E-13-8.24146E-13
 -1       600 1.97767E+01-5.65220E+00 6.46166E-02 6.25358E+00 1.93866E-13-2.27990E-13
 -1       601 3.04941E+01 6.94604E+00-1.70947E-01-6.37167E-01-1.05412E-12 2.05145E-13
 -1       602 3.03999E+01 1.96707E+00-1.38325E-01 1.96202E+00-3.88550E-13-1.84422E-13
 -1       603 3.08294E+01 3.16339E+00-1.30270E-01-1.58593E+00 8.15452E-13-3.47153E-13
 -1       604 1.25562E+01-4.25450E+00 1.22088E-01 6.77326E+00 2.52180E-13-3.33553E-13
 -1       605 2.91872E+01-2.70323E+00-6.69295E-02-4.28146E-01 1.87289E-14-1.60490E-13
 -1       606 1.78797E+01-5.36358E+00 7.67129E-02-6.41913E+00 3.95142E-13 7.02010E-13
 -1       607 4.93009E+00-1.53091E+00 1.85279E-01-1.85355E+00-1.06257E-13 7.45196E-13
 -1       608 2.12164E+01 1.34060E+00-8.55821E-04 1.01657E+00 4.55721E-13 2.30939E-13
 -1       609 2.98874E+01-7.19352E-01-1.05096E-01-9.10207E-01-6.48214E-13 5.39055E-13
 -1       610 1.98674E+01 2.97231E+00-6.33071E-03-6.36310E-01-1.89898E-13-4.98385E-13
 -1       611 1.53308E+01-4.12101E+00 1.18988E-01 6.43807E+00-2.83489E-13 2.00531E-13
 -1       612 1.99984E+01-1.86833E-03-6.24725E-06 5.47847E-03-2.26614E-13 4.08653E-13
 -1       613 2.87406E+01-4.85323E-01-1.05934E-01-1.58691E+00 4.40970E-13-4.98546E-13
 -1       614 8.21331E+00-1.85359E+00 1.54326E-01 4.50802E+00-4.27207E-13 4.72788E-13
 -1       615 6.98406E+00-7.77495E-01 1.67626E-01 2.04876E+00 2.36719E-13-8.16625E-13
 -1       616 8.28336E+00-1.52579E+00 1.68375E-01-4.06511E+00-1.31943E-14 7.84227E-13
 -1       617 1.46513E+01-3.87838E+00 1.18870E-01-6.31399E+00 2.93786E-13 8.48488E-13
 -1       618 2.77745E+01-3.43473E+00-5.54254E-02 4.33916E-01-3.15081E-13 4.43524E-13
 -1       619 1.90306E+01 3.12110E+00-1.16777E-03 8.99664E-03 2.17432E-13-3.98033E-13
 -1       620 1.88437E+01 3.26539E+00-1.03809E-03-1.98456E-02 1.48901E-13-4.25016E-13
 -1       621 1.98092E+01 2.47054E+00-1.36688E-03 1.63328E-01 3.37714E-13-2.61985E-13
 -1       622 2.03167E+01 1.96084E+00-1.91157E-03 2.59752E-01 3.79880E-13-1.35701E-13
 -1       623 2.05370E+01 1.43414E+00 8.81750E-04 8.63107E-02-1.95453E-13-2.73790E-13
 -1       624 1.77638E+01-4.01618E+00 8.67278E-02 5.84637E+00 3.60208E-13-2.33164E-13
 -1       625 2.07523E+01 1.23303E+00 2.66219E-03 7.66639E-02 3.42507E-13-3.73997E-14
 -1       626 2.14270E+01-3.86819E-01-7.78815E-04-1.34482E+00-1.30844E-15-6.38905E-14
 -1       627 2.05279E+01 1.02761E+00 4.50602E-04 6.22593E-01-1.67115E-13-2.45295E-13
 -1       628 2.05273E+01 7.35513E-01 2.67156E-04 1.05949E+00-1.24002E-13-2.19293E-13
 -1       629 2.05835E+01 4.58814E-01 1.41201E-04 1.40549E+00-3.89414E-14-1.93124E-13
 -1       630 2.07422E+01 1.18115E-01-1.04013E-04 1.66023E+00-7.67906E-14-1.93459E-13
 -1       631 2.10654E+01-3.57422E-01-4.75563E-04 1.80219E+00-3.01055E-14-1.71701E-13
 -1       632 2.16378E+01-1.01411E+00-9.67415E-04 1.77457E+00 5.50308E-14-2.19794E-14
 -1       633 2.25466E+01-1.81770E+00-1.46141E-03 1.46914E+00 1.09563E-13 1.12494E-13
 -1       634 2.38144E+01-2.54217E+00-1.38752E-03 7.30634E-01 2.44837E-14 2.90059E-13
 -1       635 2.52528E+01-2.57046E+00-1.53275E-03-5.50184E-01-6.15463E-14 4.48127E-13
 -1       636 2.62466E+01-1.27390E+00-4.39822E-02-1.96067E+00-4.05760E-13 5.56583E-13
 -1       637 2.64106E+01 1.78569E+00-8.81005E-02-2.46735E+00-6.47447E-13 2.48353E-13
 -1       638 2.61410E+01 4.58631E+00-1.04742E-01-1.06556E+00-7.58817E-13-1.41762E-14
 -1       639 2.61556E+01 4.44522E+00-1.20209E-01 1.40582E+00-5.96204E-13-2.81304E-13
 -1       640 2.64571E+01 1.52671E+00-8.85830E-02 2.67623E+00-3.02289E-13-5.55323E-13
 -1       641 2.62065E+01-1.38994E+00-3.35957E-02 2.00991E+00 1.80350E-13-4.95555E-13
 -1       642 2.51095E+01-2.62797E+00-1.04538E-02 5.64689E-01 2.99079E-13-1.83836E-13
 -1       643 2.36950E+01-2.45854E+00 2.45968E-04-6.41025E-01 2.96740E-13-3.05214E-14
 -1       644 2.24594E+01-1.72961E+00 7.89204E-04-1.32943E+00 2.54652E-13-1.77309E-13
 -1       645 2.15687E+01-9.55874E-01-5.50594E-04-1.61458E+00 2.99863E-13-2.72654E-13
 -1       646 2.09994E+01-3.55434E-01-2.28115E-04-1.65121E+00 2.03572E-13-2.76418E-13
 -1       647 2.06579E+01 3.80625E-02-2.82319E-05-1.55483E+00-6.44785E-14-2.72764E-13
 -1       648 2.04584E+01 2.61616E-01 1.09859E-04-1.39359E+00-2.66549E-14-8.42733E-14
 -1       649 2.03403E+01 3.65375E-01 1.67742E-04-1.20674E+00 1.09349E-13-2.11383E-13
 -1       650 2.02662E+01 3.92942E-01 1.79353E-04-1.01719E+00 1.78935E-14-2.14333E-13
 -1       651 2.02151E+01 3.76471E-01 1.67409E-04-8.38192E-01-1.16853E-13-7.70690E-14
 -1       652 2.01761E+01 3.37537E-01 1.45457E-04-6.76876E-01-1.69053E-13 1.04399E-13
 -1       653 2.01443E+01 2.89637E-01 1.21032E-04-5.36431E-01-1.33334E-13-7.18534E-14
 -1       654 2.01172E+01 2.40697E-01 9.80001E-05-4.17495E-01 5.21127E-14-1.57168E-13
 -1       655 2.00940E+01 1.95030E-01 7.76958E-05-3.19101E-01-1.35348E-14-2.56846E-13
 -1       656 2.00742E+01 1.54684E-01 6.03830E-05-2.39354E-01-1.55945E-13-3.15101E-13
 -1       657 2.00576E+01 1.20347E-01 4.58999E-05-1.75918E-01-1.03402E-13-2.68798E-13
 -1       658 2.00439E+01 9.19295E-02 3.41720E-05-1.26349E-01-4.03406E-14-1.43623E-13
 -1       659 2.00329E+01 6.89468E-02 2.49379E-05-8.82882E-02-1.27595E-14-1.77282E-13
 -1       660 2.00241E+01 5.07306E-02 1.78101E-05-5.95783E-02-1.06706E-13-5.64584E-14
 -1       661 2.00173E+01 3.65584E-02 1.24083E-05-3.83202E-02 8.48453E-14-7.51897E-15
 -1       662 2.00121E+01 2.57257E-02 8.38637E-06-2.28951E-02 1.47872E-14-1.55130E-13
 -1       663 2.00082E+01 1.75837E-02 5.43361E-06-1.19595E-02 3.88931E-13-5.31188E-13
 -1       664 2.00053E+01 1.15550E-02 3.27080E-06-4.42606E-03 3.22044E-13-5.49520E-13
 -1       665 2.00032E+01 7.13572E-03 1.53664E-06 5.62881E-04 4.58139E-14-3.95588E-13
 -1       666 2.00018E+01 3.88952E-03 4.70054E-07 3.66164E-03 1.88533E-14-3.31054E-13
 -1       667 2.00008E+01 1.44650E-03 7.24382E-07 5.35646E-03-4.73442E-14-1.90769E-13
 -1       668 2.00002E+01-5.30977E-04-2.52789E-06 5.97493E-03-5.56004E-14-2.05940E-13
 -1       669 2.10863E+01-6.49548E-03-2.76615E-04-1.32382E+00 7.75144E-14-4.10908E-14
 -1       670 1.15437E+01-1.92048E+00 1.42178E-01 5.17985E+00 4.05394E-13-4.37497E-13
 -1       671 2.08774E+01 2.89740E-01 1.19545E-04-1.15771E+00 1.05678E-13-2.42246E-14
 -1       672 2.19305E+01-8.64825E-01-1.54535E-03-1.17245E+00-4.00611E-14-3.14941E-14
 -1       673 2.26068E+01-1.38320E+00-2.24594E-03-7.41476E-01 2.01560E-14-5.86418E-14
 -1       674 2.34021E+01-1.76137E+00-1.63189E-03-9.59231E-04-3.99107E-14 9.12572E-14
 -1       675 2.41293E+01-1.65104E+00-3.23461E-03 9.96091E-01-4.65394E-14 2.13483E-13
 -1       676 2.45095E+01-6.80022E-01-2.52567E-03 1.93838E+00 6.01760E-14 3.06546E-13
 -1       677 2.41697E+01 1.11467E+00-3.36037E-02 2.16455E+00 1.98160E-13 3.50384E-13
 -1       678 2.37388E+01 2.81517E+00-4.79924E-02 1.14022E+00 2.64789E-13 2.00410E-13
 -1       679 2.36602E+01 3.16239E+00-5.73992E-02-6.94459E-01 3.18292E-13-3.79323E-14
 -1       680 2.41780E+01 1.76467E+00-2.45109E-02-2.10878E+00 2.05837E-13-1.72531E-13
 -1       681 2.44616E+01-9.03174E-02-3.39269E-02-2.30550E+00 2.01826E-13-2.25582E-13
 -1       682 2.43648E+01-1.40569E+00-9.03526E-04-1.54362E+00 8.10178E-14-2.98866E-13
 -1       683 2.37212E+01-1.77280E+00-3.83507E-03-4.92646E-01-9.37875E-14-2.97691E-13
 -1       684 2.29221E+01-1.51697E+00-2.40199E-03 3.47449E-01-4.20571E-14-2.03463E-13
 -1       685 2.21933E+01-1.03189E+00-1.57764E-03 8.80870E-01-3.18489E-14-1.80160E-13
 -1       686 2.16198E+01-5.57866E-01-9.81382E-04 1.14922E+00 1.32019E-16 2.27164E-14
 -1       687 2.12018E+01-1.92995E-01-5.14286E-04 1.22883E+00-3.52399E-14-2.71628E-14
 -1       688 2.09057E+01 4.77491E-02-1.55311E-04 1.18957E+00-1.01778E-14-2.25798E-13
 -1       689 2.06948E+01 1.85399E-01 7.98730E-05 1.08317E+00-4.78011E-14-2.28161E-13
 -1       690 2.05405E+01 2.49049E-01 1.89017E-04 9.44904E-01 1.14880E-14-1.35664E-13
 -1       691 2.04236E+01 2.64798E-01 2.30253E-04 7.97696E-01-8.21657E-14-5.55208E-15
 -1       692 2.03324E+01 2.52414E-01 2.32810E-04 6.55562E-01-5.10130E-14-3.00907E-14
 -1       693 2.02597E+01 2.25501E-01 2.13969E-04 5.26326E-01-6.57877E-14 1.80425E-14
 -1       694 2.02011E+01 1.92766E-01 1.85528E-04 4.13653E-01 5.76485E-14 3.90312E-14
 -1       695 2.01539E+01 1.59435E-01 1.54636E-04 3.18535E-01 1.05078E-13 2.46611E-14
 -1       696 2.01161E+01 1.28404E-01 1.24988E-04 2.40325E-01 4.00760E-14-1.27232E-14
 -1       697 2.00861E+01 1.01073E-01 9.83182E-05 1.77459E-01-8.57105E-14 1.51923E-13
 -1       698 2.00626E+01 7.79130E-02 7.55540E-05 1.27950E-01 1.57949E-14 2.03962E-13
 -1       699 2.00445E+01 5.88591E-02 5.68063E-05 8.97091E-02 1.82410E-13 2.28146E-14
 -1       700 2.00308E+01 4.35644E-02 4.17827E-05 6.07310E-02 1.24711E-13 1.33121E-13
 -1       701 2.00206E+01 3.15508E-02 3.00268E-05 3.91983E-02-1.00795E-13 2.92136E-13
 -1       702 2.00132E+01 2.23014E-02 2.10225E-05 2.35297E-02-6.16669E-14 5.34505E-13
 -1       703 2.00080E+01 1.53124E-02 1.42536E-05 1.23946E-02 9.47850E-14 4.30383E-13
 -1       704 2.00044E+01 1.01197E-02 9.24579E-06 4.70479E-03 2.73158E-13 1.08813E-13
 -1       705 2.00020E+01 6.30897E-03 5.56600E-06-4.04197E-04 1.30241E-13-2.35593E-13
 -1       706 2.00005E+01 3.51708E-03 2.80321E-06-3.59771E-03-1.73885E-14-3.64505E-13
 -1       707 1.99997E+01 1.42659E-03 9.69915E-07-5.36665E-03 2.58516E-14 1.38140E-13
 -1       708 1.99993E+01-2.42648E-04 1.17875E-06-6.05710E-03 1.34172E-13 5.93448E-13
 -1       709 1.99996E+01-1.48096E-03-7.82426E-07-5.99676E-03-3.00618E-14 5.11543E-13
 -1       710 2.00036E+01-1.05707E-03 1.78719E-06-7.57987E-04 2.83542E-13-3.61774E-13
 -1       711 2.00030E+01-1.31563E-03 8.66312E-07-3.65131E-03 5.14911E-13 1.38741E-13
 -1       712 2.00036E+01-1.06328E-03 1.86759E-06 7.55842E-04 1.22565E-14-1.55416E-13
 -1       713 2.00034E+01-1.15542E-03 1.61611E-06-2.24757E-03 3.36779E-13 7.92690E-14
 -1       714 2.07702E+01 5.49392E-01 7.01057E-04-8.70014E-01 2.02519E-13-6.19689E-14
 -1       715 2.00034E+01-1.17085E-03 7.31592E-07 2.22667E-03 7.57046E-14-1.24270E-13
 -1       716 2.00030E+01-1.33150E-03 2.18140E-07 3.64439E-03 1.25838E-13-1.03824E-13
 -1       717 2.00021E+01-1.46228E-03 1.28891E-06 4.87444E-03 1.03479E-13 1.02220E-13
 -1       718 2.64620E+01-4.11287E+00-2.14428E-02 1.18751E+00-4.88967E-14-5.61211E-13
 -1       719 2.72733E+01 6.05925E+00-1.63664E-01-3.81205E-01 7.48693E-13 1.37347E-13
 -1       720 2.26226E+01-5.12376E+00 2.45394E-02 4.32756E+00-1.42872E-13-5.26277E-13
 -1       721 2.30207E+01-5.32607E+00 3.37394E-02-4.34528E+00 5.16254E-13 1.38999E-13
 -1       722 2.68910E+01-4.24365E+00-3.81625E-02-1.03871E+00 3.90756E-13-1.08306E-13
 -1       723 1.99999E+01-1.70870E-03-5.09244E-06 5.90312E-03 5.44255E-14 5.68892E-14
 -1       724 7.29668E+00-1.44339E-01 1.84745E-01 5.17561E-01-3.66328E-13 3.84047E-13
 -1       725 2.76085E+01-3.02227E+00-4.82569E-02 1.02519E-01-2.53270E-13 2.24931E-13
 -1       726 2.81868E+01-1.09056E+00-7.75623E-02 1.84017E+00 1.75693E-14-2.59921E-13
 -1       727 1.93639E+01 2.85501E+00-1.33533E-03 7.02383E-02 2.93075E-13-3.31174E-13
 -1       728 1.92990E+01 2.91877E+00-1.49994E-03-8.51998E-02-5.02144E-14-4.52957E-13
 -1       729 8.36699E+00-9.63569E-01 1.64323E-01-3.40641E+00-1.26777E-13-7.73166E-13
 -1       730 2.81362E+01 1.99345E+00-1.21321E-01 2.22747E+00 2.47791E-13 3.79922E-13
 -1       731 2.35640E+01-5.03217E+00 5.02566E-02 3.83377E+00 2.53008E-13 5.93826E-14
 -1       732 1.88177E+01-4.71573E+00 6.90748E-02-5.95526E+00-4.34413E-13-5.19852E-13
 -1       733 1.29575E+01-2.68098E+00 1.21034E-01-5.85232E+00-3.00586E-13-6.00006E-13
 -1       734 2.77026E+01 4.73354E+00-1.59443E-01 1.76130E+00 5.43114E-13 3.90691E-13
 -1       735 2.48070E+01-5.10812E+00 1.77289E-02-3.32075E+00-3.88849E-13-1.99285E-14
 -1       736 2.07375E+01 8.35415E-01 1.30858E-03-4.63896E-01 2.60749E-13-7.19871E-14
 -1       737 2.82613E+01 2.90169E+00-1.24147E-01 2.55208E+00-5.19605E-13-3.47205E-13
 -1       738 2.79820E+01 1.02187E+00-1.30295E-01-2.31563E+00-7.47614E-13 5.76077E-13
 -1       739 2.78167E+01 3.65282E+00-1.47326E-01-2.33877E+00 5.29840E-13-1.95600E-13
 -1       740 1.97400E+01 2.54720E+00-2.28287E-03-1.54768E-01-1.30158E-13-4.74229E-13
 -1       741 1.88269E+01 3.28066E+00-1.03542E-03-3.11418E-02 8.85517E-14-4.86938E-13
 -1       742 1.97852E+01-4.59140E+00 6.47607E-02-5.21941E+00 5.21690E-13 2.75123E-13
 -1       743 1.97305E+01-4.34688E+00 6.52298E-02 5.14390E+00-2.87565E-13-2.76711E-13
 -1       744 2.00012E+01-1.68324E-03 1.41982E-07-5.50722E-03 9.70927E-14-2.77211E-13
 -1       745 2.68642E+01-2.63549E+00-4.51051E-02-8.32158E-01 7.11367E-15-5.16771E-13
 -1       746 1.30040E+01-2.43535E+00 1.14108E-01 5.54292E+00-4.70436E-13 3.95930E-13
 -1       747 2.57207E+01-4.39717E+00-2.74218E-02 1.38421E+00 8.77484E-14 3.65766E-13
 -1       748 8.76598E+00-6.38169E-02 1.36381E-01-1.68801E+00-1.64760E-13 4.84356E-13
 -1       749 2.70184E+01-8.52381E-01-6.02570E-02 1.82111E+00-6.68753E-14 3.39850E-13
 -1       750 1.27559E+01-1.99686E+00 1.07505E-01-5.11162E+00 6.51770E-14 9.17308E-13
 -1       751 8.48699E+00 4.37973E-02 1.33748E-01-8.44153E-01 6.56977E-14-7.16212E-13
 -1       752 2.72309E+01 5.79682E+00-1.52095E-01 4.80159E-01-7.78100E-13-1.25379E-14
 -1       753 2.00022E+01-1.57005E-03 7.97207E-07-4.69514E-03 1.55977E-13-7.04161E-14
 -1       754 1.89838E+01 3.16486E+00-1.08690E-03-4.67787E-02 2.10585E-14-4.72443E-13
 -1       755 2.03662E+01 1.91518E+00-9.09900E-04-2.25644E-01-2.11287E-13-3.24603E-13
 -1       756 2.00014E+01-9.14035E-04-2.66273E-07 5.54627E-03 1.89321E-13 1.39352E-13
 -1       757 2.76318E+01 4.63528E+00-1.45060E-01-1.79411E+00-8.48724E-13 3.17434E-13
 -1       758 2.01125E+01 1.71461E+00 7.54967E-04-2.21423E-01 2.86302E-13-1.75089E-13
 -1       759 2.65354E+01 5.48005E-01-5.48259E-02-2.43146E+00 2.94011E-13-4.27554E-13
 -1       760 2.10412E+01-6.80660E-01-3.68518E-04-1.73814E+00-5.55169E-14-1.26927E-13
 -1       761 2.00298E+01 1.25674E+00-3.65007E-04 8.23198E-01-1.09406E-13-2.67689E-13
 -1       762 1.99638E+01 9.24025E-01 2.19796E-04 1.24326E+00-6.40832E-14-2.45785E-13
 -1       763 1.99321E+01 5.68843E-01 1.09180E-04 1.61952E+00-7.21103E-14-2.17370E-13
 -1       764 2.00050E+01 1.04654E-01 8.57836E-05 1.96235E+00-3.71311E-14-1.88740E-13
 -1       765 2.02861E+01-5.58983E-01 2.40828E-04 2.26459E+00 9.46953E-14-1.34160E-13
 -1       766 2.09345E+01-1.49501E+00 1.17251E-03 2.47114E+00 2.05537E-13-6.27549E-14
 -1       767 2.21570E+01-2.67600E+00 2.04273E-03 2.41203E+00 2.26328E-13 1.00072E-13
 -1       768 2.62513E+01-3.46153E+00-1.48733E-02 3.62240E-02 4.07597E-13-2.74258E-13
 -1       769 2.39720E+01-3.49324E+00 2.07822E-03-1.44061E+00 4.45362E-13-8.19878E-14
 -1       770 2.21625E+01-2.52137E+00 4.44283E-03-2.07139E+00 1.43399E-13-1.03681E-13
 -1       771 2.09604E+01-1.41678E+00 3.98655E-05-2.18812E+00 2.55222E-13-9.88574E-14
 -1       772 2.02962E+01-5.69349E-01 4.44473E-04-2.04795E+00 2.26842E-13-1.99786E-13
 -1       773 1.99707E+01-9.27361E-03 1.57657E-04-1.82184E+00 6.40141E-14-2.66684E-13
 -1       774 1.98425E+01 3.17718E-01 1.72391E-04-1.57907E+00 2.18807E-14-1.80778E-13
 -1       775 1.98166E+01 4.79697E-01 1.62757E-04-1.34427E+00-2.08626E-14-7.71115E-14
 -1       776 1.98374E+01 5.34303E-01 1.38151E-04-1.12662E+00 2.96072E-15-3.26685E-13
 -1       777 1.98743E+01 5.24383E-01 1.11195E-04-9.29946E-01 3.85241E-14-3.35304E-13
 -1       778 1.99122E+01 4.79387E-01 8.68937E-05-7.55877E-01-1.74906E-14-1.58635E-13
 -1       779 1.99446E+01 4.18379E-01 6.71484E-05-6.04810E-01-2.84313E-13-2.68878E-14
 -1       780 1.99696E+01 3.53039E-01 5.24138E-05-4.76224E-01-2.06647E-13-1.57691E-14
 -1       781 1.99875E+01 2.90135E-01 4.17550E-05-3.68842E-01-5.82333E-14-1.47745E-13
 -1       782 1.99995E+01 2.33238E-01 3.34716E-05-2.80786E-01-1.76555E-13-4.06611E-13
 -1       783 2.00068E+01 1.83870E-01 2.59340E-05-2.09823E-01-1.69383E-14-4.34663E-13
 -1       784 2.00108E+01 1.42322E-01 1.94750E-05-1.53603E-01-3.79420E-14-5.00991E-13
 -1       785 2.00125E+01 1.08204E-01 1.43587E-05-1.09816E-01 5.11743E-14-3.64092E-13
 -1       786 2.00127E+01 8.07738E-02 1.04048E-05-7.62931E-02-5.87490E-15-5.07094E-13
 -1       787 2.00119E+01 5.91408E-02 7.39232E-06-5.10760E-02-3.51750E-15-3.59944E-13
 -1       788 2.00106E+01 4.23834E-02 5.12384E-06-3.24587E-02-8.34119E-15-2.95985E-13
 -1       789 2.00091E+01 2.96228E-02 3.43577E-06-1.89961E-02 1.15462E-13-8.68925E-14
 -1       790 2.00075E+01 2.00591E-02 2.16734E-06-9.49479E-03 1.79607E-13-4.10311E-13
 -1       791 2.00059E+01 1.29848E-02 1.08017E-06-2.99277E-03 1.92621E-13-8.11165E-13
 -1       792 2.00045E+01 7.78192E-03 4.06751E-07 1.26621E-03 1.88853E-13-7.38350E-13
 -1       793 2.00033E+01 3.92123E-03 2.10631E-06 3.83678E-03 8.25158E-14-4.30886E-13
 -1       794 2.00023E+01 1.27882E-03 9.19153E-07 5.06993E-03-1.72876E-14-1.50193E-13
 -1       795 2.06466E+01-1.01474E-01-1.31132E-04-1.62953E+00 5.28047E-14-9.34747E-14
 -1       796 1.09465E+01-4.13067E-02 1.03296E-01 2.80139E+00 2.96948E-13-5.77340E-13
 -1       797 2.00048E+01 2.81243E-03 6.59571E-07 1.28718E-03 4.32429E-13-5.54698E-14
 -1       798 2.27397E+01-2.19787E+00-1.41174E-03-1.27673E+00-1.38658E-13-6.13533E-14
 -1       799 2.40605E+01-2.74805E+00-4.76297E-03-4.26541E-01-1.38439E-13 4.71693E-14
 -1       800 2.53231E+01-2.30921E+00-1.74612E-02 8.82100E-01-1.54353E-13 1.71320E-13
 -1       801 2.31173E+01-2.39290E+00 1.31675E-03 8.83324E-01-1.92498E-13-2.03181E-13
 -1       802 2.19638E+01-1.66585E+00 3.63484E-04 1.40318E+00-1.56905E-13-4.79514E-14
 -1       803 2.11529E+01-9.33112E-01-8.86387E-05 1.58094E+00-1.60918E-13 9.16927E-14
 -1       804 2.06427E+01-3.62225E-01-1.57604E-04 1.56387E+00-2.46158E-14 1.31407E-13
 -1       805 2.03463E+01 2.12533E-02-1.02482E-04 1.44634E+00 1.63044E-13 3.81764E-14
 -1       806 2.01855E+01 2.48732E-01 7.10230E-05 1.28451E+00 2.34727E-14 3.79918E-16
 -1       807 2.01041E+01 3.62234E-01 9.27317E-05 1.10776E+00-1.03300E-13-5.10411E-14
 -1       808 2.00659E+01 3.99864E-01 8.62557E-05 9.32845E-01-8.87133E-14-4.63254E-14
 -1       809 2.00492E+01 3.91028E-01 7.74368E-05 7.69309E-01-1.13852E-13 7.12389E-14
 -1       810 2.00422E+01 3.56553E-01 6.70835E-05 6.22325E-01 1.06429E-13 2.07192E-14
 -1       811 2.00389E+01 3.10256E-01 5.61275E-05 4.94207E-01 1.23138E-14-2.94992E-13
 -1       812 2.00363E+01 2.60778E-01 4.62698E-05 3.85386E-01-7.70731E-14-2.98279E-13
 -1       813 2.00335E+01 2.13218E-01 3.77042E-05 2.95050E-01 7.83481E-14 5.43317E-14
 -1       814 2.00302E+01 1.70303E-01 2.96971E-05 2.21587E-01-6.23151E-14 6.87112E-14
 -1       815 2.00266E+01 1.33204E-01 2.28107E-05 1.62968E-01-2.22219E-14-1.27169E-14
 -1       816 2.00228E+01 1.02141E-01 1.71468E-05 1.17043E-01-6.67086E-14 1.58772E-13
 -1       817 2.00192E+01 7.67995E-02 1.26137E-05 8.17086E-02-3.87432E-14 5.88108E-13
 -1       818 2.00158E+01 5.65864E-02 9.08116E-06 5.50154E-02-1.73620E-13 8.11986E-13
 -1       819 2.00127E+01 4.07893E-02 6.38038E-06 3.52328E-02-7.48106E-14 7.18892E-13
 -1       820 2.00100E+01 2.86755E-02 4.35276E-06 2.08748E-02 1.09371E-13 1.73083E-13
 -1       821 2.00077E+01 1.95474E-02 2.83193E-06 1.07018E-02 3.63699E-13-7.71521E-14
 -1       822 2.00057E+01 1.27706E-02 1.70122E-06 3.70709E-03 1.71346E-13 3.27391E-13
 -1       823 2.00041E+01 7.78197E-03 7.87639E-07-9.03705E-04 7.65376E-14 5.10240E-13
 -1       824 2.00028E+01 4.09228E-03 1.85230E-07-3.73878E-03-2.55744E-14 8.48924E-14
 -1       825 2.00018E+01 1.28203E-03 1.21514E-06-5.22602E-03-3.79332E-15-1.96892E-13
 -1       826 2.00015E+01-1.84822E-04-3.88501E-06-5.53493E-03-1.53109E-13-1.59346E-13
 -1       827 2.03696E+01 7.00155E-01 1.12356E-04-1.09065E+00 1.48049E-13-9.67310E-14
 -1       828 2.11924E+01-3.77889E+00 3.84381E-02 4.06170E+00 3.24413E-13-4.65435E-14
 -1       829 2.00049E+01 3.00681E-03 6.26787E-07-1.89300E-05 2.42091E-13-4.66829E-13
 -1       830 2.41098E+01-4.28193E+00-3.91396E-04 2.26405E+00-1.98272E-13-4.76110E-13
 -1       831 2.00037E+01 1.59208E-03 5.92219E-06 3.87924E-03 2.04597E-13 2.19473E-14
 -1       832 1.25319E+01-7.67669E-01 8.36858E-02-3.94173E+00-1.64043E-13-4.91242E-13
 -1       833 2.55525E+01-3.96026E+00-1.37424E-03-1.13647E+00-3.19218E-13 1.42975E-13
 -1       834 1.58696E+01-1.90207E+00 6.16054E-02 4.76728E+00 3.78921E-13-2.91199E-13
 -1       835 2.00045E+01 2.30013E-03-3.26941E-07 2.59025E-03 2.24483E-13-5.67564E-14
 -1       836 2.04472E+01 3.39195E-01-5.06449E-05-1.40449E+00 1.00341E-13-1.01945E-13
 -1       837 2.00776E+01 1.65949E+00-1.03408E-04 3.53069E-01-1.52984E-13-3.22639E-13
 -1       838 2.77799E+01-1.09344E+00-3.41751E-02-1.92420E+00-5.62815E-13 5.61128E-13
 -1       839 1.03786E+01-2.89960E-01 1.14679E-01 3.05584E+00-4.10671E-13 4.52135E-13
 -1       840 2.17180E+01-1.41303E+00-1.13411E-03-1.66024E+00-2.23238E-14-1.29366E-13
 -1       841 1.88911E+01 2.73609E+00-2.07465E-04-1.45296E-01 1.47397E-13-3.75180E-13
 -1       842 2.04482E+01 1.25629E+00-3.27744E-06-3.41397E-01 2.89002E-13-8.87789E-14
 -1       843 1.99236E+01 2.08299E+00-3.21534E-04 8.61605E-02-1.42162E-13-3.85989E-13
 -1       844 1.72653E+01-2.87600E+00 5.77330E-02-5.18425E+00-3.36378E-13-4.37178E-13
 -1       845 2.21268E+01-4.32265E+00 2.22806E-02-3.86778E+00-3.99186E-13-1.48194E-13
 -1       846 1.87685E+01 2.83041E+00-2.62321E-04-4.09723E-02 1.11898E-13-4.13977E-13
 -1       847 1.70657E+01-3.14363E+00 4.35174E-02-5.20155E+00 2.96683E-13 2.74168E-13
 -1       848 2.00031E+01 1.45495E-03 7.96398E-07 4.51840E-03 2.71991E-13 1.62629E-14
 -1       849 1.17543E+01 2.75113E-01 6.88177E-02-2.24099E+00-3.74423E-14-4.99141E-13
 -1       850 2.21817E+01-4.00420E+00 2.39716E-02 3.36227E+00-1.95595E-13-5.63013E-13
 -1       851 2.41535E+01-3.79047E+00-1.24677E-02 1.77150E+00 1.60599E-13 2.90058E-13
 -1       852 2.44431E+01-2.68379E+00 1.47991E-03-7.58763E-02-1.11839E-14-2.13003E-13
 -1       853 2.00044E+01 2.30478E-03 2.56168E-09-2.61533E-03 4.39899E-13 2.72538E-13
 -1       854 1.91054E+01 2.58113E+00-2.73684E-04 1.66321E-01-1.18631E-14-4.09266E-13
 -1       855 2.52407E+01-3.58308E+00-2.56527E-03 5.39963E-01-6.33694E-14-4.67208E-13
 -1       856 2.00048E+01 2.82542E-03 2.34652E-07-1.31292E-03 3.51714E-13-3.88469E-13
 -1       857 1.71974E+01-3.07047E+00 6.32307E-02 5.17422E+00-4.46572E-13 1.20650E-14
 -1       858 1.94790E+01 2.37571E+00-3.99033E-04 1.58894E-01-7.16835E-14-4.16706E-13
 -1       859 9.97824E+00 3.84956E-01 1.08636E-01 1.09287E+00-2.39139E-13 3.23269E-13
 -1       860 1.16653E+01-4.34897E-01 8.54710E-02-3.33915E+00-6.49047E-14 6.18790E-13
 -1       861 1.96163E+01 2.15875E+00-1.61868E-04-2.34500E-01 2.48833E-13-2.79486E-13
 -1       862 2.42802E+01-4.38582E+00 8.94913E-03-2.21876E+00 5.50142E-13-7.45749E-14
 -1       863 2.22544E+01-4.03851E+00 4.20453E-02-3.44351E+00 4.81653E-13-2.32453E-15
 -1       864 2.00038E+01 1.53593E-03-4.48037E-07-3.73193E-03 3.12544E-13 1.51344E-13
 -1       865 1.91882E+01 2.50602E+00-2.83122E-04-2.12669E-01 2.12605E-13-3.24955E-13
 -1       866 2.04055E+01 9.60501E-01-9.35040E-05-7.47258E-01 2.22414E-13-1.02236E-13
 -1       867 1.88419E+01 2.77785E+00-5.56929E-04 7.26464E-02 4.99982E-14-4.22489E-13
 -1       868 1.92503E+01 1.09644E+00 2.35861E-04 1.33782E+00-2.87019E-14-2.36798E-13
 -1       869 1.90594E+01 7.00099E-01 1.54116E-04 1.75690E+00 1.37596E-15-1.77583E-13
 -1       870 1.89399E+01 1.62370E-01 5.86221E-04 2.23099E+00 6.59824E-14-1.00462E-13
 -1       871 1.90084E+01-6.28227E-01 2.30171E-03 2.79190E+00 1.57952E-13-9.82799E-14
 -1       872 1.95196E+01-1.80151E+00 9.52530E-03 3.42319E+00 2.82941E-13-7.33615E-14
 -1       873 2.00430E+01-2.85216E+00 2.60101E-02-3.91435E+00-3.15596E-13-2.01762E-13
 -1       874 1.96299E+01-1.75090E+00 1.03944E-02-3.10663E+00 8.88109E-14-1.29300E-13
 -1       875 1.90328E+01-6.62242E-01 1.50318E-03-2.59499E+00 1.95467E-13-1.54174E-13
 -1       876 1.88877E+01 3.32327E-02 4.26829E-04-2.10414E+00 6.22905E-14-1.95278E-13
 -1       877 1.89388E+01 4.36209E-01 7.73625E-05-1.71584E+00 2.13275E-13-6.54414E-14
 -1       878 1.90767E+01 6.39528E-01 5.49667E-05-1.40604E+00 1.12787E-13 1.85596E-14
 -1       879 1.92405E+01 7.12407E-01 4.54803E-05-1.15417E+00-1.55898E-13 7.34763E-14
 -1       880 1.93996E+01 7.04991E-01 3.34887E-05-9.44791E-01-1.28846E-14-1.42348E-14
 -1       881 1.95400E+01 6.51910E-01 2.13953E-05-7.68015E-01 9.45223E-14-4.12502E-14
 -1       882 1.96572E+01 5.76219E-01 9.24526E-06-6.17948E-01-3.41330E-14-1.09462E-13
 -1       883 1.97513E+01 4.92618E-01 2.91038E-06-4.90970E-01-1.20760E-13 1.07158E-13
 -1       884 1.98246E+01 4.10100E-01 3.33444E-06-3.84606E-01-1.31356E-13 1.93568E-13
 -1       885 1.98802E+01 3.33891E-01 6.47224E-06-2.96681E-01-1.15327E-13-6.18716E-14
 -1       886 1.99215E+01 2.66570E-01 6.12338E-06-2.25022E-01-1.76935E-13-3.52793E-14
 -1       887 1.99513E+01 2.08969E-01 4.00238E-06-1.67512E-01-1.14568E-13-8.96970E-14
 -1       888 1.99723E+01 1.60938E-01 2.45017E-06-1.22110E-01 9.88396E-14 3.23722E-15
 -1       889 1.99867E+01 1.21770E-01 1.54718E-06-8.68584E-02-1.55047E-13-2.16661E-13
 -1       890 1.99961E+01 9.04585E-02 1.00848E-06-5.99460E-02 1.27628E-14-3.35461E-13
 -1       891 2.00018E+01 6.58830E-02 6.59935E-07-3.97594E-02 1.10323E-13-4.12056E-13
 -1       892 2.00051E+01 4.69264E-02 4.11659E-07-2.49038E-02 5.66315E-14-3.21564E-13
 -1       893 2.00065E+01 3.25426E-02 2.14522E-07-1.42039E-02 1.65883E-13-5.03309E-13
 -1       894 2.00068E+01 2.17885E-02 1.34979E-07-6.69247E-03 3.21102E-14-4.82140E-13
 -1       895 2.00063E+01 1.38346E-02 8.45781E-07-1.60173E-03 1.53631E-13-3.95319E-13
 -1       896 2.00053E+01 7.88399E-03-1.52651E-05 1.70662E-03 4.99128E-13-4.32271E-13
 -1       897 2.26153E+01-3.10479E+00 1.44340E-02-2.30036E+00-2.50991E-13-3.24055E-14
 -1       898 2.14378E+01-2.31453E+00 5.30041E-03 2.29562E+00-2.58486E-13-2.14897E-13
 -1       899 1.96262E+01 2.05711E-02-3.18043E-04 1.70982E+00 7.54878E-14-1.50610E-13
 -1       900 1.95504E+01 3.31042E-01 1.36440E-04 1.45010E+00 1.46002E-14 9.39475E-14
 -1       901 1.95656E+01 4.90902E-01 9.61518E-05 1.21500E+00-5.98667E-14 8.28920E-14
 -1       902 1.96224E+01 5.49693E-01 4.22000E-05 1.00722E+00-1.30236E-13 5.12894E-14
 -1       903 1.96929E+01 5.45028E-01 1.89927E-05 8.25338E-01-1.81113E-13 4.50194E-14
 -1       904 1.97622E+01 5.03777E-01 1.04567E-05 6.67713E-01-2.17175E-14-1.01824E-13
 -1       905 1.98233E+01 4.44287E-01 7.71870E-06 5.32715E-01 1.86170E-13 1.47328E-13
 -1       906 1.98739E+01 3.78381E-01 6.16538E-06 4.18669E-01-2.68133E-14 2.72941E-13
 -1       907 1.99139E+01 3.13355E-01 5.83257E-06 3.23851E-01-7.70072E-14-1.93554E-15
 -1       908 1.99443E+01 2.53464E-01 4.03125E-06 2.46306E-01-1.01305E-13 6.58130E-14
 -1       909 1.99666E+01 2.00783E-01 2.62730E-06 1.83891E-01-1.62655E-13 2.75462E-13
 -1       910 1.99823E+01 1.55970E-01 1.64191E-06 1.34471E-01-5.37776E-14 3.20672E-13
 -1       911 1.99931E+01 1.18871E-01 9.91792E-07 9.59933E-02-2.87067E-13 3.82497E-13
 -1       912 2.00000E+01 8.88653E-02 6.19028E-07 6.65422E-02-2.78315E-13 2.36307E-13
 -1       913 2.00041E+01 6.50980E-02 4.09800E-07 4.43948E-02 1.99925E-14-6.45894E-14
 -1       914 2.00062E+01 4.66296E-02 2.75997E-07 2.80525E-02 2.86670E-13-9.29258E-14
 -1       915 2.00070E+01 3.25340E-02 1.72840E-07 1.62462E-02 2.68058E-13 5.07091E-14
 -1       916 2.00069E+01 2.19482E-02 5.83163E-08 7.92728E-03 2.60839E-14 2.09161E-13
 -1       917 2.00062E+01 1.40967E-02 1.03970E-07 2.25053E-03 2.85843E-14 2.93324E-13
 -1       918 2.00051E+01 8.29682E-03 8.84413E-08-1.43984E-03 2.03566E-13 4.51353E-13
 -1       919 2.00040E+01 3.97547E-03 1.48909E-06-3.65352E-03 9.56147E-14 3.96758E-13
 -1       920 2.11982E+01-1.97323E+00-1.65372E-03-2.44775E+00-1.54977E-13-1.91842E-13
 -1       921 2.00058E+01 7.70639E-03 1.13775E-06 3.91098E-04 4.10808E-13 1.73582E-13
 -1       922 1.98175E+01 8.26231E-01-3.55070E-04-1.28129E+00 1.24025E-13-1.77737E-13
 -1       923 1.98747E+01-5.02576E-01-6.27677E-04 1.98860E+00-1.88422E-13-3.00146E-13
 -1       924 2.04234E+01-1.27652E+00 5.82766E-03 2.22914E+00-1.19477E-13-2.55145E-13
 -1       925 1.61560E+01-1.05193E+00 2.37549E-02-3.86538E+00-1.48875E-13-3.77929E-13
 -1       926 1.43732E+01-8.08790E-02 3.18194E-02 3.10011E+00 2.57332E-13-3.57679E-13
 -1       927 1.41868E+01-1.10155E+00 6.26482E-02 4.18981E+00-4.59180E-13 3.28014E-13
 -1       928 2.03696E+01-9.55548E-01 5.03813E-05-2.28983E+00-3.68418E-14-1.91056E-13
 -1       929 2.00028E+01 5.83021E-04 1.12383E-06-4.72507E-03 2.62351E-13-1.25181E-14
 -1       930 1.19407E+01 7.87059E-01 5.05265E-02 7.44637E-01 1.14978E-13-4.58585E-13
 -1       931 1.96006E+01 1.98452E+00 4.51854E-04 3.88917E-01-8.17279E-14-3.76913E-13
 -1       932 1.98283E+01 3.85675E-01 2.72800E-04-1.64620E+00 4.49785E-14-1.43648E-13
 -1       933 1.99721E+01-1.82155E-01-6.13310E-05-1.98821E+00 3.78383E-14-1.39263E-13
 -1       934 1.94335E+01 1.44681E+00 1.97914E-04 9.36922E-01-5.33474E-14-2.90716E-13
 -1       935 1.48246E+01-1.43435E+00 8.96307E-02-4.29736E+00 2.12048E-13 5.83578E-13
 -1       936 1.49482E+01-5.00414E-02 3.14475E-02-2.99879E+00-4.71322E-14-3.82239E-13
 -1       937 2.00042E+01 4.36787E-03 6.61835E-06 3.37994E-03 3.24826E-13-1.83889E-13
 -1       938 2.01558E+01-3.23067E+00 2.65519E-02 3.94394E+00-2.70554E-13-2.79581E-13
 -1       939 1.99201E+01 1.13306E+00 2.19675E-04-9.41600E-01 1.64176E-13-1.75023E-13
 -1       940 1.86582E+01 2.40920E+00 4.04821E-05-1.85611E-01 1.30787E-13-3.78492E-13
 -1       941 1.89108E+01 2.22752E+00-1.82455E-04-3.97267E-01 1.52583E-13-2.90306E-13
 -1       942 2.00058E+01 7.71557E-03 2.58843E-07-4.35045E-04 1.12064E-13-4.30602E-13
 -1       943 1.91595E+01 2.23941E+00 7.91666E-04 3.56122E-01-2.93262E-14-3.60186E-13
 -1       944 2.00048E+01 4.70742E-03 5.15732E-06 2.90443E-03 3.41661E-13 4.83898E-14
 -1       945 1.28330E+01 3.70573E-01 4.42732E-02 2.23146E+00-1.99158E-13 2.61192E-13
 -1       946 1.10176E+01 5.85914E-01 7.80755E-02-9.58558E-01-1.03853E-13 3.14266E-13
 -1       947 2.00057E+01 7.04498E-03-4.94130E-07-1.29807E-03 7.61707E-14-3.33624E-13
 -1       948 1.98459E+01 1.52882E+00-2.65482E-04-6.14269E-01 2.23463E-13-2.25737E-13
 -1       949 2.00052E+01 5.83559E-03-1.35702E-06-2.19845E-03 4.29923E-13 2.32720E-13
 -1       950 1.72034E+01-4.90609E-01 2.21854E-02 3.24107E+00 2.12654E-13-2.61416E-13
 -1       951 1.88247E+01 2.48218E+00-3.10551E-04 1.99287E-01 2.82881E-14-4.05767E-13
 -1       952 2.00057E+01 7.01986E-03-2.26657E-06 1.31548E-03 5.39631E-13-4.79500E-13
 -1       953 2.31156E+01-3.40776E+00 3.72982E-03 1.94122E+00-1.64392E-13-2.30200E-13
 -1       954 1.84018E+01 1.26675E+00-1.13740E-04 1.27709E+00 2.64342E-14-2.80153E-13
 -1       955 1.79374E+01 8.90746E-01-5.32289E-05 1.72245E+00 5.59500E-14-2.76384E-13
 -1       956 1.74247E+01 3.68855E-01-1.30844E-03 2.33888E+00 1.14675E-13-2.65643E-13
 -1       957 1.89625E+01 4.83522E-01 6.50944E-04-1.84120E+00 1.06395E-14-2.47919E-13
 -1       958 1.70917E+01-4.44811E-01 1.74385E-02-3.00511E+00 7.08576E-14 2.13471E-13
 -1       959 1.91619E+01-1.06674E+00 7.60711E-03-2.96686E+00-4.92753E-14-1.36780E-13
 -1       960 1.74041E+01 2.29879E-01 8.84906E-05-2.24266E+00 2.46018E-14 1.73709E-13
 -1       961 1.78148E+01 6.32376E-01-2.60071E-04-1.70128E+00 1.82002E-13-5.86703E-14
 -1       962 1.82114E+01 8.33100E-01-2.03796E-04-1.32864E+00 1.28282E-13-3.29930E-13
 -1       963 1.85674E+01 9.01695E-01-1.22956E-04-1.05848E+00 1.83380E-13-3.13207E-13
 -1       964 1.88731E+01 8.87372E-01-6.77046E-05-8.53513E-01-5.28938E-14-8.29831E-14
 -1       965 1.91283E+01 8.23953E-01-4.00785E-05-6.90681E-01 3.54662E-14-4.87217E-14
 -1       966 1.93369E+01 7.34445E-01-3.26731E-05-5.57097E-01 1.53645E-14 2.82043E-14
 -1       967 1.95043E+01 6.34605E-01-3.12416E-05-4.45673E-01-1.30490E-13 1.39429E-13
 -1       968 1.96365E+01 5.34251E-01-2.36419E-05-3.52498E-01-1.31727E-13 2.46567E-13
 -1       969 1.97391E+01 4.39930E-01-6.73230E-06-2.75087E-01-2.52347E-13 3.36219E-13
 -1       970 1.98173E+01 3.55318E-01-1.75992E-06-2.11407E-01-3.36749E-13 2.29867E-13
 -1       971 1.98759E+01 2.81801E-01-5.26882E-06-1.59645E-01-1.66316E-13 2.27011E-14
 -1       972 1.99191E+01 2.19578E-01-5.91953E-06-1.18264E-01-1.00579E-13-1.31557E-13
 -1       973 1.99501E+01 1.68143E-01-5.18056E-06-8.57248E-02-7.88729E-14-2.20667E-13
 -1       974 1.99719E+01 1.26499E-01-4.08660E-06-6.05477E-02 4.24218E-14-1.03375E-13
 -1       975 1.99866E+01 9.34108E-02-3.06034E-06-4.13934E-02-1.48880E-13-6.57863E-15
 -1       976 1.99962E+01 6.75803E-02-2.21075E-06-2.70820E-02 3.59718E-14-2.53073E-13
 -1       977 2.00019E+01 4.77519E-02-1.49870E-06-1.65996E-02 6.72772E-14-2.93314E-13
 -1       978 2.00050E+01 3.27711E-02-1.49489E-06-9.09626E-03 1.16818E-13-2.25674E-13
 -1       979 2.00063E+01 2.15879E-02-9.74854E-07-3.86514E-03 1.40688E-13-3.70511E-13
 -1       980 2.00063E+01 1.33258E-02 5.00703E-06-3.16672E-04 4.54432E-13-3.64805E-13
 -1       981 1.91026E+01 7.15472E-01-4.57212E-05 1.00414E+00-3.96462E-14-2.11686E-13
 -1       982 1.89189E+01 6.47922E-01 9.79392E-05 1.24518E+00 1.46520E-14-1.61610E-14
 -1       983 1.87494E+01 4.65714E-01-1.87394E-04 1.55320E+00-2.83840E-14 5.55433E-14
 -1       984 1.92785E+01 7.09567E-01-7.08462E-05 8.09620E-01-1.07870E-13-1.46452E-13
 -1       985 1.94355E+01 6.59710E-01-6.39751E-05 6.49951E-01-1.48878E-13-1.32387E-13
 -1       986 1.95691E+01 5.86751E-01-4.59475E-05 5.17797E-01-1.15311E-13 2.45905E-14
 -1       987 1.96789E+01 5.04789E-01-1.61718E-05 4.08134E-01-5.69824E-14 2.37585E-13
 -1       988 1.97667E+01 4.22457E-01-6.85248E-06 3.17606E-01-3.62270E-14 2.63918E-13
 -1       989 1.98352E+01 3.45358E-01-1.42503E-05 2.43655E-01-1.06064E-13 3.71050E-13
 -1       990 1.98874E+01 2.76615E-01-1.41795E-05 1.83928E-01-1.73140E-13 3.16634E-13
 -1       991 1.99263E+01 2.17319E-01-1.19033E-05 1.36314E-01-1.71729E-14 1.90727E-13
 -1       992 1.99546E+01 1.67580E-01-9.38696E-06 9.89373E-02-1.29354E-13 1.55723E-13
 -1       993 1.99745E+01 1.26848E-01-6.98234E-06 7.00467E-02-1.18219E-13-1.21701E-13
 -1       994 1.99881E+01 9.41922E-02-4.92649E-06 4.80726E-02 1.50275E-13-5.28919E-13
 -1       995 1.99969E+01 6.85140E-02-3.28967E-06 3.16451E-02 1.83095E-13-3.48994E-13
 -1       996 2.00023E+01 4.86843E-02-1.93931E-06 1.95967E-02 3.07301E-14-2.18025E-13
 -1       997 2.00051E+01 3.36316E-02-1.54211E-06 1.09528E-02 3.07015E-14 8.83657E-14
 -1       998 2.00063E+01 2.23570E-02-1.45719E-06 4.91060E-03-1.52253E-13 5.93789E-13
 -1       999 2.00063E+01 1.39961E-02-1.78695E-06 8.28434E-04 1.32864E-13 3.87186E-13
 -1      1000 1.86673E+01 1.08416E-01-1.24120E-03 1.94186E+00-1.80667E-13-1.00530E-13
 -1      1001 1.72847E+01-1.75181E+00 2.72638E-02 4.03379E+00-3.47033E-13 1.64439E-14
 -1      1002 1.86561E+01 2.50849E+00 2.51955E-04 3.14443E-02 9.86858E-14-3.76622E-13
 -1      1003 2.09835E+01-2.78331E+00 1.33884E-02 3.02356E+00-2.53738E-13-4.62583E-13
 -1      1004 1.43182E+01 8.84535E-01 1.62482E-02 1.49505E+00 1.19509E-13-3.26099E-13
 -1      1005 1.87731E+01 1.59671E+00-1.82264E-03 9.10863E-01-4.62222E-15-3.10530E-13
 -1      1006 1.93311E+01 1.92133E+00-3.63357E-04-5.42263E-01 1.84393E-13-2.68150E-13
 -1      1007 1.27247E+01 8.70285E-01 3.12302E-02 6.62771E-01-3.60938E-14 1.93960E-13
 -1      1008 1.51421E+01-2.57275E-01 2.13794E-02 3.08791E+00-3.04114E-13 2.53961E-13
 -1      1009 1.36748E+01 9.41458E-01 2.35107E-02-1.04310E+00 2.97685E-14-4.20462E-13
 -1      1010 1.89293E+01-1.63263E-01-1.17901E-03-2.35182E+00-5.05563E-15-1.76576E-13
 -1      1011 1.91031E+01 9.61687E-01 4.15749E-04-1.40030E+00 7.17841E-14-2.41887E-13
 -1      1012 1.87909E+01 2.03701E+00-3.38956E-04 5.02060E-01-8.67549E-15-3.59552E-13
 -1      1013 1.93330E+01 1.52022E+00 9.99010E-05-8.55061E-01 1.48387E-13-2.62567E-13
 -1      1014 1.98393E+01-1.52242E+00 9.66509E-03 2.74033E+00-2.14624E-13-2.75389E-13
 -1      1015 1.85179E+01 2.00034E+00-3.00771E-04-4.69749E-01 1.29647E-13-3.07601E-13
 -1      1016 1.83299E+01 2.12926E+00-1.86896E-04-8.75267E-02 6.61685E-14-3.14723E-13
 -1      1017 1.69377E+01-8.99209E-02 8.00942E-03-2.78398E+00-5.28108E-14-2.81737E-13
 -1      1018 2.00055E+01 7.81360E-03-2.47887E-06-1.75033E-03 2.12399E-13 3.99345E-13
 -1      1019 2.00062E+01 1.37959E-02-1.40911E-06-3.65557E-05 1.53139E-13 1.36728E-13
 -1      1020 1.87136E+01-5.10175E-01 8.88518E-04 2.45271E+00-2.82297E-13-1.02618E-14
 -1      1021 1.31660E+01 3.31913E-01 4.68635E-02-2.35630E+00-5.17848E-14 5.94830E-13
 -1      1022 1.46087E+01 7.01159E-01 1.17942E-02 1.67298E+00-3.98531E-14-5.05416E-14
 -1      1023 2.00063E+01 1.32351E-02-1.68277E-06-1.28341E-04-8.50881E-14-4.48446E-13
 -1      1024 2.00062E+01 1.17284E-02 1.03484E-05-4.45142E-04-4.32901E-14-2.58186E-13
 -1      1025 2.00063E+01 1.32770E-02-2.84966E-06 4.25821E-05 3.12119E-13 2.05193E-13
 -1      1026 1.88715E+01 1.79906E+00 9.18547E-04-7.02959E-01 1.44928E-13-2.65966E-13
 -1      1027 1.66477E+01 1.12378E+00 8.78494E-04 1.35345E+00 9.72658E-14-2.51764E-13
 -1      1028 1.79874E+01 1.82033E+00 4.91680E-04-4.05844E-01 5.73847E-14-2.62580E-13
 -1      1029 1.54938E+01 6.09341E-01 5.65040E-03-1.95004E+00-1.75099E-15 3.75713E-13
 -1      1030 1.65005E+01 8.98388E-01-3.91336E-04-1.37870E+00-6.71706E-14 3.10940E-13
 -1      1031 1.72659E+01 1.04521E+00-7.03582E-04-1.03203E+00-9.92029E-14 1.12109E-13
 -1      1032 1.78635E+01 1.08579E+00-7.02070E-04-7.95862E-01 3.15975E-14-2.42242E-13
 -1      1033 1.83373E+01 1.05439E+00-4.14940E-04-6.32256E-01 2.02724E-13-4.63133E-13
 -1      1034 1.87137E+01 9.79205E-01-2.63174E-04-5.10002E-01 1.76889E-14-4.29337E-13
 -1      1035 1.90141E+01 8.78343E-01-1.84931E-04-4.12864E-01 5.48515E-14-2.98866E-13
 -1      1036 1.92539E+01 7.65423E-01-1.25721E-04-3.33150E-01 8.46677E-14-2.79088E-13
 -1      1037 1.94433E+01 6.51224E-01-9.44918E-05-2.66108E-01 2.79618E-14-8.23455E-14
 -1      1038 1.95915E+01 5.42194E-01 7.91310E-06-2.10447E-01-8.79849E-14 4.67350E-15
 -1      1039 1.97060E+01 4.42426E-01-3.52227E-05-1.64053E-01-2.58659E-13 1.13904E-13
 -1      1040 1.97933E+01 3.54870E-01-5.66382E-05-1.25491E-01-3.49220E-13 2.35656E-13
 -1      1041 1.98591E+01 2.79455E-01-4.37282E-05-9.43182E-02-2.32243E-13 3.24058E-13
 -1      1042 1.99075E+01 2.16319E-01-3.57001E-05-6.95164E-02-3.52900E-13 6.76619E-14
 -1      1043 1.99424E+01 1.64585E-01-2.80023E-05-5.00528E-02-5.18382E-14-2.85769E-13
 -1      1044 1.99669E+01 1.22998E-01-2.14469E-05-3.50332E-02-1.29762E-14-4.03025E-13
 -1      1045 1.99836E+01 9.01684E-02-1.61033E-05-2.36487E-02-6.33302E-14-9.56998E-14
 -1      1046 1.99945E+01 6.46935E-02-1.19484E-05-1.51814E-02 4.68774E-14 1.61169E-13
 -1      1047 2.00011E+01 4.52400E-02-8.90801E-06-9.01187E-03 1.41693E-13 1.05960E-13
 -1      1048 2.00047E+01 3.06518E-02-2.98657E-06-4.66296E-03 1.10463E-13 1.71668E-13
 -1      1049 2.00062E+01 1.97455E-02-4.38740E-06-1.66106E-03 7.96814E-14-1.42389E-14
 -1      1050 1.90837E+01 8.15907E-01-2.67267E-04 5.56134E-01-1.99667E-13 2.95289E-13
 -1      1051 1.88280E+01 8.78127E-01-3.14084E-04 7.03619E-01-2.43806E-13 7.50252E-14
 -1      1052 1.50512E+01 1.25013E+00 5.16505E-03 3.27196E-02 6.32084E-14-3.33382E-13
 -1      1053 1.81685E+01 8.40203E-01-6.16624E-04 1.15046E+00 3.42623E-14-1.32336E-13
 -1      1054 1.92958E+01 7.28311E-01-1.86002E-04 4.39089E-01-1.72458E-13 2.47464E-13
 -1      1055 1.94678E+01 6.31297E-01-2.95183E-05 3.45456E-01-7.97176E-14 1.47143E-13
 -1      1056 1.96056E+01 5.32610E-01 9.34958E-06 2.69238E-01-5.69042E-14 4.15074E-14
 -1      1057 1.97137E+01 4.39274E-01-6.05299E-05 2.07352E-01-1.04276E-13-9.90636E-14
 -1      1058 1.97971E+01 3.55299E-01-7.72060E-05 1.57621E-01-9.04057E-14-2.14498E-13
 -1      1059 1.98607E+01 2.81882E-01-6.03646E-05 1.17866E-01-1.27356E-13-3.03732E-13
 -1      1060 1.99079E+01 2.19577E-01-4.77844E-05 8.65758E-02 3.87361E-14 5.43047E-14
 -1      1061 1.99422E+01 1.67995E-01-3.70061E-05 6.22470E-02 2.84270E-15 1.59242E-13
 -1      1062 1.99665E+01 1.26194E-01-2.79419E-05 4.35934E-02 9.08320E-14 1.62129E-13
 -1      1063 1.99832E+01 9.29752E-02-2.06039E-05 2.95127E-02 2.24190E-14 2.30766E-13
 -1      1064 1.99941E+01 6.70544E-02-1.50115E-05 1.90625E-02 3.27873E-14 5.10555E-13
 -1      1065 2.00008E+01 4.71607E-02-9.95342E-06 1.14526E-02-5.83017E-15 4.78100E-13
 -1      1066 2.00044E+01 3.22050E-02-5.47362E-06 6.07332E-03-1.58533E-13 2.17893E-13
 -1      1067 2.00061E+01 2.09829E-02-1.16520E-06 2.29701E-03 2.33414E-13-2.73189E-13
 -1      1068 2.00057E+01 2.13593E-02-7.40641E-06 6.18866E-04 1.75614E-13 7.87954E-14
 -1      1069 1.87180E+01-1.68664E+00 1.16146E-02 3.37898E+00-2.97264E-13-1.20232E-13
 -1      1070 1.36507E+01 9.40612E-01 1.66017E-02-7.70607E-01-9.74175E-14 3.78187E-13
 -1      1071 1.84663E+01 2.14448E+00 2.74655E-04 2.48830E-01 1.96799E-14-3.03739E-13
 -1      1072 1.66154E+01 1.14315E-01 3.30972E-03 2.40782E+00-2.32324E-13 1.63927E-14
 -1      1073 1.55053E+01 8.68951E-01 4.29154E-03-1.62255E+00 7.80436E-15-3.41111E-13
 -1      1074 1.81093E+01 1.69788E+00-4.66435E-04 6.93529E-01 4.73859E-14-3.30171E-13
 -1      1075 1.78008E+01 6.84029E-01 1.60514E-03-1.88659E+00-1.08855E-14-3.07922E-13
 -1      1076 1.45976E+01 1.07751E+00-1.24417E-03 4.88386E-01-4.96535E-14 2.16660E-13
 -1      1077 1.77849E+01 6.84576E-01-1.11393E-03 1.50616E+00-1.19289E-13-1.24401E-13
 -1      1078 1.85235E+01 8.95675E-01-3.89146E-04 8.94514E-01 4.38669E-14-5.08687E-14
 -1      1079 1.73942E+01-7.16164E-01 2.92248E-03 3.05658E+00-3.89707E-13 9.97117E-14
 -1      1080 1.74753E+01 1.41881E+00-1.68745E-03 9.76490E-01 4.43213E-14-2.91920E-13
 -1      1081 1.82356E+01 1.11621E+00-1.42629E-03-1.36744E+00 4.21745E-14-2.71148E-13
 -1      1082 1.60461E+01 8.95381E-01 6.48496E-03 1.32399E+00-1.08815E-13-4.06732E-14
 -1      1083 1.83315E+01 1.64166E+00 7.11916E-06-8.01933E-01 1.04722E-13-2.79389E-13
 -1      1084 1.79245E+01 1.86992E+00-4.81466E-04 1.66634E-01 5.02784E-14-2.96968E-13
 -1      1085 1.57528E+01-5.61275E-01 3.39643E-03-3.35831E+00 5.61088E-14 3.29246E-13
 -1      1086 2.00058E+01 2.13663E-02 1.67861E-05-6.33448E-04 2.68721E-13 3.27025E-13
 -1      1087 1.75952E+01 1.42734E+00 2.25531E-04-9.23268E-01 7.02015E-14-2.27887E-13
 -1      1088 1.72414E+01 1.63652E+00 3.87020E-04-1.73513E-01 7.39959E-14-2.95484E-13
 -1      1089 1.63503E+01 1.23508E+00 1.88100E-03-4.20431E-01-2.30562E-13 2.73850E-13
 -1      1090 1.72056E+01 1.22610E+00 1.79817E-04-3.07342E-01-2.19151E-13 2.38955E-13
 -1      1091 1.78449E+01 1.17731E+00-6.93089E-04-2.54274E-01-5.82451E-14 7.64334E-14
 -1      1092 1.83354E+01 1.09675E+00-4.54070E-04-2.12579E-01 3.31221E-14-1.51717E-13
 -1      1093 1.87194E+01 9.91753E-01-3.04287E-04-1.78430E-01 1.24374E-13-1.99239E-13
 -1      1094 1.90228E+01 8.72962E-01-2.86976E-04-1.49294E-01 7.49618E-14-1.55877E-13
 -1      1095 1.92702E+01 7.48701E-01 9.15377E-04-1.24655E-01 1.36987E-13-7.62719E-14
 -1      1096 1.94575E+01 6.28782E-01-1.39935E-06-1.01691E-01 1.14672E-13-8.62796E-14
 -1      1097 1.95980E+01 5.23161E-01 2.31102E-04-7.94615E-02-2.22558E-13-2.84614E-13
 -1      1098 1.97125E+01 4.22899E-01 1.49217E-05-6.12204E-02-2.49804E-13-3.41071E-13
 -1      1099 1.97990E+01 3.36211E-01-2.63026E-05-4.73316E-02-1.95741E-13-1.82463E-13
 -1      1100 1.98637E+01 2.62954E-01-1.60070E-05-3.56760E-02-2.44798E-13-3.86615E-14
 -1      1101 1.99112E+01 2.02180E-01-6.83652E-06-2.62334E-02-3.76479E-13 2.13059E-13
 -1      1102 1.99453E+01 1.52750E-01-9.89593E-07-1.87732E-02-2.68318E-13-1.63539E-14
 -1      1103 1.99692E+01 1.13295E-01 2.45560E-06-1.30070E-02 9.49687E-14-1.14106E-13
 -1      1104 1.99853E+01 8.23556E-02 4.16416E-06-8.64458E-03 1.24519E-14-2.09625E-13
 -1      1105 1.99957E+01 5.84984E-02 4.60237E-06-5.41936E-03 1.01190E-14-2.25959E-13
 -1      1106 2.00018E+01 4.04188E-02 1.02242E-05-3.12082E-03 3.51335E-13-1.11173E-13
 -1      1107 2.00045E+01 2.97909E-02 1.15597E-05-1.61412E-03 1.85399E-13 1.74223E-13
 -1      1108 1.92541E+01 7.52852E-01 7.60336E-04 2.27365E-01 5.49697E-14-2.87991E-13
 -1      1109 1.94491E+01 6.33399E-01 1.53320E-04 1.73118E-01-1.03218E-13-2.64563E-13
 -1      1110 1.95932E+01 5.28603E-01 4.67248E-04 1.33484E-01 6.54539E-14-2.46802E-13
 -1      1111 1.97036E+01 4.31976E-01-6.53130E-05 1.02384E-01 3.65131E-14-3.22972E-13
 -1      1112 1.97914E+01 3.45890E-01 1.85336E-05 7.71818E-02-5.38319E-14-3.15084E-13
 -1      1113 1.98575E+01 2.71923E-01 2.68461E-05 5.72351E-02-2.22702E-13-2.83996E-13
 -1      1114 1.99064E+01 2.10050E-01 2.36983E-05 4.16346E-02-1.42502E-13-1.59668E-13
 -1      1115 1.99417E+01 1.59399E-01 1.84560E-05 2.96107E-02-9.81946E-14-6.17404E-14
 -1      1116 1.99666E+01 1.18747E-01 1.35897E-05 2.04778E-02-1.07078E-13 1.26360E-13
 -1      1117 1.99835E+01 8.67188E-02 9.67995E-06 1.36488E-02-9.15449E-14 1.94122E-13
 -1      1118 1.99945E+01 6.19312E-02 7.93009E-06 8.63496E-03 1.53879E-14 2.35185E-13
 -1      1119 2.00011E+01 4.30627E-02 1.12366E-06 4.99301E-03 1.97528E-13 1.56334E-13
 -1      1120 2.00042E+01 3.09875E-02 3.34926E-06 2.14566E-03 4.98189E-13-1.47662E-13
 -1      1121 1.63039E+01 1.32662E+00-7.49903E-04-7.28183E-01 4.84446E-14-2.99952E-13
 -1      1122 1.79061E+01 1.08214E+00 3.42966E-04 6.50296E-01-1.59087E-13 1.76716E-13
 -1      1123 1.53973E+01 1.11174E+00 1.09174E-02-6.99491E-01-8.39187E-14 3.57942E-13
 -1      1124 1.72377E+01 1.58902E+00 7.16465E-04 4.00380E-01 6.60882E-14-2.89793E-13
 -1      1125 1.73391E+01 1.05888E+00-2.89368E-03 8.72403E-01-1.12561E-13 2.12998E-14
 -1      1126 1.83622E+01 1.04215E+00 4.12937E-04 4.93865E-01-1.46345E-13 3.25645E-13
 -1      1127 1.90197E+01 8.62817E-01 2.91678E-04 2.95226E-01-5.60489E-14-1.04371E-13
 -1      1128 1.87269E+01 9.63562E-01 3.05220E-04 3.80163E-01-2.11159E-13 4.43106E-14
 -1      1129 1.65243E+01 1.47524E+00 1.99852E-03 1.70689E-01 7.29557E-14-2.82118E-13
 -1      1130 1.93064E+01 7.16288E-01-1.92176E-03 3.02118E-02 1.07718E-13-3.60067E-13
 -1      1131 1.95197E+01 5.76420E-01-1.27655E-03 3.84061E-02-7.78519E-14-7.74085E-13
 -1      1132 2.80063E+01 9.08457E+00 2.27545E+00-6.47660E+00-5.76206E-14 1.46874E-12
 -1      1133 2.09573E+01 6.36050E+00 2.44345E-01-3.55241E+00-2.88658E-14 4.93217E-14
 -1      1134 1.98098E+01 5.97242E+00 9.82694E-02-2.43713E+00-1.91513E-14-5.21447E-13
 -1      1135 1.92529E+01 5.79628E+00 6.80092E-02-1.74187E+00-1.14769E-14-7.74027E-13
 -1      1136 1.88741E+01 5.67797E+00 5.24261E-02-1.22510E+00-5.98133E-15-8.81465E-13
 -1      1137 1.85901E+01 5.58911E+00 4.02343E-02-8.27036E-01-2.61943E-15-9.19311E-13
 -1      1138 1.83836E+01 5.52439E+00 3.10264E-02-5.10015E-01-5.37764E-16-9.22500E-13
 -1      1139 1.82562E+01 5.48442E+00 2.51844E-02-2.42969E-01 6.21031E-16-8.97309E-13
 -1      1140 1.82158E+01 5.47178E+00 2.34665E-02-1.20627E-03 2.81242E-15-8.62259E-13
 -1      1141 1.82637E+01 5.48690E+00 2.59534E-02 2.42899E-01 6.12704E-15-8.19390E-13
 -1      1142 1.83964E+01 5.52864E+00 3.23784E-02 5.16574E-01 7.89646E-15-7.59794E-13
 -1      1143 1.86057E+01 5.59439E+00 4.23050E-02 8.43359E-01 1.14284E-14-6.75596E-13
 -1      1144 1.88878E+01 5.68268E+00 5.44059E-02 1.25297E+00 1.42802E-14-5.38115E-13
 -1      1145 1.92608E+01 5.79885E+00 6.86785E-02 1.78281E+00 1.75276E-14-3.13717E-13
 -1      1146 1.98030E+01 5.96863E+00 9.23705E-02 2.48791E+00 2.26069E-14 7.22339E-14
 -1      1147 2.08559E+01 6.31345E+00 1.88922E-01 3.54075E+00 2.32314E-14 7.86159E-13
 -1      1148 2.53487E+01 8.02764E+00 1.40994E+00 5.63160E+00 4.09117E-14 2.16024E-12
 -1      1149 2.87276E+01 3.50023E+00 1.15702E+00-4.07211E+00-2.22794E-13 2.36366E-12
 -1      1150 2.07542E+01-1.84445E-01-6.22678E-01-7.50666E-02-8.00471E-14 1.82175E-12
 -1      1151 1.98034E+01-9.98007E-02-2.33830E-01 7.09164E-02-3.31922E-14 1.08682E-12
 -1      1152 1.98701E+01-5.44225E-02-6.55626E-02 4.72661E-02-1.15524E-14 6.39322E-13
 -1      1153 2.02654E+01-3.32013E-02-2.66889E-02 3.58896E-02-1.72102E-14 3.29396E-13
 -1      1154 2.08796E+01-2.20383E-02-1.82306E-02 3.19439E-02-1.53152E-14 1.01502E-13
 -1      1155 2.16497E+01-1.32959E-02-1.21984E-02 3.14624E-02 1.70046E-15-6.91669E-14
 -1      1156 2.25174E+01-3.32359E-03-1.49974E-03 3.20184E-02-6.65451E-15-1.92377E-13
 -1      1157 2.34001E+01 1.03585E-02 1.71433E-02 3.08171E-02-5.17392E-15-3.34299E-13
 -1      1158 2.41664E+01 2.89258E-02 4.54209E-02 2.38830E-02-1.85689E-14-5.03465E-13
 -1      1159 2.46224E+01 5.07142E-02 8.04819E-02 6.18001E-03-3.20750E-15-7.77749E-13
 -1      1160 2.45284E+01 6.87005E-02 1.10180E-01-2.61666E-02 2.22426E-14-6.83523E-13
 -1      1161 2.36793E+01 6.96121E-02 1.11120E-01-7.04361E-02-4.77222E-15-8.80601E-13
 -1      1162 2.20651E+01 3.84007E-02 5.86401E-02-1.11012E-01 4.67465E-15-1.10971E-12
 -1      1163 2.00426E+01-2.60192E-02-4.67765E-02-1.20634E-01 6.43366E-15-1.17860E-12
 -1      1164 1.83387E+01-9.57882E-02-1.58329E-01-7.86076E-02-5.14701E-14-1.42387E-12
 -1      1165 1.77270E+01-1.24993E-01-2.04357E-01 4.29201E-03-4.36109E-15-1.56319E-12
 -1      1166 1.85275E+01-9.14032E-02-1.51315E-01 8.52987E-02 2.10292E-14-1.48931E-12
 -1      1167 2.03721E+01-2.07000E-02-3.80590E-02 1.23277E-01 2.05738E-15-1.40826E-12
 -1      1168 2.24756E+01 4.14342E-02 6.37403E-02 1.10527E-01-8.61897E-15-1.51000E-12
 -1      1169 2.41363E+01 6.95141E-02 1.10934E-01 6.93033E-02-2.37570E-14-1.48913E-12
 -1      1170 2.50331E+01 6.66664E-02 1.06382E-01 2.63950E-02-3.42946E-14-1.23222E-12
 -1      1171 2.52005E+01 4.81771E-02 7.54635E-02-3.67280E-03 1.44021E-14-1.08445E-12
 -1      1172 2.48514E+01 2.71174E-02 4.08926E-02-1.89384E-02-2.76476E-14-1.05125E-12
 -1      1173 2.42213E+01 1.01281E-02 1.40149E-02-2.34296E-02 4.37025E-14-7.94989E-13
 -1      1174 2.34931E+01-1.10541E-03-2.79186E-03-2.19722E-02 3.85761E-14-4.68327E-13
 -1      1175 2.27821E+01-7.35931E-03-1.13830E-02-1.80789E-02 3.09173E-14-5.29691E-13
 -1      1176 2.21481E+01-1.00895E-02-1.45627E-02-1.37397E-02-2.51043E-14-9.56891E-13
 -1      1177 2.16142E+01-1.06356E-02-1.46660E-02-9.86159E-03 1.39862E-16-1.14390E-12
 -1      1178 2.11821E+01-9.98107E-03-1.32619E-02-6.74009E-03 5.21932E-14-1.02166E-12
 -1      1179 2.08428E+01-8.76566E-03-1.12795E-02-4.37899E-03-2.19965E-14-7.49114E-13
 -1      1180 2.05832E+01-7.37065E-03-9.21775E-03-2.66881E-03 4.57414E-15-1.08796E-12
 -1      1181 2.03890E+01-6.00536E-03-7.31738E-03-1.47358E-03 2.12098E-14-1.20008E-12
 -1      1182 2.02470E+01-4.77275E-03-5.67507E-03-6.67127E-04 1.87414E-14-1.18439E-12
 -1      1183 2.01457E+01-3.71349E-03-4.31209E-03-1.44785E-04 4.41847E-14-8.32475E-13
 -1      1184 2.00754E+01-2.83369E-03-3.21290E-03 1.75365E-04 4.01163E-14-5.92911E-13
 -1      1185 2.00284E+01-2.12169E-03-2.34630E-03 3.55275E-04 3.53763E-14-8.96580E-13
 -1      1186 1.99985E+01-1.55783E-03-1.67645E-03 4.40740E-04 1.08428E-14-6.52661E-13
 -1      1187 1.99809E+01-1.11989E-03-1.16834E-03 4.65034E-04 1.47231E-15-5.41310E-13
 -1      1188 1.99718E+01-7.85944E-04-7.90210E-04 4.51953E-04 1.70638E-14-2.34006E-13
 -1      1189 1.99686E+01-5.35810E-04-5.14373E-04 4.18207E-04-8.35265E-15-1.45438E-13
 -1      1190 1.99692E+01-3.51580E-04-3.17245E-04 3.75252E-04-6.41694E-14-4.66715E-13
 -1      1191 1.99723E+01-2.17690E-04-1.78906E-04 3.30647E-04-5.73016E-15-5.82179E-13
 -1      1192 1.99767E+01-1.20709E-04-8.23213E-05 2.88998E-04-5.01199E-15-4.70088E-13
 -1      1193 1.99818E+01-4.89221E-05-1.21289E-05 2.52443E-04 4.37336E-15-3.97918E-13
 -1      1194 1.99870E+01 8.09389E-06 4.70077E-05 2.20482E-04 6.27009E-14 7.24138E-14
 -1      1195 1.99920E+01 5.95183E-05 1.11282E-04 1.88347E-04 3.17929E-14-3.01654E-13
 -1      1196 1.99962E+01 1.10530E-04 1.87769E-04 1.39932E-04 3.09264E-14 1.00074E-13
 -1      1197 1.99991E+01 1.67309E-04 2.29850E-04 4.15890E-05 2.63968E-14-4.10919E-13
 -1      1198 1.99999E+01-3.99234E-05-5.74159E-05-5.17208E-05 8.92211E-14-2.43404E-13
 -1      1199 2.77305E+01 5.15192E-01 2.89401E-01 1.92361E+00-4.26534E-14 3.26494E-12
 -1      1200 2.06286E+01-7.07963E-02-5.75413E-01 1.16673E-01 1.27919E-14 2.74814E-12
 -1      1201 1.98536E+01-4.57687E-02-1.92709E-01 1.54995E-02 1.84054E-14 2.18955E-12
 -1      1202 1.98564E+01-2.79430E-02-5.65153E-02 1.77675E-04 1.54130E-14 1.76809E-12
 -1      1203 2.02051E+01-1.93720E-02-2.34510E-02-5.57818E-03 5.28332E-15 1.52905E-12
 -1      1204 2.07626E+01-1.30942E-02-1.52705E-02-9.39375E-03 1.48740E-14 1.35054E-12
 -1      1205 2.14515E+01-6.14980E-03-8.85861E-03-1.38970E-02-7.43925E-15 1.28599E-12
 -1      1206 2.22032E+01 3.23641E-03 2.14532E-03-1.96443E-02-1.13079E-14 1.21712E-12
 -1      1207 2.29298E+01 1.59618E-02 2.00228E-02-2.59759E-02 4.27501E-15 1.00805E-12
 -1      1208 2.35059E+01 3.12209E-02 4.48664E-02-3.06643E-02-3.43302E-15 1.05944E-12
 -1      1209 2.37647E+01 4.51251E-02 7.24016E-02-2.94626E-02 4.82557E-15 1.02580E-12
 -1      1210 2.35239E+01 5.00447E-02 9.12814E-02-1.68482E-02 1.01273E-14 9.61647E-13
 -1      1211 2.26585E+01 3.72500E-02 8.43126E-02 1.05393E-02 6.31266E-15 9.37583E-13
 -1      1212 2.12197E+01 4.16968E-03 3.82898E-02 4.80361E-02-2.41706E-14 9.47520E-13
 -1      1213 1.95354E+01-3.80837E-02-3.99334E-02 7.96943E-02 4.59155E-14 6.61540E-13
 -1      1214 1.81731E+01-6.71172E-02-1.16143E-01 8.48886E-02-5.76275E-15 5.40359E-13
 -1      1215 1.76961E+01-6.61740E-02-1.46779E-01 5.45436E-02-4.92609E-14 7.48922E-13
 -1      1216 1.83309E+01-3.89397E-02-1.14434E-01 1.63452E-03 1.92650E-14 7.22734E-13
 -1      1217 1.98188E+01-4.34766E-03-4.23880E-02-4.70531E-02 2.36608E-14 2.43930E-13
 -1      1218 2.15871E+01 2.00792E-02 2.70612E-02-7.10973E-02 5.22607E-15 2.82552E-13
 -1      1219 2.30847E+01 2.95580E-02 6.57576E-02-6.83035E-02-2.62117E-15 4.34125E-13
 -1      1220 2.40122E+01 2.77909E-02 7.14943E-02-4.95058E-02-8.74040E-15 4.37025E-13
 -1      1221 2.43383E+01 2.06755E-02 5.69615E-02-2.71130E-02 2.43208E-14 2.03195E-13
 -1      1222 2.41937E+01 1.26717E-02 3.60559E-02-8.71254E-03 1.51983E-15 8.92819E-14
 -1      1223 2.37573E+01 5.99317E-03 1.74594E-02 3.28749E-03 2.18255E-14 1.98768E-13
 -1      1224 2.31856E+01 1.27160E-03 4.32681E-03 9.56120E-03-7.48848E-15 6.15799E-13
 -1      1225 2.25890E+01-1.65366E-03-3.47914E-03 1.18222E-02 2.15531E-15 5.99742E-13
 -1      1226 2.20328E+01-3.21080E-03-7.31366E-03 1.17072E-02 4.78975E-14 3.35334E-13
 -1      1227 2.15490E+01-3.83732E-03-8.60877E-03 1.04069E-02-1.91019E-14 3.55552E-13
 -1      1228 2.11476E+01-3.88575E-03-8.46436E-03 8.66545E-03 3.66032E-15 3.20440E-13
 -1      1229 2.08262E+01-3.60873E-03-7.60688E-03 6.89580E-03 4.75895E-14 1.51170E-13
 -1      1230 2.05765E+01-3.17405E-03-6.47248E-03 5.29827E-03-3.29944E-15 2.76268E-13
 -1      1231 2.03874E+01-2.68661E-03-5.30315E-03 3.94963E-03-2.18964E-14 5.78687E-13
 -1      1232 2.02477E+01-2.20801E-03-4.22149E-03 2.86053E-03-3.18163E-14 6.89606E-13
 -1      1233 2.01473E+01-1.77123E-03-3.28061E-03 2.00971E-03-7.94398E-15 4.19034E-13
 -1      1234 2.00772E+01-1.39115E-03-2.49488E-03 1.36303E-03-2.99786E-14 1.76986E-13
 -1      1235 2.00300E+01-1.07169E-03-1.85827E-03 8.83684E-04 2.06198E-14-2.42191E-13
 -1      1236 1.99998E+01-8.10485E-04-1.35514E-03 5.37143E-04-1.82293E-14-9.70182E-14
 -1      1237 1.99818E+01-6.01897E-04-9.66255E-04 2.93255E-04 5.79991E-14-1.62002E-13
 -1      1238 1.99725E+01-4.38795E-04-6.72023E-04 1.26770E-04 1.08078E-15-2.01949E-13
 -1      1239 1.99691E+01-3.13631E-04-4.54115E-04 1.71177E-05-5.97966E-14-1.32772E-13
 -1      1240 1.99695E+01-2.19002E-04-2.96078E-04-5.21468E-05-8.41514E-16-1.70870E-13
 -1      1241 1.99725E+01-1.47856E-04-1.83380E-04-9.40085E-05 6.70993E-14-4.21850E-13
 -1      1242 1.99768E+01-9.34396E-05-1.02950E-04-1.18663E-04 8.67317E-15-2.51757E-13
 -1      1243 1.99819E+01-4.90209E-05-4.21022E-05-1.34062E-04-3.95818E-14 8.87472E-14
 -1      1244 1.99871E+01-7.60362E-06 1.31275E-05-1.46068E-04 5.17268E-14-3.58431E-13
 -1      1245 1.99920E+01 3.84115E-05 7.87825E-05-1.57726E-04 3.80645E-14-1.20461E-12
 -1      1246 1.99962E+01 9.23145E-05 1.62625E-04-1.62974E-04 1.98378E-14-1.36279E-12
 -1      1247 1.99991E+01 1.24084E-04 2.07275E-04-1.24202E-04 7.57408E-14-1.61672E-12
 -1      1248 1.99999E+01-3.95166E-05-6.15589E-05 4.28139E-05 2.30804E-14-9.50035E-13
 -1      1249 1.99998E+01 1.14151E-04-6.12361E-05 3.26387E-05-9.94364E-13-1.55370E-13
 -1      1250 1.99999E+01-7.47535E-04 1.93125E-04-3.55210E-05-8.21068E-13-6.20529E-14
 -1      1251 1.99999E+01-3.47948E-03 1.27639E-04-1.35252E-04-1.82502E-13-8.43315E-15
 -1      1252 1.99998E+01-7.11430E-03 1.69214E-05-1.52663E-04-3.27160E-13-1.05050E-13
 -1      1253 1.99998E+01-1.08290E-02-6.49012E-05-1.36410E-04 7.92267E-15 1.66817E-13
 -1      1254 1.99997E+01-1.40714E-02-1.14784E-04-1.05608E-04-3.47362E-13 6.26537E-14
 -1      1255 1.99997E+01-1.65540E-02-1.40802E-04-7.25429E-05-6.87659E-13 4.62839E-14
 -1      1256 1.99997E+01-1.81164E-02-1.53731E-04-3.62243E-05-9.38269E-13-1.05534E-13
 -1      1257 1.99997E+01-1.86433E-02-1.57522E-04 1.21151E-07-8.65408E-13-6.05062E-14
 -1      1258 1.99997E+01-1.81084E-02-1.53920E-04 3.65363E-05-4.93816E-13-3.56017E-14
 -1      1259 1.99997E+01-1.65369E-02-1.40865E-04 7.29595E-05-4.77131E-13-9.91934E-14
 -1      1260 1.99997E+01-1.40422E-02-1.14198E-04 1.08042E-04-7.27725E-13 9.60807E-14
 -1      1261 1.99998E+01-1.07902E-02-6.49157E-05 1.37152E-04-5.08793E-13 5.15503E-14
 -1      1262 1.99998E+01-7.06184E-03 1.95610E-05 1.55341E-04-1.95688E-13-4.52574E-14
 -1      1263 1.99999E+01-3.37480E-03 1.49345E-04 1.60970E-04 7.49392E-14 1.42432E-13
 -1      1264 2.00000E+01-7.74186E-04 1.93865E-04 2.08419E-05 3.66328E-13-3.64869E-14
 -1      1265 1.99997E+01 1.19295E-04-7.12041E-05-3.00313E-05 2.98909E-13 1.63529E-14
 -1      1266-1.01165E+00-2.39692E+01-3.67801E+00-2.27724E+00 2.40891E-12 3.73819E-13
 -1      1267-1.80044E+00-1.46860E+01-2.98725E+00-3.82813E+00 3.42615E-12 1.21719E-12
 -1      1268 7.15212E-01-1.67900E+00-1.79468E+00 4.59603E-01 3.42104E-12 2.10665E-12
 -1      1269 1.05237E+01 8.37918E+00-8.93808E-02 9.21540E+00 2.56861E-12 2.44116E-12
 -1      1270 2.78625E+01 1.09549E+01 1.58853E+00 1.65327E+01 1.54710E-12 2.22800E-12
 -1      1271 4.80597E+01 7.49336E+00 3.03791E+00 1.72829E+01 5.68323E-13 1.21458E-12
 -1      1272 6.33034E+01 2.80377E+00 3.96384E+00 8.90158E+00 9.66102E-14-2.43472E-13
 -1      1273 6.63396E+01 1.78797E+00 4.16301E+00-4.21469E+00 2.19050E-13-2.03171E-12
 -1      1274 5.58008E+01 5.34225E+00 3.51680E+00-1.48734E+01 9.52988E-13-3.16269E-12
 -1      1275 3.68649E+01 1.00412E+01 2.27641E+00-1.81341E+01 2.02616E-12-3.77653E-12
 -1      1276 1.73439E+01 1.05359E+01 6.61561E-01-1.30501E+01 2.91855E-12-3.51053E-12
 -1      1277 4.05878E+00 3.84330E+00-1.00287E+00-4.12482E+00 2.96185E-12-2.33791E-12
 -1      1278-1.27533E+00-8.19107E+00-2.46055E+00 2.64486E+00 2.25864E-12-1.19227E-12
 -1      1279-1.62584E+00-1.98158E+01-3.39616E+00 3.85058E+00 9.37028E-13-3.32567E-13
 -1      1280-8.86245E-01-2.54784E+01-3.81961E+00 4.71830E-01-8.98559E-13-1.29355E-13
 -1      1281-1.35955E+00-2.15560E+01-3.52552E+00-3.62078E+00-2.50910E-12-6.01089E-13
 -1      1282-1.59006E+00-1.03433E+01-2.65799E+00-3.39511E+00-3.39595E-12-1.50524E-12
 -1      1283 2.82792E+00 2.02379E+00-1.25174E+00 2.70339E+00-3.42681E-12-2.48856E-12
 -1      1284 1.48178E+01 9.69546E+00 3.86001E-01 1.15031E+01-2.98339E-12-3.23896E-12
 -1      1285 3.39874E+01 1.06941E+01 2.15958E+00 1.78157E+01-1.89770E-12-3.06999E-12
 -1      1286 5.49737E+01 5.80974E+00 3.53716E+00 1.53312E+01-5.85809E-13-1.53721E-12
 -1      1287 6.68413E+01 1.84949E+00 4.26421E+00 4.48076E+00-4.96755E-14 4.72122E-13
 -1      1288 6.37725E+01 2.95047E+00 4.06499E+00-8.78037E+00-4.37206E-13 2.10243E-12
 -1      1289 4.78924E+01 7.57167E+00 3.05093E+00-1.72990E+01-1.48048E-12 3.53961E-12
 -1      1290 2.67829E+01 1.08839E+01 1.44996E+00-1.63725E+01-2.60381E-12 3.90488E-12
 -1      1291 9.41598E+00 7.57319E+00-2.84027E-01-8.33699E+00-2.94875E-12 2.94875E-12
 -1      1292 1.92643E-01-2.90723E+00-1.94956E+00 3.14462E-01-2.35567E-12 1.60472E-12
 -1      1293-1.87133E+00-1.53925E+01-3.06402E+00 3.96485E+00-8.82849E-13 5.00322E-13
 -1      1294-1.03394E+00-2.41668E+01-3.70900E+00 2.26944E+00 9.26870E-13 7.22998E-14
 -1      1295 2.26040E+01 1.86135E+00-7.11444E-01-2.60876E+00-8.09353E-14 1.13953E-12
 -1      1296 2.08247E+01 4.71819E+00-3.99434E-02-2.91146E+00-2.12441E-13-2.23606E-13
 -1      1297 2.13395E+01 4.82421E+00-9.32992E-02-3.80435E+00-2.77611E-13 7.45098E-14
 -1      1298 1.98986E+01 5.03919E+00-1.70899E-02-2.18155E+00-1.94178E-13-6.33736E-13
 -1      1299 2.02653E+01 5.15334E+00 1.43447E-02-2.60207E+00-2.25431E-13-4.61013E-13
 -1      1300 2.10118E+01 3.95591E+00-1.92663E-02-2.63982E+00-3.64372E-13-1.93540E-13
 -1      1301 1.93605E+01 5.13179E+00-6.30076E-03-1.57714E+00-1.39805E-13-8.23085E-13
 -1      1302 1.96134E+01 5.21657E+00 1.88883E-02-1.87321E+00-1.64126E-13-7.40696E-13
 -1      1303 2.00913E+01 4.41658E+00-2.00888E-02-2.00428E+00-2.94277E-13-5.26176E-13
 -1      1304 1.89661E+01 5.17064E+00-2.69455E-03-1.10526E+00-8.72809E-14-9.06681E-13
 -1      1305 1.91559E+01 5.23333E+00 1.63148E-02-1.33223E+00-1.05201E-13-8.71990E-13
 -1      1306 1.95057E+01 4.64418E+00-1.73841E-02-1.44670E+00-2.06208E-13-6.91894E-13
 -1      1307 1.86697E+01 5.19025E+00-1.38374E-03-7.38464E-01-4.18693E-14-9.27246E-13
 -1      1308 1.88115E+01 5.23618E+00 1.27241E-02-9.15048E-01-5.88973E-14-9.17100E-13
 -1      1309 1.90813E+01 4.77936E+00-1.43165E-02-1.00895E+00-1.25026E-13-7.57068E-13
 -1      1310 1.84562E+01 5.20146E+00-7.31156E-04-4.36650E-01-4.66467E-15-9.22569E-13
 -1      1311 1.85541E+01 5.23269E+00 8.73558E-03-5.83419E-01-1.41623E-14-9.29009E-13
 -1      1312 1.87651E+01 4.86594E+00-1.23161E-02-6.60783E-01-4.81490E-14-7.82664E-13
 -1      1313 1.83374E+01 5.20964E+00 5.66442E-04-1.79702E-01 3.80698E-14-8.95558E-13
 -1      1314 1.83860E+01 5.22500E+00 5.07679E-03-3.07408E-01 2.40658E-14-9.08534E-13
 -1      1315 1.85501E+01 4.91812E+00-1.13005E-02-3.72809E-01 1.11356E-14-7.66193E-13
 -1      1316 1.83180E+01 5.21685E+00 2.71840E-03 5.94448E-02 7.23501E-14-8.58865E-13
 -1      1317 1.83153E+01 5.21595E+00 2.24244E-03-6.27264E-02 6.12782E-14-8.82409E-13
 -1      1318 1.84439E+01 4.94132E+00-1.08765E-02-1.21911E-01 8.28950E-14-7.47308E-13
 -1      1319 1.83979E+01 5.22359E+00 5.72461E-03 3.07646E-01 1.11477E-13-8.09883E-13
 -1      1320 1.83447E+01 5.20665E+00 3.58061E-04 1.77642E-01 9.87400E-14-8.38041E-13
 -1      1321 1.84498E+01 4.93811E+00-1.09460E-02 1.18279E-01 1.40072E-13-7.12113E-13
 -1      1322 1.85722E+01 5.22867E+00 9.30803E-03 5.91294E-01 1.48406E-13-7.54515E-13
 -1      1323 1.84716E+01 5.19671E+00-6.40699E-04 4.40284E-01 1.34850E-13-7.91299E-13
 -1      1324 1.85663E+01 4.90892E+00-1.15129E-02 3.73852E-01 2.03961E-13-6.67575E-13
 -1      1325 1.88286E+01 5.23036E+00 1.32168E-02 9.29840E-01 1.80422E-13-6.60225E-13
 -1      1326 1.86867E+01 5.18415E+00-1.19310E-03 7.48332E-01 1.69934E-13-7.17414E-13
 -1      1327 1.87856E+01 4.85254E+00-1.25297E-02 6.67420E-01 2.60301E-13-6.06990E-13
 -1      1328 1.91742E+01 5.22494E+00 1.67652E-02 1.36200E+00 2.28664E-13-5.07067E-13
 -1      1329 1.89853E+01 5.16244E+00-2.38235E-03 1.12884E+00 2.06866E-13-5.97135E-13
 -1      1330 1.91029E+01 4.76240E+00-1.45767E-02 1.02585E+00 3.15016E-13-4.97373E-13
 -1      1331 1.96262E+01 5.20627E+00 1.83870E-02 1.91650E+00 2.70742E-13-2.65215E-13
 -1      1332 1.93764E+01 5.12094E+00-6.53774E-03 1.61396E+00 2.47871E-13-4.10998E-13
 -1      1333 1.95292E+01 4.62191E+00-1.77877E-02 1.47903E+00 3.84730E-13-3.35239E-13
 -1      1334 2.02846E+01 5.15845E+00 1.93325E-02 2.65170E+00 2.91170E-13 1.55258E-13
 -1      1335 1.99084E+01 5.02848E+00-1.77124E-02 2.23392E+00 2.64948E-13-9.58747E-14
 -1      1336 2.01126E+01 4.39040E+00-2.07810E-02 2.05302E+00 4.29778E-13-6.41709E-14
 -1      1337 2.15442E+01 4.91693E+00 2.11744E-02 3.72093E+00 2.33563E-13 9.03166E-13
 -1      1338 2.07943E+01 4.75909E+00-3.89707E-02 3.02912E+00 2.34479E-13 4.46941E-13
 -1      1339 2.10426E+01 3.91837E+00-1.55994E-02 2.75319E+00 4.22880E-13 3.91992E-13
 -1      1340 2.73391E+01 3.16448E+00 8.81654E-01 4.38010E+00 9.72833E-14 2.24470E-12
 -1      1341 2.24153E+01 3.52197E+00-1.72620E-01 3.61644E+00 1.08955E-13 1.32822E-12
 -1      1342 2.26029E+01 2.53684E+00-2.41187E-02 3.11041E+00 3.63607E-13 1.06565E-12
 -1      1343 2.18399E+01 3.42734E-01-7.56408E-01 1.02028E+00 1.80217E-13 2.18570E-12
 -1      1344 2.24908E+01 1.19432E-01-3.96449E-01-1.09941E+00-2.37338E-13 1.23088E-12
 -1      1345 2.13720E+01 2.94796E-01-1.56361E-01-6.46319E-01-2.20143E-13 9.40831E-13
 -1      1346 2.09019E+01 1.53663E-01-7.01269E-02-2.42681E-01-1.79939E-13 8.37785E-13
 -1      1347 2.06303E+01 9.36419E-02-1.15574E-02-1.72309E-01-1.68608E-13 5.78156E-13
 -1      1348 2.17009E+01 3.56860E-01-1.03169E-01-9.64078E-01-3.83402E-13 4.33487E-13
 -1      1349 2.04311E+01 7.14564E-02 3.96967E-03 3.31864E-02-1.35838E-13 4.99909E-13
 -1      1350 2.04873E+01 4.97174E-02 1.42700E-02 5.53180E-02-1.12785E-13 3.29445E-13
 -1      1351 2.09350E+01 1.38315E-01-3.71782E-02-1.83206E-01-2.83228E-13 2.75297E-13
 -1      1352 2.05083E+01 4.30240E-02 1.25015E-02 1.66630E-01-8.09379E-14 2.50223E-13
 -1      1353 2.07313E+01 3.07782E-02 1.09782E-02 1.82540E-01-8.65514E-14 1.27318E-13
 -1      1354 2.07888E+01 7.11166E-02-1.15803E-02 1.90512E-01-2.00938E-13 1.25795E-13
 -1      1355 2.08848E+01 2.94713E-02 7.13227E-03 2.53210E-01-7.04172E-14 8.56260E-14
 -1      1356 2.12099E+01 2.04353E-02 5.65118E-03 2.65116E-01-6.08207E-14-5.91888E-15
 -1      1357 2.09616E+01 4.48424E-02-7.40556E-03 4.08893E-01-1.45941E-13 1.29679E-14
 -1      1358 2.14481E+01 1.98548E-02 2.44059E-03 3.11275E-01-5.05442E-14-2.07334E-14
 -1      1359 2.18382E+01 1.06885E-02 2.29489E-03 3.19284E-01-2.74789E-14-8.36553E-14
 -1      1360 2.13437E+01 2.94076E-02-6.12085E-03 5.51057E-01-1.07774E-13-2.66662E-14
 -1      1361 2.21262E+01 8.60752E-03 3.00557E-05 3.40724E-01-3.94894E-14-1.16736E-13
 -1      1362 2.25436E+01-2.65240E-03 6.12991E-04 3.42995E-01-5.38748E-14-1.87548E-13
 -1      1363 2.18589E+01 1.23942E-02-4.10953E-03 6.34776E-01-8.51697E-14-8.18703E-14
 -1      1364 2.28460E+01-8.16319E-03-3.21433E-04 3.30236E-01-2.05454E-14-1.81528E-13
 -1      1365 2.32373E+01-2.25663E-02 4.66177E-04 3.23075E-01-3.70793E-14-2.39605E-13
 -1      1366 2.24411E+01-1.33652E-02-5.47631E-04 6.48789E-01-7.73678E-14-1.09945E-13
 -1      1367 2.35091E+01-3.31698E-02 1.63772E-03 2.60555E-01-6.25203E-14-2.25115E-13
 -1      1368 2.37962E+01-5.00128E-02 2.24763E-03 2.38876E-01-8.68142E-14-3.41957E-13
 -1      1369 2.30138E+01-5.27168E-02 5.17076E-03 5.63359E-01-7.41395E-14-9.00035E-14
 -1      1370 2.39797E+01-6.58548E-02 6.27085E-03 1.11125E-01-8.45955E-14-3.44866E-13
 -1      1371 2.40612E+01-8.09565E-02 6.10667E-03 7.04786E-02-3.34646E-14-4.26673E-13
 -1      1372 2.34785E+01-1.05417E-01 1.33520E-02 3.40695E-01-1.15789E-13-5.53273E-14
 -1      1373 2.40908E+01-9.82954E-02 1.27228E-02-1.24389E-01 2.21333E-14-4.97395E-13
 -1      1374 2.38657E+01-1.02495E-01 1.07429E-02-1.83005E-01-3.91388E-14-4.99510E-13
 -1      1375 2.37144E+01-1.59594E-01 2.29134E-02-4.24770E-02-7.66973E-14-1.35023E-13
 -1      1376 2.36873E+01-1.11448E-01 1.76230E-02-4.12531E-01-6.55778E-14-5.50473E-13
 -1      1377 2.31099E+01-9.24532E-02 1.22371E-02-4.75470E-01-7.81666E-14-6.47905E-13
 -1      1378 2.35993E+01-1.85911E-01 2.98828E-02-5.54167E-01-1.06406E-13-3.30224E-13
 -1      1379 2.27191E+01-7.97255E-02 1.48236E-02-6.57349E-01-3.03152E-14-6.93202E-13
 -1      1380 2.18733E+01-3.11605E-02 5.50510E-03-6.94995E-01-4.67300E-14-7.38978E-13
 -1      1381 2.30652E+01-1.42744E-01 2.70486E-02-1.06071E+00-1.06225E-13-3.83105E-13
 -1      1382 2.13602E+01 8.13813E-03 7.61533E-04-7.16442E-01-5.31363E-14-8.13509E-13
 -1      1383 2.04975E+01 7.30670E-02-1.03311E-02-6.95060E-01-1.02807E-13-8.97622E-13
 -1      1384 2.21838E+01-9.12811E-03 7.14798E-03-1.32395E+00-1.06761E-13-4.21409E-13
 -1      1385 2.00551E+01 1.20377E-01-1.91470E-02-4.87261E-01-1.54779E-13-8.64683E-13
 -1      1386 1.95208E+01 1.67368E-01-2.67842E-02-3.99193E-01-1.14710E-13-1.01436E-12
 -1      1387 2.12314E+01 1.74753E-01-2.60434E-02-1.10999E+00-1.71431E-13-5.26797E-13
 -1      1388 1.93635E+01 1.87983E-01-3.10708E-02-2.10649E-02-6.60600E-14-1.09024E-12
 -1      1389 1.94085E+01 1.85781E-01-3.05870E-02 9.53654E-02-6.93664E-14-1.13011E-12
 -1      1390 2.06254E+01 3.07723E-01-5.27378E-02-3.93937E-01-1.49311E-13-6.04924E-13
 -1      1391 1.96272E+01 1.62368E-01-2.58099E-02 4.65929E-01-4.85098E-14-1.20092E-12
 -1      1392 2.02405E+01 1.12530E-01-1.74629E-02 5.49743E-01 1.09305E-14-1.16616E-12
 -1      1393 2.06865E+01 3.02015E-01-5.13716E-02 5.29285E-01-7.79446E-14-8.28430E-13
 -1      1394 2.07308E+01 6.50300E-02-8.94931E-03 7.40834E-01 2.44357E-14-1.20808E-12
 -1      1395 2.16478E+01 3.07040E-04 2.34747E-03 7.57120E-01-1.36193E-14-1.20007E-12
 -1      1396 2.14003E+01 1.61651E-01-2.33097E-02 1.21443E+00 7.92248E-15-9.65381E-13
 -1      1397 2.21927E+01-3.67041E-02 6.20751E-03 7.21462E-01-2.96438E-14-1.19012E-12
 -1      1398 2.30711E+01-8.31673E-02 1.54412E-02 6.81168E-01-1.39212E-14-1.22305E-12
 -1      1399 2.24293E+01-2.06845E-02 9.17532E-03 1.38978E+00-1.52862E-14-9.95950E-13
 -1      1400 2.34849E+01-9.33179E-02 1.19947E-02 4.94534E-01 4.78662E-14-1.23927E-12
 -1      1401 2.40872E+01-1.10297E-01 1.72488E-02 4.31914E-01 3.36467E-14-1.15465E-12
 -1      1402 2.33621E+01-1.46987E-01 2.73935E-02 1.10377E+00 8.62678E-15-9.60742E-13
 -1      1403 2.42887E+01-9.96570E-02 9.91380E-03 2.06449E-01 4.53648E-14-1.03592E-12
 -1      1404 2.45446E+01-9.45733E-02 1.19661E-02 1.50010E-01 8.08850E-14-9.59169E-13
 -1      1405 2.39399E+01-1.82550E-01 2.91834E-02 5.97096E-01 9.70057E-14-9.40218E-13
 -1      1406 2.45439E+01-7.66086E-02 5.06436E-03-3.64154E-02 6.98044E-14-9.44392E-13
 -1      1407 2.45065E+01-6.18435E-02 5.37176E-03-7.44453E-02 4.15371E-14-8.90635E-13
 -1      1408 2.41053E+01-1.52297E-01 2.18477E-02 1.00957E-01 7.68812E-14-7.35000E-13
 -1      1409 2.43585E+01-4.59303E-02 1.06088E-03-1.93714E-01 8.43449E-14-7.33307E-13
 -1      1410 2.41295E+01-3.03574E-02 6.31425E-04-2.13210E-01 7.92036E-14-6.56218E-13
 -1      1411 2.39322E+01-9.75518E-02 1.24902E-02-2.61862E-01 1.60817E-13-5.29533E-13
 -1      1412 2.38969E+01-1.98830E-02-9.94740E-04-2.70188E-01 9.27335E-14-5.33058E-13
 -1      1413 2.35739E+01-7.50437E-03-1.70237E-03-2.76062E-01 1.15049E-13-4.06930E-13
 -1      1414 2.35399E+01-4.66096E-02 4.81466E-03-4.68067E-01 1.61327E-13-2.33303E-13
 -1      1415 2.33084E+01-2.20194E-03-1.47225E-03-2.88361E-01 6.25436E-14-4.24754E-13
 -1      1416 2.29624E+01 6.19530E-03-2.29501E-03-2.86018E-01 3.95663E-14-3.34347E-13
 -1      1417 2.30403E+01-1.03800E-02-1.91464E-04-5.46929E-01 1.09572E-13-2.75204E-13
 -1      1418 2.26993E+01 7.86048E-03-1.12407E-03-2.71645E-01-3.14225E-14-3.44598E-13
 -1      1419 2.23733E+01 1.29048E-02-2.00531E-03-2.65221E-01-3.22497E-14-5.16283E-13
 -1      1420 2.25165E+01 1.08679E-02-2.91476E-03-5.41686E-01-4.86523E-14-2.73086E-13
 -1      1421 2.21331E+01 1.24645E-02-5.37640E-04-2.37830E-01-8.19908E-14-5.29599E-13
 -1      1422 2.18480E+01 1.51224E-02-1.42499E-03-2.29967E-01-1.67913E-13-7.26341E-13
 -1      1423 2.20211E+01 2.09402E-02-4.07900E-03-4.90027E-01-1.91227E-13-3.36605E-13
 -1      1424 2.16403E+01 1.36813E-02-1.60452E-05-1.98357E-01-4.73970E-15-7.76509E-13
 -1      1425 2.14031E+01 1.48049E-02-8.57544E-04-1.90539E-01 5.58486E-14-7.64983E-13
 -1      1426 2.15817E+01 2.39744E-02-4.31373E-03-4.18443E-01-1.06610E-13-4.07427E-13
 -1      1427 2.12304E+01 1.30381E-02 3.40034E-04-1.59706E-01-1.26093E-15-7.59822E-13
 -1      1428 2.10400E+01 1.32506E-02-4.14527E-04-1.52658E-01 3.21420E-14-6.55548E-13
 -1      1429 2.12092E+01 2.31328E-02-4.05546E-03-3.43137E-01 1.64020E-14-5.04528E-13
 -1      1430 2.09007E+01 1.15195E-02 5.33921E-04-1.25059E-01 7.88866E-15-7.01267E-13
 -1      1431 2.07521E+01 1.12348E-02-1.10435E-04-1.19058E-01-2.07961E-14-6.73958E-13
 -1      1432 2.09039E+01 2.04699E-02-3.57299E-03-2.72837E-01 2.23478E-14-5.89020E-13
 -1      1433 2.06425E+01 9.70467E-03 6.05708E-04-9.56188E-02-2.22836E-14-6.42578E-13
 -1      1434 2.05294E+01 9.18104E-03 7.77812E-05-9.07004E-02 5.76329E-15-6.85983E-13
 -1      1435 2.06604E+01 1.71857E-02-3.01945E-03-2.11487E-01-6.89158E-14-4.41171E-13
 -1      1436 2.04450E+01 7.90675E-03 5.98796E-04-7.15015E-02-4.37660E-14-7.63738E-13
 -1      1437 2.03608E+01 7.29777E-03 1.81253E-04-6.75821E-02-1.03240E-13-8.71864E-13
 -1      1438 2.04705E+01 1.39183E-02-2.47640E-03-1.60242E-01-7.60379E-14-3.32572E-13
 -1      1439 2.02973E+01 6.27783E-03 5.47733E-04-5.22808E-02-4.05330E-14-9.07944E-13
 -1      1440 2.02361E+01 5.67028E-03 2.27580E-04-4.92279E-02 9.46730E-14-8.96075E-13
 -1      1441 2.03257E+01 1.09694E-02-1.98356E-03-1.18767E-01-1.01961E-13-5.56771E-13
 -1      1442 2.01892E+01 4.87775E-03 4.76332E-04-3.73050E-02 1.49353E-13-8.38406E-13
 -1      1443 2.01458E+01 4.31712E-03 2.37824E-04-3.49747E-02 1.05574E-13-6.47183E-13
 -1      1444 2.02175E+01 8.45229E-03-1.55700E-03-8.60244E-02 1.07959E-13-6.13023E-13
 -1      1445 2.01120E+01 3.71626E-03 3.99506E-04-2.58695E-02 1.30938E-14-5.92319E-13
 -1      1446 2.00822E+01 3.22323E-03 2.26866E-04-2.41245E-02-1.06466E-14-5.94213E-13
 -1      1447 2.01383E+01 6.38119E-03-1.19971E-03-6.07188E-02 1.21375E-13-5.52442E-13
 -1      1448 2.00585E+01 2.77790E-03 3.25789E-04-1.73043E-02-2.48107E-14-6.08257E-13
 -1      1449 2.00387E+01 2.35864E-03 2.04678E-04-1.60232E-02-5.97759E-15-5.36143E-13
 -1      1450 2.00819E+01 4.72254E-03-9.07867E-04-4.15405E-02-1.54786E-15-5.33948E-13
 -1      1451 2.00227E+01 2.03618E-03 2.59500E-04-1.10141E-02 3.21930E-14-6.66988E-13
 -1      1452 2.00103E+01 1.68873E-03 1.77651E-04-1.00933E-02 2.23301E-14-6.41788E-13
 -1      1453 2.00428E+01 3.42312E-03-6.74453E-04-2.72841E-02-8.63219E-14-5.41566E-13
 -1      1454 1.99999E+01 1.46127E-03 2.02341E-04-6.49168E-03 5.63131E-14-4.94663E-13
 -1      1455 1.99928E+01 1.17934E-03 1.49687E-04-5.84544E-03 9.16622E-14-4.00157E-13
 -1      1456 2.00167E+01 2.42502E-03-4.91285E-04-1.68978E-02 7.91822E-14-5.78924E-13
 -1      1457 1.99864E+01 1.02393E-03 1.54482E-04-3.31710E-03 8.73043E-14-4.26573E-13
 -1      1458 1.99830E+01 7.99209E-04 1.23018E-04-2.87628E-03-4.70829E-14-3.82912E-13
 -1      1459 2.00001E+01 1.67287E-03-3.50124E-04-9.49642E-03 8.15003E-14-4.15459E-13
 -1      1460 1.99796E+01 6.97365E-04 1.15262E-04-1.15130E-03-1.91812E-14-3.77739E-13
 -1      1461 1.99786E+01 5.20880E-04 9.87718E-05-8.61187E-04-4.24915E-14-3.57111E-13
 -1      1462 1.99904E+01 1.11694E-03-2.43256E-04-4.35492E-03-2.30959E-15-4.63081E-13
 -1      1463 1.99772E+01 4.57959E-04 8.36158E-05 2.73397E-04-8.58409E-14-3.02826E-13
 -1      1464 1.99779E+01 3.20809E-04 7.73724E-05 4.55123E-04-8.48466E-14-4.57606E-13
 -1      1465 1.99856E+01 7.14153E-04-1.63756E-04-8.93173E-04-1.06655E-13-3.88414E-13
 -1      1466 1.99778E+01 2.85284E-04 5.83516E-05 1.16308E-03 9.90233E-14-3.89511E-13
 -1      1467 1.99795E+01 1.79018E-04 5.88224E-05 1.26821E-03 9.49262E-14-3.22177E-13
 -1      1468 1.99841E+01 4.27820E-04-1.05573E-04 1.34179E-03 5.83724E-14-2.05237E-13
 -1      1469 1.99803E+01 1.61733E-04 3.83493E-05 1.67114E-03-8.21704E-14 1.25435E-14
 -1      1470 1.99825E+01 7.84584E-05 4.29966E-05 1.72251E-03 9.14700E-14-3.18105E-16
 -1      1471 1.99847E+01 2.26828E-04-6.34728E-05 2.69346E-03 2.10030E-13 2.15316E-13
 -1      1472 1.99837E+01 7.18496E-05 2.28590E-05 1.90548E-03 1.34492E-13-4.67461E-14
 -1      1473 1.99862E+01 4.17550E-06 3.00953E-05 1.91808E-03 1.16621E-13 4.61675E-14
 -1      1474 1.99867E+01 8.42270E-05-3.28913E-05 3.41103E-03 1.64392E-13 3.88433E-13
 -1      1475 1.99877E+01 1.38859E-06 1.20416E-05 1.93348E-03 4.51781E-14 4.86713E-14
 -1      1476 1.99901E+01-5.77416E-05 2.13369E-05 1.91491E-03 3.04784E-15 1.05823E-13
 -1      1477 1.99893E+01-2.45110E-05-9.59934E-06 3.66100E-03 1.26217E-13 3.38424E-13
 -1      1478 1.99916E+01-6.38775E-05 7.91122E-06 1.78421E-03-9.08600E-14 1.31904E-14
 -1      1479 1.99938E+01-1.20963E-04 1.95512E-05 1.73389E-03-1.13641E-13-8.94409E-14
 -1      1480 1.99923E+01-1.24095E-04 1.05889E-05 3.53455E-03-1.62420E-13 1.05585E-13
 -1      1481 1.99952E+01-1.39021E-04 1.40165E-05 1.44977E-03 4.20677E-14-1.41123E-13
 -1      1482 1.99969E+01-1.97548E-04 2.29519E-05 1.35652E-03 2.80561E-15-1.67440E-13
 -1      1483 1.99951E+01-2.42220E-04 3.03531E-05 3.04927E-03-7.40576E-14-1.27089E-13
 -1      1484 1.99979E+01-2.44662E-04 2.43195E-05 8.89079E-04-7.83796E-14-8.08004E-14
 -1      1485 1.99989E+01-2.64016E-04 1.70188E-05 7.53329E-04-2.14653E-14-1.69684E-13
 -1      1486 1.99974E+01-4.11920E-04 4.72349E-05 2.17713E-03-4.35104E-14-4.66771E-14
 -1      1487 1.99997E+01-1.49674E-04 2.63082E-05 4.66147E-05 5.13743E-14-1.58180E-13
 -1      1488 1.99993E+01-5.36946E-04 3.51032E-05 7.66012E-04 8.84378E-14 3.12269E-14
 -1      1489 2.09935E+01 7.30198E-02-1.44981E-01 3.50085E-01 1.80658E-13 1.78809E-12
 -1      1490 2.20571E+01 2.17110E-01-2.27092E-01 5.78745E-01 1.51545E-13 2.04531E-12
 -1      1491 2.22830E+01 8.48253E-01-9.11590E-02 1.79691E+00 2.93959E-13 1.37870E-12
 -1      1492 2.03987E+01 3.44213E-02-1.87206E-02 5.43174E-02 1.35104E-13 1.43685E-12
 -1      1493 2.06329E+01 1.16678E-01-5.82834E-02 1.07700E-01 1.37588E-13 1.64869E-12
 -1      1494 2.11354E+01 1.80345E-01-5.68134E-02 5.33679E-01 2.77639E-13 1.11119E-12
 -1      1495 2.03772E+01 1.94700E-02 5.43436E-03-9.12681E-02 8.09743E-14 1.18781E-12
 -1      1496 2.03199E+01 5.88773E-02 3.07627E-03-5.95824E-02 8.90425E-14 1.32498E-12
 -1      1497 2.06960E+01 7.55324E-02-1.47990E-02 3.45443E-02 1.98981E-13 9.08502E-13
 -1      1498 2.06738E+01 1.22171E-02 5.58125E-03-1.74622E-01 5.71336E-14 1.00616E-12
 -1      1499 2.04674E+01 3.56360E-02 1.16661E-02-1.52690E-01 5.31571E-14 1.10054E-12
 -1      1500 2.07017E+01 4.00283E-02-6.13174E-03-2.12978E-01 1.35652E-13 7.26516E-13
 -1      1501 2.11602E+01 7.17692E-03 3.32323E-03-2.26235E-01 4.02764E-14 9.20625E-13
 -1      1502 2.08653E+01 2.36482E-02 8.44081E-03-2.10136E-01 3.22769E-14 9.59979E-13
 -1      1503 2.09696E+01 2.33261E-02-5.63573E-03-3.57885E-01 7.98918E-14 6.09017E-13
 -1      1504 2.17547E+01 1.44300E-03 2.80813E-03-2.52445E-01 1.08893E-14 8.68153E-13
 -1      1505 2.14102E+01 1.36836E-02 5.07259E-03-2.41928E-01 1.69802E-14 8.92966E-13
 -1      1506 2.13956E+01 1.09468E-02-5.10515E-03-4.42544E-01 3.37744E-14 5.66360E-13
 -1      1507 2.23802E+01-6.61242E-03 4.39595E-03-2.48447E-01 4.65499E-14 7.82333E-13
 -1      1508 2.20260E+01 1.46414E-03 3.29708E-03-2.45651E-01 2.90098E-14 8.23064E-13
 -1      1509 2.19032E+01-3.48142E-03-2.92540E-03-4.72383E-01 5.71808E-14 5.07724E-13
 -1      1510 2.29416E+01-1.78078E-02 8.15578E-03-2.02979E-01-2.34862E-14 7.09413E-13
 -1      1511 2.26303E+01-1.55999E-02 2.96205E-03-2.11875E-01 2.79043E-14 7.41806E-13
 -1      1512 2.24174E+01-2.35689E-02 1.37841E-03-4.34824E-01 6.52872E-14 5.05318E-13
 -1      1513 2.33165E+01-3.14254E-02 1.38536E-02-1.02977E-01 1.65211E-14 7.44805E-13
 -1      1514 2.31187E+01-3.81564E-02 3.97424E-03-1.28360E-01-3.75325E-14 7.12614E-13
 -1      1515 2.28496E+01-5.06572E-02 8.02911E-03-3.08492E-01-1.49958E-14 4.42900E-13
 -1      1516 2.33632E+01-4.37964E-02 1.98868E-02 5.74196E-02 2.80427E-14 7.50698E-13
 -1      1517 2.33618E+01-6.30352E-02 6.09977E-03 1.25234E-02 6.60062E-15 7.47066E-13
 -1      1518 2.30942E+01-8.16982E-02 1.63618E-02-7.55164E-02 6.30919E-15 4.34409E-13
 -1      1519 2.29577E+01-4.73368E-02 2.22732E-02 2.61915E-01 1.98036E-14 6.86989E-13
 -1      1520 2.32251E+01-8.09701E-02 8.19533E-03 2.00971E-01 4.18294E-14 7.62081E-13
 -1      1521 2.30429E+01-1.06004E-01 2.37746E-02 2.57118E-01 4.46743E-14 5.07662E-13
 -1      1522 2.20675E+01-3.27081E-02 1.54009E-02 4.56760E-01 3.07896E-14 7.16795E-13
 -1      1523 2.26200E+01-7.71250E-02 7.76283E-03 3.94827E-01 1.97715E-14 7.05602E-13
 -1      1524 2.26224E+01-1.04146E-01 2.56010E-02 6.29549E-01 2.41213E-14 5.10248E-13
 -1      1525 2.08379E+01 3.53055E-03-3.87307E-03 5.52982E-01 7.24808E-14 6.03739E-13
 -1      1526 2.15842E+01-3.90141E-02 1.91768E-03 5.16399E-01 3.53274E-14 6.62491E-13
 -1      1527 2.18567E+01-5.56868E-02 1.73810E-02 9.13909E-01 8.01121E-14 4.38399E-13
 -1      1528 1.96244E+01 4.98957E-02-3.02665E-02 4.66713E-01 2.48256E-14 4.08062E-13
 -1      1529 2.03487E+01 2.91077E-02-9.57956E-03 4.80973E-01 6.66325E-14 5.26530E-13
 -1      1530 2.09220E+01 4.06178E-02-8.09014E-04 9.48104E-01 1.14771E-13 3.15185E-13
 -1      1531 1.88876E+01 8.10307E-02-4.88903E-02 1.87739E-01-7.29174E-14 4.62489E-13
 -1      1532 1.93168E+01 9.81786E-02-2.14338E-02 2.57191E-01-4.96131E-15 3.78912E-13
 -1      1533 2.01348E+01 1.49548E-01-2.07704E-02 6.34591E-01-1.09149E-14 2.91498E-13
 -1      1534 1.89574E+01 7.64295E-02-4.54158E-02-1.81100E-01-2.79256E-14 5.18256E-13
 -1      1535 1.89022E+01 1.28858E-01-2.49953E-02-8.37863E-02-6.80844E-14 4.32456E-13
 -1      1536 1.98235E+01 2.08555E-01-3.08887E-02 4.65934E-02-5.12229E-14 3.16570E-13
 -1      1537 1.98223E+01 3.95287E-02-2.09274E-02-4.77036E-01 1.57714E-13 3.11841E-13
 -1      1538 1.92966E+01 1.03872E-01-1.61946E-02-3.95056E-01 1.15989E-13 4.66266E-13
 -1      1539 2.01381E+01 1.75706E-01-2.68634E-02-5.73803E-01 1.05044E-13 1.82668E-13
 -1      1540 2.11376E+01-5.97415E-03 9.15442E-03-5.85765E-01-1.11395E-14 7.45792E-14
 -1      1541 2.03491E+01 4.20228E-02-2.28425E-04-5.49251E-01 7.75679E-14 2.21274E-13
 -1      1542 2.09539E+01 7.09444E-02-1.39239E-02-9.64483E-01 1.97830E-13 1.28942E-13
 -1      1543 2.24407E+01-3.65962E-02 2.84462E-02-5.06024E-01 6.51909E-15 1.88904E-13
 -1      1544 2.16625E+01-1.93601E-02 1.31590E-02-5.15930E-01-9.48235E-14 9.43690E-14
 -1      1545 2.19547E+01-4.26836E-02-1.45837E-03-1.00864E+00-6.81998E-14 2.48725E-14
 -1      1546 2.33912E+01-4.56079E-02 3.21687E-02-3.19560E-01-4.24279E-14 2.54761E-13
 -1      1547 2.28231E+01-5.50065E-02 1.81360E-02-3.56750E-01-2.35489E-14 2.53228E-13
 -1      1548 2.28212E+01-1.10597E-01 5.95139E-03-7.74299E-01-6.64122E-14 1.03837E-13
 -1      1549 2.38627E+01-3.90541E-02 2.53611E-02-1.17291E-01 5.06852E-14 2.34613E-13
 -1      1550 2.35773E+01-6.22606E-02 1.55741E-02-1.60472E-01 1.14925E-14 2.57197E-13
 -1      1551 2.33645E+01-1.22921E-01 8.26068E-03-4.18396E-01-1.33053E-15 1.25014E-13
 -1      1552 2.38990E+01-2.62366E-02 1.50619E-02 4.40358E-02 3.33301E-14 5.83604E-14
 -1      1553 2.38682E+01-5.14011E-02 9.60375E-03 8.20439E-03 7.23033E-14 1.96912E-13
 -1      1554 2.35459E+01-9.89885E-02 7.45726E-03-7.87140E-02 1.04914E-13 1.22691E-13
 -1      1555 2.36250E+01-1.37174E-02 6.06211E-03 1.46237E-01-1.95655E-14 5.11119E-14
 -1      1556 2.37736E+01-3.41060E-02 3.76819E-03 1.22362E-01-5.95661E-15 3.03776E-14
 -1      1557 2.34265E+01-6.27666E-02 5.44641E-03 1.72178E-01 3.82316E-14 1.62353E-14
 -1      1558 2.31755E+01-4.32741E-03 9.94302E-05 1.95314E-01-7.24772E-14 2.72490E-13
 -1      1559 2.34237E+01-1.78900E-02-2.19052E-04 1.82564E-01-9.25230E-14 1.48012E-13
 -1      1560 2.31064E+01-2.99046E-02 3.40879E-03 3.19782E-01-8.78646E-14 6.12600E-14
 -1      1561 2.26585E+01 1.57561E-03-3.02205E-03 2.06275E-01-1.49195E-14 4.47007E-13
 -1      1562 2.29434E+01-5.79070E-03-2.20656E-03 2.01736E-01 2.27338E-15 4.28147E-13
 -1      1563 2.26821E+01-6.38452E-03 1.81968E-03 3.81467E-01-8.66030E-14 3.09824E-13
 -1      1564 2.21465E+01 4.69225E-03-4.17480E-03 1.94096E-01 7.28639E-14 3.76782E-13
 -1      1565 2.24268E+01 1.91790E-03-2.76029E-03 1.94747E-01 1.11222E-14 4.57712E-13
 -1      1566 2.22278E+01 7.73268E-03 7.38809E-04 3.84199E-01 8.73813E-16 3.27054E-13
 -1      1567 2.16810E+01 5.92562E-03-4.20583E-03 1.70249E-01 3.27737E-14 2.99916E-13
 -1      1568 2.19338E+01 6.11319E-03-2.53148E-03 1.73725E-01 6.60255E-14 3.68682E-13
 -1      1569 2.17921E+01 1.46838E-02 6.66634E-05 3.52551E-01 1.05397E-13 2.36208E-13
 -1      1570 2.12808E+01 6.03067E-03-3.71045E-03 1.42310E-01 2.62652E-14 2.85199E-13
 -1      1571 2.14963E+01 7.88931E-03-1.99427E-03 1.47008E-01-3.69264E-14 2.30982E-13
 -1      1572 2.14020E+01 1.69624E-02-3.19789E-04 3.04651E-01-6.29271E-15 2.90366E-13
 -1      1573 2.09506E+01 5.53799E-03-3.03851E-03 1.14733E-01-1.78628E-14 2.85814E-13
 -1      1574 2.11268E+01 8.17188E-03-1.41691E-03 1.19676E-01-2.43865E-14 2.89063E-13
 -1      1575 2.10692E+01 1.65489E-02-5.19103E-04 2.52211E-01-6.44320E-15 2.73851E-13
 -1      1576 2.06868E+01 4.78337E-03-2.36921E-03 8.98179E-02 2.95285E-14 1.52325E-13
 -1      1577 2.08263E+01 7.62712E-03-9.18981E-04 9.44655E-02 5.44191E-14 2.14235E-13
 -1      1578 2.07954E+01 1.47899E-02-5.99791E-04 2.01974E-01 4.14193E-14 1.82653E-13
 -1      1579 2.04815E+01 3.96285E-03-1.78037E-03 6.85130E-02-5.29131E-14 3.22890E-13
 -1      1580 2.05890E+01 6.69043E-03-5.35593E-04 7.26087E-02-4.56659E-14 1.99994E-13
 -1      1581 2.05767E+01 1.25133E-02-6.07464E-04 1.57309E-01-5.40137E-14 2.09902E-13
 -1      1582 2.03258E+01 3.18159E-03-1.29604E-03 5.09865E-02 2.18960E-14 4.87257E-13
 -1      1583 2.04065E+01 5.62629E-03-2.61937E-04 5.44426E-02-4.17612E-14 3.46461E-13
 -1      1584 2.04063E+01 1.01863E-02-5.72244E-04 1.19485E-01-7.82256E-14 2.63232E-13
 -1      1585 2.02105E+01 2.48941E-03-9.14575E-04 3.69918E-02 1.38042E-13 2.97233E-13
 -1      1586 2.02696E+01 4.58418E-03-7.85891E-05 3.98164E-02 8.87481E-14 4.36686E-13
 -1      1587 2.02768E+01 8.04696E-03-5.14106E-04 8.85696E-02 1.32080E-13 1.44060E-13
 -1      1588 2.01272E+01 1.90388E-03-6.23649E-04 2.60929E-02-4.59109E-14 2.37258E-13
 -1      1589 2.01693E+01 3.64054E-03 3.62780E-05 2.83428E-02 5.41544E-14 3.30844E-13
 -1      1590 2.01805E+01 6.19755E-03-4.46199E-04 6.39987E-02 9.14836E-14 1.38418E-13
 -1      1591 2.00688E+01 1.42486E-03-4.07701E-04 1.77938E-02 7.36855E-14 7.64648E-14
 -1      1592 2.00979E+01 2.82738E-03 1.02007E-04 1.95466E-02 5.83209E-15 1.40853E-13
 -1      1593 2.01108E+01 4.66343E-03-3.76937E-04 4.49331E-02 7.73312E-14 1.31284E-13
 -1      1594 2.00292E+01 1.04325E-03-2.51472E-04 1.16100E-02-5.00549E-14-1.10005E-13
 -1      1595 2.00485E+01 2.15102E-03 1.34051E-04 1.29481E-02 3.52843E-14-2.14521E-14
 -1      1596 2.00616E+01 3.42951E-03-3.11431E-04 3.04612E-02 8.87713E-14 1.12046E-13
 -1      1597 2.00036E+01 7.46141E-04-1.41493E-04 7.10352E-03-7.26457E-14-3.56909E-15
 -1      1598 2.00158E+01 1.60385E-03 1.44036E-04 8.10531E-03-7.20813E-14-8.89361E-14
 -1      1599 2.00281E+01 2.46185E-03-2.52522E-04 1.97097E-02 2.56812E-14 9.65403E-15
 -1      1600 1.99882E+01 5.19734E-04-6.65266E-05 3.89752E-03 4.99416E-14-6.84624E-14
 -1      1601 1.99952E+01 1.17155E-03 1.40343E-04 4.63294E-03 1.02040E-14 1.76713E-14
 -1      1602 2.00063E+01 1.71997E-03-2.01510E-04 1.18978E-02-2.90383E-14-2.19144E-14
 -1      1603 1.99801E+01 3.50777E-04-1.74991E-05 1.67851E-03 8.39084E-15 1.07724E-13
 -1      1604 1.99834E+01 8.37286E-04 1.28806E-04 2.20756E-03 1.29272E-14 4.18194E-14
 -1      1605 1.99930E+01 1.16341E-03-1.58674E-04 6.35806E-03 6.42143E-15 1.22118E-13
 -1      1606 1.99769E+01 2.27270E-04 1.27501E-05 1.93210E-04-1.86229E-15 1.88765E-15
 -1      1607 1.99778E+01 5.84014E-04 1.13353E-04 5.65644E-04 5.57406E-14 9.08639E-14
 -1      1608 1.99857E+01 7.54904E-04-1.23635E-04 2.53820E-03 2.72042E-14 2.53303E-13
 -1      1609 1.99770E+01 1.38685E-04 2.97887E-05-7.57573E-04 1.12229E-13-5.61351E-14
 -1      1610 1.99763E+01 3.95681E-04 9.65188E-05-5.01664E-04-4.63685E-14 3.83509E-15
 -1      1611 1.99827E+01 4.61664E-04-9.56055E-05-5.54990E-06 1.02121E-14 1.67113E-13
 -1      1612 1.99792E+01 7.58819E-05 3.79411E-05-1.32561E-03-1.11906E-13 2.32432E-14
 -1      1613 1.99775E+01 2.57659E-04 7.98509E-05-1.15504E-03 4.57757E-14 4.13829E-14
 -1      1614 1.99825E+01 2.55547E-04-7.35256E-05-1.61977E-03 4.65203E-14 3.95732E-13
 -1      1615 1.99826E+01 3.08389E-05 4.07353E-05-1.62142E-03 3.98528E-15 8.72615E-14
 -1      1616 1.99804E+01 1.56677E-04 6.42615E-05-1.51319E-03-4.76722E-14-3.30041E-14
 -1      1617 1.99841E+01 1.12573E-04-5.60833E-05-2.56561E-03-4.65601E-14 3.50798E-13
 -1      1618 1.99866E+01-3.85369E-06 4.16449E-05-1.71886E-03 7.95764E-14-2.68839E-14
 -1      1619 1.99842E+01 8.02818E-05 5.04694E-05-1.65782E-03 2.19428E-14-1.57300E-14
 -1      1620 1.99868E+01 1.18880E-05-4.15305E-05-3.02912E-03 4.04893E-14 1.34379E-13
 -1      1621 1.99907E+01-3.54128E-05 4.51848E-05-1.65747E-03 1.71553E-13-4.97134E-13
 -1      1622 1.99883E+01 1.60022E-05 3.97778E-05-1.63665E-03 1.77356E-13-1.75205E-13
 -1      1623 1.99899E+01-6.56665E-05-2.71254E-05-3.12848E-03 2.67416E-13-1.66046E-13
 -1      1624 1.99945E+01-7.15305E-05 5.60226E-05-1.44281E-03-1.59860E-14-6.68672E-13
 -1      1625 1.99923E+01-4.95228E-05 3.47066E-05-1.46468E-03 9.17428E-14-5.16497E-13
 -1      1626 1.99931E+01-1.39672E-04-8.87827E-06-2.91779E-03 2.03679E-13-7.45147E-14
 -1      1627 1.99975E+01-1.20552E-04 6.84020E-05-1.04375E-03 1.23014E-13-8.32414E-13
 -1      1628 1.99958E+01-1.31534E-04 3.61368E-05-1.12591E-03 7.16602E-14-5.89198E-13
 -1      1629 1.99960E+01-2.33291E-04 1.52173E-05-2.38980E-03 6.98975E-14-4.78015E-14
 -1      1630 1.99993E+01-1.85899E-04 2.41432E-05-4.56113E-04-1.57187E-13-8.72849E-13
 -1      1631 1.99984E+01-2.21979E-04 3.38210E-05-5.95214E-04-6.40739E-14-9.45999E-13
 -1      1632 1.99982E+01-3.64392E-04 3.66617E-05-1.50121E-03 4.90547E-14-1.14721E-13
 -1      1633 1.99997E+01-1.69832E-04 1.56735E-05-7.39750E-05-5.36311E-13-7.02266E-13
 -1      1634 1.99996E+01-1.86557E-03 3.05921E-05-8.95459E-04-2.22678E-13 3.26959E-13
 -1      1635 1.99995E+01-9.41316E-04 4.78642E-06-7.38718E-04-5.45770E-13 1.87294E-13
 -1      1636 1.99997E+01-4.39977E-03 7.81306E-06-1.32348E-03-1.74928E-13-5.06811E-14
 -1      1637 1.99997E+01-2.86592E-03 1.88033E-05-1.26338E-03-1.97194E-13 6.09970E-14
 -1      1638 1.99994E+01-2.42636E-03 3.28860E-05-2.07215E-03-9.78618E-15 2.05287E-13
 -1      1639 1.99998E+01-7.33574E-03-6.19103E-06-1.45449E-03-2.35832E-13-4.04694E-14
 -1      1640 1.99998E+01-5.58712E-03 6.32499E-06-1.45301E-03-1.10767E-13-4.82070E-14
 -1      1641 1.99997E+01-4.58383E-03 1.34199E-05-2.65992E-03-1.26276E-13 3.10476E-15
 -1      1642 1.99999E+01-1.02074E-02-1.06532E-05-1.35640E-03-2.54421E-14 9.65738E-14
 -1      1643 1.99998E+01-8.54319E-03-1.46254E-06-1.39389E-03-1.08882E-13 1.98685E-13
 -1      1644 1.99998E+01-6.93966E-03-9.67224E-06-2.73278E-03-6.15639E-14 5.63945E-14
 -1      1645 1.99999E+01-1.26237E-02-9.92113E-06-1.10976E-03-3.80642E-13-1.08377E-13
 -1      1646 1.99999E+01-1.12621E-02-2.94108E-06-1.16865E-03-1.99827E-13-1.49240E-13
 -1      1647 2.00000E+01-9.15900E-03-2.60467E-05-2.42634E-03-2.13564E-13-2.42075E-13
 -1      1648 1.99999E+01-1.44385E-02-7.46279E-06-7.66504E-04-4.80314E-13-7.11609E-14
 -1      1649 1.99999E+01-1.34600E-02-3.10959E-06-8.39439E-04-3.31602E-13-1.65024E-13
 -1      1650 2.00000E+01-1.10078E-02-3.48975E-05-1.87558E-03-2.69355E-13-1.61987E-13
 -1      1651 2.00000E+01-1.54657E-02-4.90608E-06-3.72802E-04-4.44635E-13-1.02906E-13
 -1      1652 1.99999E+01-1.49627E-02-2.68884E-06-4.51765E-04-4.59219E-13 3.74966E-14
 -1      1653 2.00000E+01-1.23333E-02-3.98949E-05-1.17352E-03-1.29124E-13-1.03438E-13
 -1      1654 2.00000E+01-1.56414E-02-3.23545E-06 4.18970E-05-2.68932E-13 5.88848E-14
 -1      1655 2.00000E+01-1.56434E-02-3.25211E-06-3.88725E-05-5.02750E-13-2.14243E-14
 -1      1656 2.00001E+01-1.30171E-02-4.19319E-05-3.96774E-04-5.74488E-14-1.80518E-14
 -1      1657 1.99999E+01-1.49539E-02-2.64003E-06 4.55062E-04-4.36175E-13-1.32702E-13
 -1      1658 2.00000E+01-1.54613E-02-4.96590E-06 3.76027E-04-4.50075E-13 1.19755E-13
 -1      1659 2.00001E+01-1.30149E-02-4.19651E-05 4.02790E-04-1.71713E-13-3.77952E-14
 -1      1660 1.99999E+01-1.34438E-02-2.91228E-06 8.43241E-04-3.75678E-13-8.83940E-14
 -1      1661 1.99999E+01-1.44270E-02-7.78374E-06 7.70353E-04-2.89492E-13-1.73052E-13
 -1      1662 2.00000E+01-1.23261E-02-3.98919E-05 1.18049E-03-2.58708E-13 1.65267E-14
 -1      1663 1.99999E+01-1.12572E-02-3.43682E-06 1.16946E-03-5.20955E-13-3.40204E-14
 -1      1664 1.99999E+01-1.26225E-02-1.03125E-05 1.11090E-03-3.81362E-13-1.05800E-13
 -1      1665 2.00000E+01-1.10091E-02-3.51578E-05 1.87890E-03-2.45874E-13-2.34429E-13
 -1      1666 1.99998E+01-8.50989E-03-1.51631E-06 1.39764E-03-3.09370E-13 3.64386E-14
 -1      1667 1.99999E+01-1.01802E-02-1.10354E-05 1.36035E-03-4.77566E-13 4.15302E-13
 -1      1668 2.00000E+01-9.15597E-03-2.57620E-05 2.43113E-03-2.18061E-13 1.83325E-13
 -1      1669 1.99998E+01-5.55330E-03 5.09690E-06 1.45971E-03-7.86729E-14 7.50333E-14
 -1      1670 1.99998E+01-7.30160E-03-6.44925E-06 1.45752E-03-1.29175E-13 9.00818E-14
 -1      1671 1.99998E+01-6.91485E-03-9.57448E-06 2.73852E-03-5.82431E-14 1.50944E-13
 -1      1672 1.99996E+01-2.87916E-03 2.99363E-06 1.25757E-03 5.18570E-14 2.00842E-13
 -1      1673 1.99997E+01-4.37300E-03 5.89523E-06 1.31739E-03-4.98701E-14 1.26557E-13
 -1      1674 1.99997E+01-4.55072E-03 1.20965E-05 2.66011E-03 5.73379E-14 9.06742E-14
 -1      1675 1.99994E+01-1.16580E-03-1.77320E-05 1.04302E-03 4.45797E-14-4.12495E-14
 -1      1676 1.99995E+01-2.08373E-03 4.40498E-06 1.27446E-03 8.21059E-14-3.49471E-14
 -1      1677 1.99994E+01-2.55530E-03 4.87865E-05 2.39729E-03 5.88378E-15 1.25568E-13
 -1      1678 1.99987E+01-1.16668E-03 1.24034E-05 1.99149E-03-7.33365E-14 2.16379E-14
 -1      1679-7.23317E-01-1.47152E+01-1.69502E+00-1.11190E+00 1.84586E-12 7.00939E-13
 -1      1680-6.51905E-01-1.69918E+01-1.91297E+00 2.69285E-01 1.27301E-12 3.60184E-13
 -1      1681 2.00562E+00-7.45529E+00-1.02996E+00 1.20390E+00 2.14873E-12 1.02085E-12
 -1      1682 1.06333E+00-1.25198E+01-1.52014E+00 4.24765E-01 1.88027E-12 7.91762E-13
 -1      1683 7.67375E+00 1.13981E-01-4.55578E-01 4.98840E+00 2.16738E-12 1.45461E-12
 -1      1684 4.34377E+00-5.47617E+00-1.20128E+00 1.98524E+00 2.32792E-12 1.19504E-12
 -1      1685 1.84470E+01 5.26216E+00 2.70517E-01 1.00369E+01 1.62614E-12 1.57163E-12
 -1      1686 1.16028E+01 2.16268E+00-5.99068E-01 6.34367E+00 2.08877E-12 1.52967E-12
 -1      1687 3.31483E+01 5.96797E+00 1.00827E+00 1.20816E+01 9.90041E-13 1.05782E-12
 -1      1688 2.41562E+01 5.76831E+00 1.95731E-01 1.03825E+01 1.39733E-12 1.40399E-12
 -1      1689 4.67076E+01 4.94808E+00 1.65385E+00 1.02386E+01 5.41789E-13 3.54827E-13
 -1      1690 3.81199E+01 6.54298E+00 9.86280E-01 1.20207E+01 8.39273E-13 9.51683E-13
 -1      1691 5.44753E+01 3.55057E+00 1.89088E+00 2.85130E+00 4.24688E-13-6.90559E-13
 -1      1692 5.00205E+01 4.74939E+00 1.59100E+00 8.00055E+00 5.11591E-13 6.29496E-14
 -1      1693 5.36064E+01 3.96235E+00 1.80859E+00-5.40184E+00 5.89057E-13-1.69342E-12
 -1      1694 5.54265E+01 3.38711E+00 1.91150E+00 5.16043E-02 4.39315E-13-1.03428E-12
 -1      1695 4.41963E+01 5.88015E+00 1.33314E+00-1.11208E+01 1.14250E-12-2.43094E-12
 -1      1696 5.12632E+01 4.18275E+00 1.83252E+00-7.81333E+00 7.62501E-13-2.01050E-12
 -1      1697 3.01941E+01 6.91268E+00 5.96856E-01-1.20517E+01 1.78479E-12-2.64233E-12
 -1      1698 3.95910E+01 6.04803E+00 1.39161E+00-1.23924E+01 1.37318E-12-2.53297E-12
 -1      1699 1.67896E+01 4.21232E+00-2.36714E-01-8.46272E+00 1.97642E-12-2.25997E-12
 -1      1700 2.49450E+01 6.06398E+00 6.58633E-01-1.16321E+01 1.85474E-12-2.63567E-12
 -1      1701 6.92712E+00-1.71105E+00-9.99230E-01-3.69813E+00 1.80789E-12-1.53455E-12
 -1      1702 1.17285E+01 2.90636E+00-1.63010E-01-7.30588E+00 1.99840E-12-2.04814E-12
 -1      1703 1.95483E+00-9.48442E+00-1.52168E+00-4.34438E-01 1.17339E-12-8.52651E-13
 -1      1704 3.66537E+00-3.84540E+00-8.98347E-01-2.27905E+00 1.66356E-12-1.30307E-12
 -1      1705 3.46301E-02-1.51158E+01-1.73539E+00-2.31016E-02 1.59650E-13-4.97713E-13
 -1      1706 3.08362E-01-1.11493E+01-1.38406E+00 2.76191E-01 8.85736E-13-7.25239E-13
 -1      1707-7.76070E-01-1.70536E+01-1.89991E+00-7.17022E-01-1.01638E-12-4.98990E-13
 -1      1708-7.83567E-01-1.65422E+01-1.83120E+00 8.93618E-01-1.93623E-13-4.28574E-13
 -1      1709-2.86972E-01-1.28731E+01-1.62013E+00-1.00470E+00-1.96287E-12-8.33451E-13
 -1      1710-3.54069E-01-1.65126E+01-1.93473E+00-2.31754E-01-1.34842E-12-5.61939E-13
 -1      1711 2.75613E+00-5.29767E+00-1.05714E+00 1.51826E+00-2.40430E-12-1.42736E-12
 -1      1712 1.35181E+00-1.09175E+01-1.66811E+00-1.78915E-02-2.15195E-12-9.97924E-13
 -1      1713 1.00976E+01 1.77478E+00-3.63550E-01 6.38294E+00-2.33258E-12-2.00417E-12
 -1      1714 5.75284E+00-3.07571E+00-1.15834E+00 2.89359E+00-2.40630E-12-1.61415E-12
 -1      1715 2.30920E+01 4.59988E+00 3.97658E-01 1.04503E+01-1.77891E-12-2.00817E-12
 -1      1716 1.58681E+01 2.49517E+00-3.66647E-01 7.40486E+00-2.02904E-12-1.89804E-12
 -1      1717 3.68403E+01 5.74200E+00 1.16923E+00 1.21737E+01-1.27642E-12-1.68043E-12
 -1      1718 2.68755E+01 6.15152E+00 2.94751E-01 1.10367E+01-1.76437E-12-2.06635E-12
 -1      1719 2.82157E+01 1.11917E+00 4.02052E-01 6.53303E+00-1.21581E-12-9.82547E-13
 -1      1720 5.08535E+01 4.22292E+00 1.79205E+00 7.89701E+00-6.86812E-13-4.47420E-13
 -1      1721 4.28668E+01 6.13626E+00 1.24626E+00 1.11181E+01-1.09539E-12-1.34925E-12
 -1      1722 5.56775E+01 3.40062E+00 1.91429E+00 7.64743E-03-4.48641E-13 7.44328E-13
 -1      1723 5.37063E+01 4.04118E+00 1.81283E+00 5.60914E+00-4.63740E-13-5.60663E-14
 -1      1724 4.99184E+01 4.76981E+00 1.54548E+00-7.67745E+00-8.02941E-13 1.71674E-12
 -1      1725 5.43321E+01 3.62013E+00 1.84211E+00-2.61816E+00-4.96103E-13 1.08347E-12
 -1      1726 3.78281E+01 6.53754E+00 9.75475E-01-1.20644E+01-1.47932E-12 2.48868E-12
 -1      1727 4.68713E+01 4.85909E+00 1.64740E+00-1.02416E+01-1.05024E-12 2.11264E-12
 -1      1728 2.31130E+01 6.09068E+00 1.65678E-01-1.06029E+01-1.96920E-12 2.48690E-12
 -1      1729 3.24879E+01 6.45125E+00 1.07010E+00-1.26234E+01-1.65423E-12 2.65721E-12
 -1      1730 1.13726E+01 9.62224E-01-6.39985E-01-5.76344E+00-1.73606E-12 1.79434E-12
 -1      1731 1.81426E+01 4.41808E+00 2.27470E-01-9.54492E+00-1.90814E-12 2.28895E-12
 -1      1732 3.64750E+00-6.12907E+00-1.30084E+00-1.51733E+00-1.14309E-12 1.10550E-12
 -1      1733 6.51250E+00-5.96674E-01-6.02718E-01-4.27470E+00-1.71574E-12 1.68865E-12
 -1      1734 9.50606E-01-1.27871E+01-1.53524E+00-3.20259E-01 2.99760E-14 6.05731E-13
 -1      1735 1.77785E+00-8.02210E+00-1.09257E+00-9.40654E-01-7.21423E-13 8.80407E-13
 -1      1736-6.67252E-01-1.70005E+01-1.91036E+00-2.02301E-01 9.55680E-13 2.77695E-13
 -1      1737-7.44618E-01-1.49037E+01-1.71009E+00 1.18350E+00 2.49134E-13 4.13725E-13
 -1      1738 2.54587E+01 1.22604E+00 3.33014E-01 7.27877E+00 1.07536E-12 6.60805E-13
 -1      1739 1.47765E+01-2.70572E+00-3.26508E-01 6.47389E+00 1.31939E-12 7.68274E-13
 -1      1740 1.99995E+01-4.00047E-04 4.28238E-05-4.60024E-04-6.40195E-13-2.83764E-13
 -1      1741 1.99991E+01-9.65296E-04 2.36809E-05-1.27204E-03-2.33784E-13 2.79897E-13
 -1      1742 9.47611E-01-9.66625E+00-1.01659E+00 2.76960E+00 8.98837E-13 8.19567E-13
 -1      1743 6.64335E+00-6.89680E+00-7.81501E-01 4.93808E+00 1.13132E-12 7.05644E-13
 -1      1744-1.41084E+00-1.18148E+01-1.36565E+00 6.86929E-02 6.48405E-13 7.17704E-13
 -1      1745 3.55164E+01 4.19198E+00 8.41433E-01 6.40668E+00 8.77243E-13 2.87104E-13
 -1      1746 4.36197E+01 6.39754E+00 1.35120E+00 4.42552E+00 7.93476E-13-1.28342E-13
 -1      1747 4.72926E+01 7.27636E+00 1.57072E+00 6.32142E-01 7.90368E-13-6.21753E-13
 -1      1748 4.61546E+01 6.84246E+00 1.52209E+00-3.27288E+00 8.68861E-13-1.14636E-12
 -1      1749 3.97294E+01 5.55850E+00 1.16490E+00-6.26550E+00 1.10809E-12-1.65912E-12
 -1      1750 3.00947E+01 2.80122E+00 5.85620E-01-7.39960E+00 1.19027E-12-1.69909E-12
 -1      1751 1.95124E+01-8.20229E-01-9.08591E-03-7.12903E+00 1.08757E-12-1.57496E-12
 -1      1752 9.81793E+00-4.97157E+00-6.22285E-01-5.50455E+00 8.62865E-13-1.25921E-12
 -1      1753 3.14217E+00-8.72499E+00-1.02690E+00-3.58339E+00 4.53859E-13-1.00107E-12
 -1      1754-5.69810E-01-1.09662E+01-1.21054E+00-1.55275E+00-1.06193E-13-9.27425E-13
 -1      1755-1.13400E+00-1.17910E+01-1.37402E+00 7.74498E-01-6.67716E-13-9.03944E-13
 -1      1756 2.05052E+00-9.64460E+00-1.15568E+00 2.90819E+00-1.19338E-12-9.66754E-13
 -1      1757 8.52221E+00-5.71699E+00-7.03776E-01 5.11589E+00-1.45883E-12-1.16743E-12
 -1      1758 1.86258E+01-1.99187E+00-4.21524E-02 6.80670E+00-1.28464E-12-1.15780E-12
 -1      1759 4.58896E+01 6.91189E+00 1.51560E+00 3.11012E+00-1.06681E-12-6.34492E-14
 -1      1760 4.71632E+01 7.42204E+00 1.56512E+00-4.30558E-01-8.70415E-13 5.54112E-13
 -1      1761 4.35370E+01 6.51316E+00 1.37618E+00-4.19938E+00-1.02257E-12 1.04783E-12
 -1      1762 3.55637E+01 4.35628E+00 9.33698E-01-6.91796E+00-1.14897E-12 1.45894E-12
 -1      1763 2.48176E+01 5.12887E-01 1.79271E-01-7.13276E+00-1.03084E-12 1.49736E-12
 -1      1764 1.43992E+01-3.28975E+00-3.14378E-01-6.33982E+00-7.89147E-13 1.46178E-12
 -1      1765 5.92749E+00-7.20268E+00-8.44892E-01-4.58706E+00-2.30260E-13 1.25577E-12
 -1      1766 7.86774E-01-9.77227E+00-1.03121E+00-2.59760E+00 2.06113E-13 8.58202E-13
 -1      1767 2.32835E+01 1.95325E+00-2.68943E-02-2.45962E+00-2.81514E-13 9.08079E-13
 -1      1768 3.80251E+01 4.79970E+00 9.95913E-01 5.99292E+00-1.27913E-12-7.16760E-13
 -1      1769 2.01153E+01 3.77951E+00-3.77272E-02-1.63323E+00-3.01526E-13-4.48024E-13
 -1      1770 2.04640E+01 3.61070E+00-3.56245E-02-1.93343E+00-3.64929E-13-3.47885E-13
 -1      1771 2.08596E+01 3.18484E+00-4.66116E-02-2.10850E+00-3.82297E-13-2.15675E-13
 -1      1772 2.11530E+01 2.79339E+00-1.33516E-01-2.40533E+00-4.26305E-13-3.92256E-14
 -1      1773 2.09001E+01 2.73062E+00-1.81934E-03-1.70262E+00-3.98378E-13-2.54137E-13
 -1      1774 1.91308E+01 4.37553E+00-2.11665E-02-8.28928E-01-1.19738E-13-6.23427E-13
 -1      1775 1.93321E+01 4.32746E+00-1.27594E-02-1.01751E+00-1.68323E-13-6.10820E-13
 -1      1776 1.88115E+01 4.52833E+00-1.65690E-02-5.26758E-01-4.01033E-14-6.30503E-13
 -1      1777 1.89599E+01 4.49881E+00-9.98099E-03-6.82117E-01-7.92617E-14-6.32954E-13
 -1      1778 1.92024E+01 4.06645E+00-6.40678E-03-6.83308E-01-1.13038E-13-6.05004E-13
 -1      1779 1.86065E+01 4.62051E+00-1.32297E-02-2.75639E-01 4.05537E-14-6.17938E-13
 -1      1780 1.86959E+01 4.60491E+00-9.26631E-03-4.06963E-01-2.39088E-15-6.32201E-13
 -1      1781 1.88838E+01 4.24733E+00-5.86653E-03-4.22488E-01-2.08180E-14-6.15529E-13
 -1      1782 1.85222E+01 4.65983E+00-1.08594E-02-5.26415E-02 1.17546E-13-6.00922E-13
 -1      1783 1.85495E+01 4.65569E+00-9.81204E-03-1.72524E-01 8.23653E-14-6.12909E-13
 -1      1784 1.86926E+01 4.34825E+00-5.40982E-03-2.03489E-01 6.57533E-14-5.97962E-13
 -1      1785 1.85614E+01 4.64919E+00-9.41316E-03 1.66994E-01 1.86143E-13-5.57695E-13
 -1      1786 1.85260E+01 4.65572E+00-1.13132E-02 4.58674E-02 1.52321E-13-5.84786E-13
 -1      1787 1.86345E+01 4.37608E+00-5.32341E-03-4.91776E-03 1.40469E-13-5.76208E-13
 -1      1788 1.87206E+01 4.58845E+00-9.07303E-03 4.08032E-01 2.54021E-13-5.26464E-13
 -1      1789 1.86251E+01 4.60643E+00-1.36307E-02 2.73230E-01 2.21271E-13-5.48497E-13
 -1      1790 1.87107E+01 4.33335E+00-5.68133E-03 1.96892E-01 2.13241E-13-5.34536E-13
 -1      1791 1.89865E+01 4.47680E+00-1.00759E-02 6.88403E-01 3.16685E-13-4.57346E-13
 -1      1792 1.88381E+01 4.50739E+00-1.68982E-02 5.31086E-01 2.85990E-13-4.99469E-13
 -1      1793 1.89141E+01 4.22094E+00-6.26210E-03 4.22628E-01 2.88202E-13-4.88769E-13
 -1      1794 1.93614E+01 4.29875E+00-1.33037E-02 1.03811E+00 3.98822E-13-3.40769E-13
 -1      1795 1.91577E+01 4.35001E+00-2.15952E-02 8.41103E-01 3.52831E-13-4.04978E-13
 -1      1796 1.92361E+01 4.03260E+00-7.13916E-03 6.92867E-01 3.62667E-13-4.02572E-13
 -1      1797 1.98473E+01 4.02285E+00-2.14087E-02 1.46874E+00 4.61512E-13-1.82371E-13
 -1      1798 1.95853E+01 4.11146E+00-2.88380E-02 1.22244E+00 4.23404E-13-2.79356E-13
 -1      1799 1.96765E+01 3.74812E+00-7.40748E-03 1.02103E+00 4.38178E-13-2.69108E-13
 -1      1800 2.04834E+01 3.56052E+00-4.10160E-02 1.97620E+00 4.97985E-13 7.05859E-14
 -1      1801 2.01358E+01 3.73762E+00-4.12957E-02 1.67530E+00 4.71376E-13-8.67258E-14
 -1      1802 2.02442E+01 3.32361E+00-4.63760E-03 1.39745E+00 4.89551E-13-1.06637E-13
 -1      1803 2.14630E+01 2.66530E+00-5.32453E-02 2.42975E+00 4.50973E-13 5.36647E-13
 -1      1804 2.09052E+01 3.09815E+00-5.03045E-02 2.15237E+00 4.70590E-13 2.60320E-13
 -1      1805 2.09831E+01 2.63805E+00 3.38442E-03 1.74090E+00 4.97792E-13 1.75096E-13
 -1      1806 2.22892E+01 1.18855E+00-1.18523E-01 1.99847E+00 3.63896E-13 1.07774E-12
 -1      1807 2.18368E+01 2.23360E+00-6.32053E-04 2.35438E+00 4.10047E-13 7.22949E-13
 -1      1808 2.15484E+01 1.67715E+00-1.83438E-02 1.70668E+00 4.60734E-13 5.21794E-13
 -1      1809 2.16327E+01 7.66760E-01-5.63438E-02 1.19456E+00 3.82958E-13 9.49045E-13
 -1      1810 2.23430E+01 2.41488E+00 8.64346E-02-2.67974E+00-3.81346E-13 3.03910E-13
 -1      1811 2.10246E+01 3.09489E-01-4.69765E-03 3.19514E-01 2.94303E-13 7.68344E-13
 -1      1812 2.14297E+01 4.43453E-01-1.00419E-02 7.03590E-01 3.21201E-13 8.67683E-13
 -1      1813 2.14767E+01 8.40124E-01-2.77566E-04 1.01561E+00 3.84692E-13 6.14630E-13
 -1      1814 3.73914E+01 4.24843E+00 3.65817E-01 2.80646E+00-1.19507E-12-1.11799E-13
 -1      1815 3.27529E+01 2.25809E+00 2.45847E-02 3.50199E+00-1.10989E-12-3.72147E-13
 -1      1816 2.20918E+01 1.72588E+00 7.75735E-02-1.92748E+00-3.99444E-13 1.71543E-13
 -1      1817 2.13644E+01 5.23558E-01 3.33032E-02-5.01371E-01-3.15220E-13 1.40194E-13
 -1      1818 2.10915E+01 3.90850E-01 1.30459E-02-1.92560E-01-2.77403E-13 5.31693E-14
 -1      1819 2.10032E+01 3.06399E-01 2.77370E-02 8.34369E-02-2.49250E-13 4.55400E-14
 -1      1820 2.09918E+01 2.37177E-01 1.50632E-02 2.52458E-01-2.03437E-13-1.08030E-14
 -1      1821 2.11098E+01 5.47364E-01-8.91569E-03-1.47075E-01-3.05617E-13-6.06459E-14
 -1      1822 2.10002E+01 1.96319E-01 1.70048E-02 4.32580E-01-1.65753E-13-1.08403E-14
 -1      1823 2.11282E+01 1.59683E-01 1.09030E-02 5.40959E-01-1.38388E-13-5.62484E-14
 -1      1824 2.10274E+01 3.33802E-01-8.26043E-03 3.73707E-01-2.18258E-13-8.48844E-14
 -1      1825 2.12175E+01 1.32303E-01 9.19134E-03 6.62961E-01-1.14335E-13-5.70971E-14
 -1      1826 2.14341E+01 1.03500E-01 6.48924E-03 7.33629E-01-9.03045E-14-7.96706E-14
 -1      1827 2.11325E+01 2.20155E-01-7.24444E-03 7.17228E-01-1.52466E-13-1.10920E-13
 -1      1828 2.15862E+01 7.57926E-02 4.71384E-03 8.09914E-01-9.61559E-14-8.26253E-14
 -1      1829 2.18526E+01 4.11573E-02 1.71524E-03 8.44443E-01-7.88496E-14-9.98225E-14
 -1      1830 2.13800E+01 1.31563E-01-6.20212E-03 9.43984E-01-1.08281E-13-1.20902E-13
 -1      1831 2.20519E+01 3.78171E-03 2.14827E-03 8.69952E-01-6.38169E-14-6.43743E-14
 -1      1832 2.23304E+01-4.65930E-02-4.31513E-03 8.57118E-01-4.09641E-14-6.58961E-14
 -1      1833 2.17342E+01 2.77190E-02-5.16692E-03 1.06357E+00-6.12550E-14-7.31698E-14
 -1      1834 2.25622E+01-1.00353E-01 6.25297E-04 8.13893E-01-3.81639E-14-6.04872E-14
 -1      1835 2.28079E+01-1.72123E-01-1.17742E-02 7.34271E-01-4.06489E-14-6.14712E-14
 -1      1836 2.21635E+01-1.18613E-01-4.14907E-03 1.05218E+00-4.64706E-14-5.76891E-14
 -1      1837 2.30542E+01-2.43316E-01-3.68801E-04 5.96866E-01-8.64690E-14-2.68435E-14
 -1      1838 2.32128E+01-3.31432E-01-1.93742E-02 4.30780E-01-9.71133E-14-1.62773E-14
 -1      1839 2.26339E+01-3.20456E-01-2.69607E-03 8.63288E-01-4.64889E-14-9.13972E-14
 -1      1840 2.34436E+01-4.07489E-01-1.50798E-03 1.79054E-01-1.31349E-13-6.59195E-17
 -1      1841 2.34585E+01-4.85334E-01-2.37931E-02-7.65324E-02-1.54753E-13-1.08926E-13
 -1      1842 2.30990E+01-5.58865E-01 2.41773E-04 4.46172E-01-1.44746E-13-3.60639E-14
 -1      1843 2.36227E+01-5.30554E-01-4.13272E-03-4.30876E-01-1.35518E-13-1.01214E-13
 -1      1844 2.34553E+01-5.43075E-01-2.00130E-02-7.36049E-01-1.11581E-13-1.74485E-13
 -1      1845 2.34835E+01-7.54556E-01 5.78036E-03-2.13443E-01-1.71405E-13 9.49338E-15
 -1      1846 2.34828E+01-4.99262E-01-8.82137E-03-1.11225E+00-1.17886E-13-1.68093E-13
 -1      1847 2.31435E+01-3.81672E-01-5.04847E-03-1.36177E+00-1.18789E-13-1.83652E-13
 -1      1848 2.36761E+01-7.57248E-01 1.30408E-02-1.02451E+00-1.43103E-13-1.66681E-14
 -1      1849 2.29820E+01-2.03366E-01-1.50912E-02-1.58999E+00-1.36830E-13-2.43099E-13
 -1      1850 2.25601E+01 5.52221E-02 1.46513E-02-1.63226E+00-1.70776E-13-2.24664E-13
 -1      1851 2.35589E+01-4.01921E-01 1.62090E-02-1.72073E+00-1.70916E-13-1.83252E-14
 -1      1852 2.22622E+01 3.28910E-01-1.55772E-02-1.51809E+00-1.55845E-13-2.89000E-13
 -1      1853 2.19136E+01 6.14841E-01 2.42381E-02-1.25082E+00-1.86968E-13-2.92508E-13
 -1      1854 2.31210E+01 3.05125E-01 2.59482E-03-1.88649E+00-1.98175E-13-9.66766E-14
 -1      1855 2.16761E+01 8.26874E-01-3.34706E-03-7.47418E-01-2.79683E-13-3.54413E-13
 -1      1856 2.15572E+01 9.47565E-01 1.46776E-02-2.43458E-01-2.35031E-13-4.67823E-13
 -1      1857 2.25979E+01 1.05375E+00-2.22016E-02-1.21510E+00-2.81003E-13-2.65108E-13
 -1      1858 2.15805E+01 9.37796E-01 1.58132E-02 4.26438E-01-1.82351E-13-5.85850E-13
 -1      1859 2.17545E+01 7.99261E-01-4.12751E-03 9.19636E-01-1.22182E-13-6.56761E-13
 -1      1860 2.23861E+01 1.36230E+00-3.47569E-02 1.14031E-01-2.86450E-13-3.77591E-13
 -1      1861 2.20280E+01 5.76201E-01 2.41565E-02 1.39822E+00-9.33559E-14-7.14161E-13
 -1      1862 2.24222E+01 2.86613E-01-1.52714E-02 1.64249E+00-2.34066E-14-8.10456E-13
 -1      1863 2.26802E+01 1.00691E+00-2.01961E-02 1.41305E+00-1.80567E-13-5.14182E-13
 -1      1864 2.27376E+01 1.68690E-02 1.29812E-02 1.72728E+00 3.93860E-14-8.72379E-13
 -1      1865 2.31934E+01-2.31579E-01-1.41667E-02 1.66624E+00 1.61481E-14-8.32747E-13
 -1      1866 2.32566E+01 2.48145E-01 4.71052E-03 2.02087E+00-2.86828E-14-6.81278E-13
 -1      1867 2.33630E+01-3.98440E-01-7.08506E-03 1.42270E+00 5.78877E-15-7.88614E-13
 -1      1868 2.37279E+01-5.03194E-01-8.13085E-03 1.16731E+00 8.16291E-14-8.15727E-13
 -1      1869 2.37200E+01-4.36957E-01 1.55849E-02 1.80513E+00 4.90662E-14-7.91121E-13
 -1      1870 2.37107E+01-5.37260E-01-2.11171E-02 7.92542E-01 9.19455E-14-7.81304E-13
 -1      1871 2.39030E+01-5.16499E-01-3.29607E-03 4.92889E-01 1.21340E-13-7.33534E-13
 -1      1872 2.38576E+01-7.56704E-01 1.24303E-02 1.09522E+00 1.18805E-13-6.78395E-13
 -1      1873 2.37542E+01-4.67175E-01-2.40611E-02 1.49613E-01 1.29555E-13-6.52876E-13
 -1      1874 2.37676E+01-3.87259E-01-1.01346E-03-9.52818E-02 1.04984E-13-5.91499E-13
 -1      1875 2.36928E+01-7.31851E-01 5.39703E-03 2.99057E-01 1.82177E-13-5.72682E-13
 -1      1876 2.35558E+01-3.11951E-01-1.93979E-02-3.34477E-01 1.73429E-13-4.40410E-13
 -1      1877 2.34302E+01-2.26276E-01-2.72207E-04-4.90468E-01 3.04648E-13-3.20272E-13
 -1      1878 2.33444E+01-5.29605E-01 4.74917E-04-3.34525E-01 2.39845E-13-4.17740E-13
 -1      1879 2.32017E+01-1.59024E-01-1.20920E-02-6.20049E-01 2.01217E-13-3.23179E-13
 -1      1880 2.29908E+01-9.26748E-02 1.68942E-05-6.94246E-01 1.25585E-13-2.38646E-13
 -1      1881 2.29174E+01-2.98018E-01-1.92189E-03-7.30344E-01 2.58687E-13-3.14920E-13
 -1      1882 2.27699E+01-4.51907E-02-5.31020E-03-7.38677E-01 8.21673E-14-2.86060E-13
 -1      1883 2.25218E+01-3.03041E-03 3.60733E-04-7.53961E-01 6.46910E-14-3.22516E-13
 -1      1884 2.24773E+01-1.11812E-01-2.70000E-03-9.13881E-01 7.79828E-14-3.25668E-13
 -1      1885 2.23195E+01 2.52878E-02-3.51849E-04-7.43283E-01 3.76283E-15-3.74761E-13
 -1      1886 2.20686E+01 4.75324E-02 7.42712E-04-7.23009E-01-1.00901E-13-3.27483E-13
 -1      1887 2.20584E+01 1.04243E-02-2.82032E-03-9.45761E-01 2.17460E-14-4.74382E-13
 -1      1888 2.18896E+01 6.15882E-02 2.67695E-03-6.82102E-01-1.58741E-13-3.19668E-13
 -1      1889 2.16572E+01 7.02867E-02 1.07131E-03-6.44155E-01-2.20352E-13-2.85397E-13
 -1      1890 2.16776E+01 7.77439E-02-2.74478E-03-8.85597E-01-9.12969E-14-3.79487E-13
 -1      1891 2.15026E+01 7.51663E-02 4.17856E-03-5.90307E-01-1.54281E-13-1.73462E-13
 -1      1892 2.12993E+01 7.57842E-02 1.28125E-03-5.46400E-01-1.15155E-14-1.80161E-13
 -1      1893 2.13425E+01 1.06648E-01-2.60777E-03-7.78912E-01-3.08050E-14-1.17844E-13
 -1      1894 2.11689E+01 7.53964E-02 4.64587E-03-4.90279E-01 8.47803E-15-2.16662E-13
 -1      1895 2.09982E+01 7.17836E-02 1.36209E-03-4.47200E-01 2.93151E-14-2.80186E-13
 -1      1896 2.10553E+01 1.12037E-01-2.43318E-03-6.55933E-01-5.84196E-14-2.54369E-14
 -1      1897 2.08904E+01 6.87344E-02 4.49631E-03-3.94683E-01-4.05672E-14-3.61199E-13
 -1      1898 2.07515E+01 6.33098E-02 1.33659E-03-3.55865E-01-4.78675E-14-4.36741E-13
 -1      1899 2.08148E+01 1.04697E-01-2.22308E-03-5.34625E-01-8.62832E-14-1.63700E-13
 -1      1900 2.06641E+01 5.91846E-02 4.02860E-03-3.09714E-01-2.82905E-14-4.67537E-13
 -1      1901 2.05541E+01 5.33397E-02 1.23850E-03-2.76524E-01-1.01148E-14-3.69281E-13
 -1      1902 2.06177E+01 9.15470E-02-1.98404E-03-4.24418E-01-4.54103E-14-3.27086E-13
 -1      1903 2.04846E+01 4.90324E-02 3.43435E-03-2.37632E-01-4.41660E-14-3.73161E-13
 -1      1904 2.03993E+01 4.34984E-02 1.09956E-03-2.10265E-01-1.20935E-13-3.28642E-13
 -1      1905 2.04593E+01 7.66481E-02-1.72872E-03-3.29334E-01 2.78980E-14-3.76699E-13
 -1      1906 2.03450E+01 3.94712E-02 2.82566E-03-1.78481E-01-2.19433E-13-2.57514E-13
 -1      1907 2.02804E+01 3.45830E-02 9.44304E-04-1.56527E-01-4.94229E-14-2.59125E-13
 -1      1908 2.03343E+01 6.21903E-02-1.47183E-03-2.50207E-01-1.11165E-13-2.24215E-13
 -1      1909 2.02387E+01 3.10431E-02 2.26177E-03-1.31179E-01-7.33684E-14-2.56023E-13
 -1      1910 2.01907E+01 2.69109E-02 7.89450E-04-1.13962E-01 7.39044E-14-3.47429E-13
 -1      1911 2.02376E+01 4.92244E-02-1.22637E-03-1.86151E-01-6.74143E-14-1.16946E-13
 -1      1912 2.01593E+01 2.39216E-02 1.76925E-03-9.41677E-02 1.75671E-13-4.24817E-13
 -1      1913 2.01245E+01 2.05355E-02 6.45212E-04-8.09336E-02 1.04049E-13-3.57176E-13
 -1      1914 2.01641E+01 3.81446E-02-1.00156E-03-1.35460E-01 4.01567E-14-2.22182E-13
 -1      1915 2.01013E+01 1.80834E-02 1.35565E-03-6.57697E-02 9.35857E-14-5.02299E-13
 -1      1916 2.00767E+01 1.53755E-02 5.17018E-04-5.57897E-02-4.53540E-14-3.85527E-13
 -1      1917 2.01094E+01 2.89877E-02-8.02665E-04-9.61424E-02-6.66277E-15-1.87699E-13
 -1      1918 2.00600E+01 1.34100E-02 1.01824E-03-4.43888E-02-1.86774E-13-3.38548E-13
 -1      1919 2.00431E+01 1.12891E-02 4.07009E-04-3.70061E-02-1.02618E-13-3.53665E-13
 -1      1920 2.00694E+01 2.16108E-02-6.31745E-04-6.62165E-02-2.78661E-14-3.24364E-13
 -1      1921 2.00314E+01 9.74494E-03 7.49308E-04-2.85976E-02 1.06295E-13-3.57935E-13
 -1      1922 2.00203E+01 8.11543E-03 3.15185E-04-2.32468E-02 1.52681E-13-2.69293E-13
 -1      1923 2.00410E+01 1.57939E-02-4.88498E-04-4.38623E-02 2.39408E-15-1.00962E-13
 -1      1924 2.00124E+01 6.92467E-03 5.39215E-04-1.71719E-02 1.04673E-13-3.36552E-13
 -1      1925 2.00055E+01 5.69599E-03 2.40252E-04-1.33810E-02 2.04667E-14-3.96358E-13
 -1      1926 2.00214E+01 1.12948E-02-3.71052E-04-2.74877E-02 9.42786E-14-2.28307E-13
 -1      1927 2.00003E+01 4.79399E-03 3.78094E-04-9.09302E-03 1.46758E-13-2.75842E-13
 -1      1928 1.99965E+01 3.88485E-03 1.80200E-04-6.47809E-03 9.30385E-14-2.12833E-13
 -1      1929 2.00084E+01 7.87890E-03-2.76615E-04-1.57472E-02 1.53645E-13-2.57619E-13
 -1      1930 1.99934E+01 3.21320E-03 2.56692E-04-3.53450E-03-4.36853E-14-2.22716E-13
 -1      1931 1.99916E+01 2.55285E-03 1.32668E-04-1.79051E-03-5.07440E-14-1.39026E-13
 -1      1932 2.00003E+01 5.33200E-03-2.01986E-04-7.53445E-03 7.49674E-15-8.83804E-14
 -1      1933 1.99900E+01 2.06024E-03 1.66776E-04 1.58196E-04 2.43640E-15-1.38585E-13
 -1      1934 1.99896E+01 1.58815E-03 9.51552E-05 1.26731E-03 1.46504E-13-2.42261E-14
 -1      1935 1.99957E+01 3.46564E-03-1.43912E-04-1.96189E-03 3.06486E-14-9.00054E-15
 -1      1936 1.99890E+01 1.23001E-03 1.01290E-04 2.48942E-03 4.11119E-13 3.26673E-14
 -1      1937 1.99895E+01 8.94513E-04 6.51480E-05 3.14025E-03 4.69479E-13 3.17938E-13
 -1      1938 1.99935E+01 2.11690E-03-9.93051E-05 1.66390E-03 3.12756E-13 1.55134E-13
 -1      1939 1.99895E+01 6.32046E-04 5.43584E-05 3.83390E-03 2.16828E-13 3.74688E-13
 -1      1940 1.99906E+01 3.88329E-04 4.02187E-05 4.15151E-03 2.47570E-13 4.61834E-13
 -1      1941 1.99929E+01 1.14558E-03-6.53720E-05 3.86755E-03 4.53802E-13 2.24532E-13
 -1      1942 1.99910E+01 1.86844E-04 2.14239E-05 4.45406E-03 4.14064E-14 2.66580E-13
 -1      1943 1.99924E+01-5.28037E-06 1.82769E-05 4.51797E-03-6.74773E-15 2.35703E-13
 -1      1944 1.99934E+01 4.28987E-04-3.98038E-05 5.02778E-03 4.25067E-14 4.79693E-14
 -1      1945 1.99930E+01-1.77745E-04-6.23994E-07 4.51390E-03-1.68547E-13 2.01463E-13
 -1      1946 1.99944E+01-3.53845E-04-4.61671E-07 4.36172E-03-3.34429E-13 7.97223E-14
 -1      1947 1.99945E+01-1.42494E-04-2.04931E-05 5.39723E-03-1.62807E-13 6.18628E-14
 -1      1948 1.99952E+01-5.33710E-04-1.45750E-05 4.09727E-03-2.46795E-13 6.03048E-14
 -1      1949 1.99964E+01-7.21718E-04-1.57933E-05 3.72660E-03-8.41353E-14 8.73003E-14
 -1      1950 1.99959E+01-6.63111E-04-6.55009E-06 5.12178E-03-3.34437E-13 3.21749E-13
 -1      1951 1.99970E+01-8.75668E-04-1.69538E-05 3.24170E-03-3.53779E-16 1.19354E-14
 -1      1952 1.99980E+01-1.08177E-03-2.99581E-05 2.66210E-03-1.59424E-14 4.98198E-14
 -1      1953 1.99984E+01-1.60317E-03 3.53410E-06 3.08616E-03-1.29242E-15 1.39423E-13
 -1      1954 1.99973E+01-1.18631E-03 4.24025E-06 4.30719E-03-8.47055E-14 3.74391E-13
 -1      1955 2.08237E+01 1.67976E-01 1.06652E-02-1.13638E-01 2.13895E-13 6.16743E-13
 -1      1956 2.09332E+01 2.25522E-01 1.79379E-02 7.89277E-02 2.39399E-13 7.08935E-13
 -1      1957 2.10588E+01 3.73111E-01-3.92228E-03 2.19528E-01 3.02338E-13 4.92602E-13
 -1      1958 2.09050E+01 1.03470E-01 8.93804E-03-3.68023E-01 1.53129E-13 4.93933E-13
 -1      1959 2.08379E+01 1.32908E-01 1.53348E-02-2.52584E-01 1.76356E-13 5.70382E-13
 -1      1960 2.09321E+01 2.03546E-01-4.46196E-03-2.34947E-01 2.19806E-13 4.06882E-13
 -1      1961 2.11790E+01 6.26953E-02 5.42969E-03-5.25334E-01 7.54661E-14 4.06201E-13
 -1      1962 2.10070E+01 8.30281E-02 9.16064E-03-4.50894E-01 9.95913E-14 4.47068E-13
 -1      1963 2.10382E+01 1.21114E-01-5.32493E-03-5.11412E-01 1.43619E-13 3.06659E-13
 -1      1964 2.15727E+01 2.36615E-02 2.23032E-03-6.09544E-01 3.14243E-14 3.52444E-13
 -1      1965 2.13417E+01 4.33985E-02 4.49305E-03-5.67106E-01 3.48705E-14 3.88117E-13
 -1      1966 2.13023E+01 6.24316E-02-5.30420E-03-6.77030E-01 7.37891E-14 2.09199E-13
 -1      1967 2.20218E+01-2.57168E-02-1.07115E-03-6.15504E-01 8.46070E-14 3.43467E-13
 -1      1968 2.17704E+01-1.92027E-03 1.06725E-03-6.09188E-01 5.86982E-14 3.46267E-13
 -1      1969 2.16651E+01-1.83472E-05-4.47736E-03-7.47841E-01 6.77357E-14 1.72047E-13
 -1      1970 2.24580E+01-9.19552E-02-4.58635E-03-5.21185E-01 3.42391E-14 3.38761E-13
 -1      1971 2.22275E+01-6.22535E-02-1.86731E-03-5.62963E-01 6.82640E-14 3.58830E-13
 -1      1972 2.20724E+01-8.09931E-02-2.98156E-03-7.10915E-01 7.31622E-14 1.75438E-13
 -1      1973 2.28020E+01-1.73085E-01-7.58962E-03-2.99149E-01 7.37257E-16 2.79928E-13
 -1      1974 2.26402E+01-1.40177E-01-4.55399E-03-4.03618E-01 3.00801E-15 3.25964E-13
 -1      1975 2.24658E+01-1.85099E-01-5.89485E-04-5.38335E-01 1.62791E-14 1.85053E-13
 -1      1976 2.29648E+01-2.51313E-01-8.56245E-03 6.36752E-02-2.61943E-14 3.59100E-13
 -1      1977 2.29225E+01-2.25650E-01-6.72622E-03-1.10914E-01-1.50522E-14 3.20878E-13
 -1      1978 2.27762E+01-3.00182E-01 3.04632E-03-2.04581E-01-1.40599E-14 2.15250E-13
 -1      1979 2.28625E+01-2.86661E-01-6.03798E-03 5.33533E-01 1.97819E-14 4.26551E-13
 -1      1980 2.29806E+01-2.87937E-01-7.89454E-03 3.04937E-01 3.46528E-14 3.77444E-13
 -1      1981 2.29233E+01-3.86875E-01 7.79622E-03 2.84176E-01 8.76729E-15 3.13100E-13
 -1      1982 2.24504E+01-2.24586E-01-2.93850E-04 9.94348E-01 7.21246E-14 3.88273E-13
 -1      1983 2.27386E+01-2.74796E-01-7.46686E-03 7.69089E-01 3.07185E-14 3.89518E-13
 -1      1984 2.28299E+01-3.77720E-01 1.19737E-02 8.49278E-01 5.61339E-14 2.46694E-13
 -1      1985 2.17772E+01-3.36823E-02 5.01005E-03 1.24652E+00 1.74930E-13 3.16662E-13
 -1      1986 2.21892E+01-1.36819E-01-4.76374E-03 1.12235E+00 1.14163E-13 3.66148E-13
 -1      1987 2.24608E+01-2.07061E-01 1.20914E-02 1.30991E+00 1.21052E-13 2.37863E-13
 -1      1988 2.10305E+01 2.38787E-01 4.20097E-03 1.09019E+00 4.69919E-14 3.24997E-13
 -1      1989 2.14536E+01 1.18369E-01-2.76171E-05 1.16146E+00 1.24361E-13 3.31939E-13
 -1      1990 2.18867E+01 1.23301E-01 4.87034E-03 1.41864E+00 1.30627E-13 3.09214E-13
 -1      1991 2.05093E+01 4.56068E-01-3.02921E-03 4.82038E-01-2.30302E-14 2.13584E-13
 -1      1992 2.07920E+01 3.86879E-01 6.37770E-03 7.63650E-01 9.75262E-15 2.46244E-13
 -1      1993 2.13205E+01 4.87125E-01-8.40790E-03 1.00108E+00 5.27720E-14 2.40678E-13
 -1      1994 2.04822E+01 4.77735E-01-9.01567E-03-3.58147E-01 2.37848E-14 1.37408E-13
 -1      1995 2.04988E+01 5.09085E-01 1.22713E-02 2.46008E-02-1.78815E-14 1.98447E-13
 -1      1996 2.10474E+01 6.87183E-01-1.54102E-02 1.35416E-01 2.93272E-14 6.57120E-14
 -1      1997 2.09886E+01 2.91424E-01-7.65622E-03-1.05539E+00 2.37946E-13 1.42820E-14
 -1      1998 2.07185E+01 4.04929E-01 1.33470E-02-7.42122E-01 1.16610E-13 4.97137E-14
 -1      1999 2.12323E+01 5.96880E-01-9.95431E-03-8.13191E-01 1.77832E-13-2.93290E-14
 -1      2000 2.18078E+01 1.87692E-02 2.09509E-04-1.33148E+00 9.93942E-14-6.67522E-15
 -1      2001 2.13520E+01 1.45368E-01 8.21464E-03-1.20638E+00 2.28051E-13 3.99333E-15
 -1      2002 2.17857E+01 2.71543E-01 9.43232E-04-1.42611E+00 2.45413E-13-1.10779E-13
 -1      2003 2.26105E+01-1.89374E-01 7.35129E-03-1.16805E+00-1.69466E-13-9.21832E-15
 -1      2004 2.21312E+01-1.11889E-01-6.51947E-04-1.23195E+00-3.96614E-14-3.32026E-14
 -1      2005 2.24391E+01-9.59176E-02 6.96502E-03-1.50451E+00 1.23512E-14-6.42316E-14
 -1      2006 2.31627E+01-2.71645E-01 9.56110E-03-7.45377E-01-2.68128E-14-9.56440E-15
 -1      2007 2.27954E+01-2.56259E-01-8.04358E-03-9.19545E-01-1.15345E-13-2.61709E-14
 -1      2008 2.29433E+01-3.35583E-01 4.91090E-03-1.15139E+00-1.01264E-13-8.81196E-14
 -1      2009 2.33884E+01-2.50849E-01 7.84448E-03-2.73083E-01-8.26509E-15-1.45145E-14
 -1      2010 2.31955E+01-2.77400E-01-1.12582E-02-4.69328E-01 1.07900E-15 2.48777E-14
 -1      2011 2.31872E+01-3.98900E-01 1.14588E-03-6.09150E-01 1.21656E-14-4.71415E-14
 -1      2012 2.33259E+01-1.80155E-01 4.41739E-03 1.12856E-01 1.29698E-13 6.57243E-14
 -1      2013 2.33037E+01-2.21830E-01-1.06892E-02-4.88476E-02 1.02121E-13 3.34095E-14
 -1      2014 2.31765E+01-3.37964E-01-1.38068E-03-8.86438E-02 5.73612E-14 3.22744E-14
 -1      2015 2.30623E+01-1.02790E-01 1.29397E-03 3.64216E-01-2.79408E-14-1.02931E-13
 -1      2016 2.31696E+01-1.41425E-01-8.06360E-03 2.57371E-01 3.24671E-14-3.83586E-14
 -1      2017 2.29751E+01-2.26575E-01-2.09325E-03 2.98885E-01 8.91986E-14-4.64585E-14
 -1      2018 2.26862E+01-4.05139E-02-6.79767E-04 4.90259E-01-2.37529E-13 7.82464E-14
 -1      2019 2.28725E+01-6.86896E-02-4.88868E-03 4.35014E-01-2.01538E-13-7.40506E-14
 -1      2020 2.26576E+01-1.17986E-01-1.75243E-03 5.29970E-01-1.69673E-13-1.73211E-13
 -1      2021 2.22682E+01 1.21556E-03-1.55095E-03 5.23471E-01-5.15515E-14 1.67910E-13
 -1      2022 2.24894E+01-1.59553E-02-2.06745E-03 5.06859E-01-1.03806E-13 1.44734E-13
 -1      2023 2.22866E+01-3.57797E-02-1.14998E-03 6.29182E-01-1.66125E-13 8.46526E-14
 -1      2024 2.18561E+01 2.50269E-02-1.69270E-03 4.98261E-01 4.77814E-14 2.08730E-13
 -1      2025 2.20808E+01 1.65261E-02 2.66064E-05 5.06308E-01 4.07378E-15 1.70554E-13
 -1      2026 2.19074E+01 1.65840E-02-6.83710E-04 6.36175E-01-1.34942E-14 2.53395E-14
 -1      2027 2.14783E+01 3.59391E-02-1.46739E-03 4.42069E-01 1.05195E-13 2.59389E-13
 -1      2028 2.16871E+01 3.32678E-02 1.35916E-03 4.63503E-01 9.94304E-14 2.36115E-13
 -1      2029 2.15491E+01 4.46357E-02-4.39215E-04 5.87910E-01 8.87053E-14 1.77335E-13
 -1      2030 2.11491E+01 3.86555E-02-1.11703E-03 3.73694E-01 1.81337E-14 1.48553E-13
 -1      2031 2.13320E+01 3.94465E-02 2.06019E-03 4.00703E-01 4.58960E-14 2.11923E-13
 -1      2032 2.12285E+01 5.59219E-02-3.62324E-04 5.12334E-01 1.02636E-13 1.65736E-13
 -1      2033 2.08727E+01 3.67179E-02-7.69481E-04 3.04638E-01-3.85100E-14 2.64322E-13
 -1      2034 2.10263E+01 3.92954E-02 2.30785E-03 3.32377E-01-1.22413E-14 2.84434E-13
 -1      2035 2.09527E+01 5.69602E-02-3.71919E-04 4.28019E-01 4.60309E-15 1.26769E-13
 -1      2036 2.06476E+01 3.24959E-02-4.78661E-04 2.41153E-01 4.25362E-14 2.79492E-13
 -1      2037 2.07724E+01 3.57895E-02 2.26648E-03 2.66936E-01 5.36713E-14 2.36472E-13
 -1      2038 2.07229E+01 5.24524E-02-4.06857E-04 3.46038E-01 6.99078E-14 3.07033E-13
 -1      2039 2.04688E+01 2.74474E-02-2.57945E-04 1.86074E-01-1.42882E-13 2.09903E-13
 -1      2040 2.05674E+01 3.08296E-02 2.06295E-03 2.08634E-01-4.43983E-14 2.20033E-13
 -1      2041 2.05364E+01 4.54470E-02-4.33682E-04 2.72202E-01-2.89725E-14 1.99418E-13
 -1      2042 2.03301E+01 2.24030E-02-1.01988E-04 1.40174E-01 7.39310E-14 1.21042E-13
 -1      2043 2.04061E+01 2.55396E-02 1.78508E-03 1.59111E-01-4.77691E-14 1.75557E-13
 -1      2044 2.03887E+01 3.77641E-02-4.39643E-04 2.08938E-01 2.28743E-14 1.10784E-13
 -1      2045 2.02248E+01 1.77928E-02 1.14338E-06 1.03084E-01 1.93989E-13 4.93969E-14
 -1      2046 2.02821E+01 2.05311E-02 1.48847E-03 1.18489E-01 1.50172E-13 1.08569E-13
 -1      2047 2.02741E+01 3.04025E-02-4.24178E-04 1.56655E-01 1.88623E-13 3.81964E-14
 -1      2048 2.01467E+01 1.38030E-02 6.42074E-05 7.38639E-02-6.02627E-15 1.67384E-13
 -1      2049 2.01889E+01 1.60975E-02 1.20539E-03 8.60795E-02 1.13642E-13 1.63884E-13
 -1      2050 2.01872E+01 2.38478E-02-3.92208E-04 1.14661E-01 8.71171E-14 1.50000E-13
 -1      2051 2.00902E+01 1.04783E-02 9.84866E-05 5.13565E-02 1.75414E-13 1.10299E-13
 -1      2052 2.01204E+01 1.23426E-02 9.52371E-04 6.08282E-02 2.06884E-14 9.86873E-14
 -1      2053 2.01226E+01 1.82807E-02-3.49974E-04 8.17331E-02 8.11621E-14 5.55363E-14
 -1      2054 2.00503E+01 7.78736E-03 1.13095E-04 3.43843E-02 6.96761E-14 7.63863E-14
 -1      2055 2.00713E+01 9.26433E-03 7.35991E-04 4.15768E-02 9.58259E-14 1.44884E-13
 -1      2056 2.00758E+01 1.37111E-02-3.03087E-04 5.64714E-02 1.24497E-13 2.31578E-13
 -1      2057 2.00232E+01 5.66151E-03 1.14952E-04 2.18556E-02-2.96400E-14-4.57479E-16
 -1      2058 2.00373E+01 6.80582E-03 5.56920E-04 2.72065E-02 2.86042E-14 4.51873E-14
 -1      2059 2.00428E+01 1.00604E-02-2.55885E-04 3.74926E-02 8.01629E-14 1.89763E-13
 -1      2060 2.00055E+01 4.01837E-03 1.09074E-04 1.28128E-02 2.40972E-15 1.07608E-13
 -1      2061 2.00145E+01 4.88649E-03 4.12574E-04 1.67100E-02 4.58536E-16 1.75118E-15
 -1      2062 2.00203E+01 7.21074E-03-2.11332E-04 2.35337E-02-1.90365E-14 1.47005E-13
 -1      2063 1.99948E+01 2.77430E-03 9.89359E-05 6.44729E-03-1.62774E-13 1.34011E-13
 -1      2064 2.00001E+01 3.41935E-03 2.98803E-04 9.22129E-03-1.06385E-13-2.21778E-14
 -1      2065 2.00056E+01 5.03363E-03-1.71180E-04 1.34975E-02-5.97427E-14-3.55102E-14
 -1      2066 1.99890E+01 1.85095E-03 8.68130E-05 2.09731E-03-3.06751E-14 3.72205E-13
 -1      2067 1.99916E+01 2.32033E-03 2.10890E-04 4.02064E-03-3.02734E-14 2.73816E-13
 -1      2068 1.99967E+01 3.40422E-03-1.36238E-04 6.46425E-03-1.76918E-13 1.50536E-13
 -1      2069 1.99866E+01 1.17804E-03 7.40505E-05-7.63829E-04 1.63195E-14 3.63597E-13
 -1      2070 1.99875E+01 1.51272E-03 1.44129E-04 5.27113E-04-4.05819E-15 3.25091E-13
 -1      2071 1.99918E+01 2.20860E-03-1.06651E-04 1.68589E-03 5.52881E-15 4.15708E-13
 -1      2072 1.99866E+01 6.93825E-04 6.12667E-05-2.54248E-03-2.52195E-15 4.11189E-13
 -1      2073 1.99862E+01 9.28625E-04 9.41228E-05-1.71466E-03 3.28567E-14 3.16536E-13
 -1      2074 1.99898E+01 1.34621E-03-8.21334E-05-1.42833E-03 5.54545E-14 4.64750E-13
 -1      2075 1.99879E+01 3.44075E-04 4.85337E-05-3.53946E-03 4.73648E-15 2.30462E-13
 -1      2076 1.99869E+01 5.08550E-04 5.69330E-05-3.04924E-03-2.25571E-14 4.34761E-13
 -1      2077 1.99897E+01 7.29378E-04-6.21322E-05-3.32940E-03 4.27505E-14 4.30071E-13
 -1      2078 1.99901E+01 7.97989E-05 3.56161E-05-3.96260E-03 2.19647E-13-5.19266E-14
 -1      2079 1.99887E+01 1.99698E-04 2.92030E-05-3.72395E-03 1.95131E-13 2.11340E-13
 -1      2080 1.99907E+01 2.81022E-04-4.59078E-05-4.34545E-03 2.10801E-13 3.80089E-13
 -1      2081 1.99926E+01-1.45284E-04 2.29900E-05-3.93549E-03 3.16974E-13-5.70445E-14
 -1      2082 1.99910E+01-4.68862E-05 8.51569E-06-3.89970E-03 2.18571E-13-4.50721E-14
 -1      2083 1.99925E+01-6.91394E-05-3.24051E-05-4.69632E-03 1.89791E-13-7.42900E-14
 -1      2084 1.99951E+01-3.74804E-04 1.19083E-05-3.50526E-03 7.55995E-14 1.04303E-13
 -1      2085 1.99936E+01-2.76802E-04-5.72102E-06-3.65907E-03 2.01687E-13 6.69276E-14
 -1      2086 1.99945E+01-3.85583E-04-1.94653E-05-4.50308E-03 1.84392E-13-5.06932E-15
 -1      2087 1.99973E+01-6.50009E-04-1.31806E-06-2.65254E-03 8.81950E-14 3.31802E-13
 -1      2088 1.99960E+01-5.28751E-04-1.11849E-05-3.02353E-03 3.08668E-14 1.89520E-13
 -1      2089 1.99964E+01-7.30125E-04-7.70789E-06-3.81775E-03-2.60539E-14 4.17296E-13
 -1      2090 1.99987E+01-9.12482E-04-1.63808E-05-1.71632E-03-4.16629E-14 3.90543E-13
 -1      2091 1.99978E+01-7.86219E-04-1.17487E-05-2.28773E-03 2.16181E-13 5.50242E-13
 -1      2092 1.99979E+01-1.06576E-03 5.56625E-06-2.94363E-03 8.79171E-14 7.36233E-13
 -1      2093 1.99988E+01-1.40856E-03 7.02351E-06-2.08675E-03 4.69097E-14 6.40448E-13
 -1      2094 2.00001E+01-6.53096E-03 8.10118E-06-3.50408E-03-1.55471E-14 8.80094E-14
 -1      2095 1.99999E+01-5.41445E-03-3.25459E-06-3.58938E-03-1.61467E-13 2.45814E-13
 -1      2096 1.99996E+01-4.63894E-03 3.07856E-06-3.57581E-03-1.10828E-13 5.94277E-14
 -1      2097 1.99994E+01-3.54849E-03-1.51966E-05-3.39905E-03-4.47769E-14-1.30245E-14
 -1      2098 1.99997E+01-4.30091E-03-6.87537E-06-4.42057E-03-1.33741E-13 2.07088E-13
 -1      2099 1.99992E+01-2.97342E-03-9.46470E-07-3.07595E-03-3.63707E-14-8.62747E-14
 -1      2100 1.99990E+01-2.02684E-03-1.94611E-05-2.61144E-03 1.15210E-13 2.04025E-13
 -1      2101 1.99986E+01-1.86408E-03-1.63640E-05-3.11071E-03 8.15546E-14 3.28482E-13
 -1      2102 1.99991E+01-3.00253E-03-4.70799E-06-4.03724E-03-5.55426E-14-8.78249E-14
 -1      2103 2.00003E+01-8.18610E-03 1.46818E-05-3.01663E-03-2.76677E-13-3.87507E-13
 -1      2104 2.00002E+01-7.19719E-03 1.37166E-05-3.27190E-03-8.56765E-14-3.22166E-13
 -1      2105 2.00003E+01-5.73359E-03-1.03414E-05-4.16313E-03-1.80026E-13-1.68750E-13
 -1      2106 2.00005E+01-9.51863E-03 2.11982E-05-2.24266E-03-1.71710E-13-1.29760E-13
 -1      2107 2.00004E+01-8.73292E-03 2.45216E-05-2.61212E-03-2.84309E-13 2.31925E-14
 -1      2108 2.00006E+01-6.95459E-03-1.41434E-05-3.45440E-03-2.04936E-13-2.46881E-13
 -1      2109 2.00006E+01-1.03935E-02 2.66610E-05-1.30377E-03 7.31046E-14 3.32868E-14
 -1      2110 2.00005E+01-9.89733E-03 3.06185E-05-1.73494E-03 1.39384E-14-8.95133E-14
 -1      2111 2.00009E+01-7.88881E-03-1.68646E-05-2.44104E-03 2.56452E-14 3.46121E-14
 -1      2112 2.00006E+01-1.07555E-02 3.06518E-05-2.84960E-04-1.55246E-13-5.70067E-14
 -1      2113 2.00006E+01-1.05869E-02 3.22368E-05-7.43190E-04 3.76284E-14 2.34035E-14
 -1      2114 2.00010E+01-8.46817E-03-1.79786E-05-1.25646E-03 7.81664E-14-2.78134E-14
 -1      2115 2.00006E+01-1.05844E-02 3.24001E-05 7.50442E-04-1.32391E-13-1.21360E-13
 -1      2116 2.00006E+01-1.07556E-02 3.05299E-05 2.91934E-04-1.63850E-13-5.99702E-14
 -1      2117 2.00010E+01-8.66425E-03-1.83025E-05 4.00781E-06-2.30671E-13-8.99265E-14
 -1      2118 2.00005E+01-9.89191E-03 3.08961E-05 1.74356E-03-1.82664E-13 7.05458E-14
 -1      2119 2.00006E+01-1.03909E-02 2.64315E-05 1.31183E-03-2.19435E-13-1.00952E-13
 -1      2120 2.00010E+01-8.46810E-03-1.80022E-05 1.26544E-03-9.00592E-14-1.34801E-13
 -1      2121 2.00004E+01-8.74676E-03 2.45745E-05 2.60870E-03-2.21969E-13-3.21134E-13
 -1      2122 2.00005E+01-9.52081E-03 2.09791E-05 2.24461E-03-2.02290E-13 7.84743E-15
 -1      2123 2.00009E+01-7.89414E-03-1.69548E-05 2.44303E-03-1.67737E-13-9.62828E-15
 -1      2124 2.00002E+01-7.19617E-03 1.29129E-05 3.27699E-03 7.83271E-14 4.90461E-13
 -1      2125 2.00003E+01-8.20183E-03 1.46214E-05 3.01677E-03-2.63779E-14 1.09474E-13
 -1      2126 2.00006E+01-6.96930E-03-1.46476E-05 3.45204E-03-3.45654E-14-5.18937E-14
 -1      2127 1.99999E+01-5.39425E-03-3.80514E-06 3.59564E-03 1.14338E-13 2.26691E-13
 -1      2128 2.00000E+01-6.51312E-03 8.28830E-06 3.51304E-03 1.14898E-13 2.21258E-13
 -1      2129 2.00003E+01-5.73583E-03-1.08293E-05 4.17203E-03 1.56197E-13 4.43312E-13
 -1      2130 1.99993E+01-3.51419E-03-1.65635E-05 3.43239E-03-6.31161E-14 6.31754E-14
 -1      2131 1.99997E+01-4.62133E-03 7.92520E-06 3.58082E-03-6.84674E-15 1.09311E-13
 -1      2132 1.99997E+01-4.28662E-03-3.03441E-06 4.42326E-03-4.51573E-14 9.34777E-14
 -1      2133 1.12659E+01-5.11934E+00-1.27804E-01 6.55408E+00 7.17870E-13 3.59469E-13
 -1      2134 7.79342E+00-6.16029E+00-2.19068E-01 5.72708E+00 5.34184E-13 3.68955E-13
 -1      2135 1.47385E-01-7.50823E+00-4.46467E-01 8.53208E-01 4.56413E-13 7.82263E-13
 -1      2136 1.26647E-01-7.52879E+00-4.49694E-01-6.66830E-01 1.85130E-13 7.83484E-13
 -1      2137 3.57571E+00-6.03906E+00-2.63052E-01 4.27307E+00 3.58269E-13 6.17062E-13
 -1      2138 1.23893E+00-7.61915E+00-5.08173E-01 2.41895E+00 3.72036E-13 8.05578E-13
 -1      2139 1.92591E+00-4.98304E+00-1.97190E-01 2.10462E+00 8.50431E-14 7.87093E-13
 -1      2140 1.97704E+01-2.79806E+00 2.91096E-02 6.87286E+00 8.42437E-13 3.77975E-13
 -1      2141 1.50161E+01-4.85970E+00-2.96356E-01 6.14863E+00 7.91478E-13 3.26544E-13
 -1      2142 3.06830E+01 3.27031E-02 1.84878E-01 4.55425E+00-9.36362E-13-3.70259E-13
 -1      2143 2.68194E+01-1.83489E+00-5.61524E-02 4.47114E+00-8.06549E-13-4.72566E-13
 -1      2144 3.92089E+01 7.17238E+00 2.08978E-01-5.68557E-01-9.87765E-13 3.47833E-13
 -1      2145 4.04030E+01 7.16600E+00 3.40326E-01 4.29952E-01-1.01397E-12 1.01967E-13
 -1      2146 2.83449E+01-2.19221E-01 1.20182E-01 5.59926E+00 7.63611E-13 1.81632E-13
 -1      2147 2.32925E+01-1.85263E+00-1.44631E-01 5.76015E+00 8.43825E-13 3.76366E-13
 -1      2148 1.95544E+01 4.14410E+00-2.86946E-02-1.19693E+00-2.11681E-13-5.74983E-13
 -1      2149 1.98156E+01 4.06132E+00-2.05423E-02-1.43599E+00-2.70266E-13-5.13208E-13
 -1      2150 2.01947E+01 3.36490E+00-1.37098E-02-1.37047E+00-2.98694E-13-4.47732E-13
 -1      2151 1.96447E+01 3.78994E+00-5.46516E-03-1.00139E+00-2.07023E-13-5.62113E-13
 -1      2152 3.98850E+01 6.08112E+00 3.94761E-01 1.57862E+00 8.41605E-13-3.87246E-13
 -1      2153 3.74276E+01 5.07599E+00 2.50550E-01 2.81731E+00 8.27283E-13-1.30451E-13
 -1      2154 4.09336E+01 7.19026E+00 4.24301E-01-3.72711E-01 8.03246E-13-5.49422E-13
 -1      2155 4.00872E+01 7.07113E+00 3.30082E-01 7.76626E-01 8.63309E-13-3.97182E-13
 -1      2156 3.93418E+01 6.15640E+00 3.23586E-01-2.22582E+00 9.17877E-13-8.86680E-13
 -1      2157 4.11499E+01 6.70849E+00 4.36698E-01-9.87328E-01 8.80740E-13-6.02907E-13
 -1      2158 3.42468E+01 3.32345E+00 1.12327E-01-3.63092E+00 8.68382E-13-1.04516E-12
 -1      2159 3.79347E+01 4.65529E+00 3.86343E-01-2.89407E+00 8.38940E-13-9.14879E-13
 -1      2160 2.74220E+01-4.12154E-01-7.34343E-02-4.98324E+00 7.27335E-13-1.03328E-12
 -1      2161 3.21973E+01 1.52288E+00 2.68789E-01-4.94346E+00 8.33722E-13-1.02562E-12
 -1      2162 1.86476E+01-3.71038E+00-2.56374E-01-6.15193E+00 5.41123E-13-1.07203E-12
 -1      2163 2.37489E+01-1.82673E+00 7.13893E-02-6.58292E+00 6.22280E-13-1.18122E-12
 -1      2164 1.04596E+01-6.07553E+00-3.89547E-01-5.86575E+00 3.08198E-13-9.56756E-13
 -1      2165 1.46768E+01-4.18917E+00-8.86748E-02-6.89440E+00 5.14699E-13-1.10584E-12
 -1      2166 4.25896E+00-6.92952E+00-3.53834E-01-4.55163E+00 8.03801E-14-9.10799E-13
 -1      2167 6.91041E+00-6.06853E+00-2.78588E-01-5.57220E+00 3.20854E-13-9.46521E-13
 -1      2168 2.20519E-01-7.88736E+00-5.26376E-01-1.14282E+00-2.36602E-13-9.48130E-13
 -1      2169 1.50598E+00-6.82501E+00-3.62665E-01-2.77787E+00 3.88578E-15-9.64895E-13
 -1      2170 1.09182E+00-7.08619E+00-3.63037E-01 2.17490E+00-4.80366E-13-9.30145E-13
 -1      2171 3.17278E-01-7.43754E+00-4.15626E-01 6.00678E-01-2.00040E-13-9.46243E-13
 -1      2172 5.43485E+00-6.36293E+00-3.12854E-01 4.98998E+00-8.21343E-13-8.45740E-13
 -1      2173 2.78296E+00-7.69937E+00-4.99629E-01 3.60125E+00-5.97911E-13-8.06077E-13
 -1      2174 1.32987E+01-4.65352E+00-1.40589E-01 6.72012E+00-9.10605E-13-8.16763E-13
 -1      2175 9.17377E+00-6.46252E+00-4.33551E-01 5.59842E+00-7.86260E-13-8.07280E-13
 -1      2176 2.23562E+01-3.06488E+00-4.13061E-02 6.44146E+00-7.71605E-13-7.50289E-13
 -1      2177 1.72057E+01-4.44435E+00-2.62813E-01 6.18095E+00-8.73746E-13-8.33777E-13
 -1      2178 1.76583E+01-5.49767E+00-9.89916E-04 6.64885E+00-3.99791E-13-5.29687E-13
 -1      2179 4.05596E+01 6.71939E+00 3.58480E-01 7.42932E-01-1.04544E-12 9.60343E-14
 -1      2180 3.84655E+01 6.14615E+00 2.21792E-01 1.72113E+00-1.19760E-12-1.02696E-13
 -1      2181 3.58720E+01 7.96960E+00 3.10376E-01-7.32479E-02-1.15219E-12 9.97813E-15
 -1      2182 3.69574E+01 4.81184E+00 1.95760E-01-2.31968E+00-9.60260E-13 7.31748E-13
 -1      2183 3.89331E+01 5.91604E+00 2.43048E-01-1.02740E+00-9.27647E-13 4.31211E-13
 -1      2184 3.11690E+01 1.29467E+00 1.49678E-03-3.95676E+00-7.64944E-13 7.74270E-13
 -1      2185 3.54557E+01 2.89998E+00 2.64964E-01-3.40428E+00-8.53460E-13 6.66800E-13
 -1      2186 2.36925E+01-2.26481E+00-6.72305E-02-5.53367E+00-5.58331E-13 9.45521E-13
 -1      2187 2.85172E+01-7.71984E-02 2.17742E-01-5.72273E+00-6.93501E-13 1.01885E-12
 -1      2188 1.37095E+01-5.23201E+00-3.69943E-01-5.94225E+00-1.60094E-13 1.20318E-12
 -1      2189 1.88285E+01-3.62211E+00-9.86744E-02-6.63140E+00-3.89688E-13 1.15186E-12
 -1      2190 7.25800E+00-6.26409E+00-2.26196E-01-5.52470E+00 8.59313E-14 1.10562E-12
 -1      2191 1.03357E+01-5.42705E+00-2.01447E-01-6.23631E+00-1.72196E-13 1.33511E-12
 -1      2192 1.45291E+01-5.74750E+00-1.23463E-01-6.71334E+00 1.94234E-13 1.12164E-12
 -1      2193 1.13988E+00-7.63296E+00-5.08200E-01-2.21147E+00 2.43028E-13 7.93143E-13
 -1      2194 3.34798E+00-6.09984E+00-2.67135E-01-4.03737E+00 1.37057E-13 9.30755E-13
 -1      2195 1.85985E+00-4.96820E+00-1.96047E-01-1.86370E+00 7.62029E-14 8.80074E-13
 -1      2196 3.57125E+01 3.29657E+00 3.41726E-01 3.43460E+00 7.49997E-13-1.00031E-13
 -1      2197 3.14718E+01 1.57570E+00 2.10361E-02 3.60572E+00 7.89042E-13 3.68594E-14
 -1      2198 3.17486E+01 6.89693E-02 6.86348E-02 1.47501E+00-8.15639E-13 7.03326E-14
 -1      2199 3.53121E+01 5.13520E+00 2.66194E-01 1.50738E-01-1.17353E-12 1.09024E-13
 -1      2200 2.14516E+01 1.10845E+00-1.72840E-02-1.20159E+00-3.75290E-13 8.97910E-14
 -1      2201 2.12966E+01 1.35232E+00-2.16293E-02-1.16176E+00-3.87242E-13-8.47065E-14
 -1      2202 6.86730E+00-5.52732E+00-1.21806E-01 5.49259E+00 1.90847E-13 4.62186E-13
 -1      2203 6.45933E+00-4.11290E+00 9.72622E-02 5.29104E+00-1.10578E-13 4.93605E-13
 -1      2204 1.02452E+01-4.94028E+00-8.17149E-02 6.55487E+00-1.18655E-13 2.64899E-13
 -1      2205 1.56639E+01-5.62340E+00-1.06076E-01 6.76506E+00 2.79776E-13 1.59456E-13
 -1      2206 1.99991E+01-2.75851E-03-1.63171E-05 3.39715E-03-9.20671E-14 2.41747E-14
 -1      2207 3.04038E+01-5.55702E-01 1.61411E-01 2.74988E+00 6.31481E-13-2.06613E-13
 -1      2208 2.35857E+01-3.98090E+00 5.21677E-02 5.42268E+00 5.00433E-13 1.68199E-14
 -1      2209 2.59224E+01-3.71577E+00 7.97310E-02 4.52589E+00-5.03625E-13-2.73337E-13
 -1      2210 6.38615E+00-5.60073E+00-1.41864E-01-5.23448E+00 1.28786E-13 1.03612E-12
 -1      2211 9.57037E+00-4.97847E+00-9.48099E-02-6.31901E+00 2.16799E-13 1.14089E-12
 -1      2212 6.05532E+00-4.07983E+00 9.41590E-02-5.01823E+00 1.08413E-13 9.97202E-13
 -1      2213 2.26075E+01-3.85024E+00-1.43890E-02-5.60020E+00-2.63012E-13 8.40938E-13
 -1      2214 2.55895E+01-4.48276E+00-2.10770E-01-4.18265E+00 1.79301E-14 4.43368E-13
 -1      2215 2.17601E+01-5.10305E+00 1.24002E-01-5.64668E+00 1.28952E-13 7.10793E-13
 -1      2216 3.04424E+01-8.70217E-01 1.59075E-01-2.52791E+00-3.97501E-13 3.62821E-13
 -1      2217 9.47802E+00-5.91796E+00-1.58861E-01 6.37100E+00-3.16192E-13-6.84092E-13
 -1      2218 3.38226E+00-5.34590E+00-2.17099E-01 3.70037E+00-1.66700E-13-9.50851E-13
 -1      2219 1.49880E+00-4.91227E+00-1.93568E-01-2.72073E-01-9.06879E-14-1.06004E-12
 -1      2220 4.04589E+00-5.81836E+00-1.94631E-01-4.15728E+00-3.55271E-14-9.55347E-13
 -1      2221 6.61933E+00-4.57442E+00-9.89197E-02-5.64127E+00-1.65951E-13-8.45490E-13
 -1      2222 4.03632E+00-3.92504E+00 3.64124E-02-3.76758E+00-8.32667E-14-9.56457E-13
 -1      2223 1.10762E+01-5.82084E+00-1.27076E-01-6.69264E+00-3.39728E-14-9.05692E-13
 -1      2224 3.56652E+01 7.03957E+00 2.54650E-01 3.28525E-01-1.00298E-12 2.04115E-13
 -1      2225 1.91764E+01-5.16193E+00-1.19920E-02-6.49672E+00 9.19265E-14-8.83460E-13
 -1      2226 2.71166E+01-2.71468E+00 1.05000E-01-4.35679E+00 2.65787E-13-7.42573E-13
 -1      2227 3.26532E+01 1.38443E+00 2.14917E-01-1.69144E+00 5.33198E-13-5.16087E-13
 -1      2228 3.58807E+01 5.55170E+00 3.25134E-01-4.26798E-01 8.39051E-13-5.13756E-13
 -1      2229 3.68989E+01 7.93572E+00 3.70607E-01-1.36563E-01 9.12437E-13-3.89411E-13
 -1      2230 3.65514E+01 7.22911E+00 3.40777E-01 2.04705E-02 8.92508E-13-3.37896E-13
 -1      2231 3.41634E+01 3.40801E+00 2.51228E-01-2.28210E-01-7.26696E-13 2.01172E-13
 -1      2232 3.44643E+01 3.80705E+00 2.14552E-01 4.90547E-01 8.14959E-13-3.37730E-13
 -1      2233 2.10464E+01 5.69928E-01 7.09843E-03 1.39822E-01 3.00832E-13 2.75102E-13
 -1      2234 2.11914E+01 7.48161E-01 2.07125E-02 4.59618E-01 3.50183E-13 3.31933E-13
 -1      2235 1.88890E+01 3.95766E+00-1.11291E-02-2.88834E-01 5.43733E-15-5.83869E-13
 -1      2236 1.90265E+01 3.89032E+00-7.14312E-03-4.01420E-01-4.66288E-14-5.85015E-13
 -1      2237 1.91933E+01 3.75143E+00-1.38392E-02-4.91281E-01-8.57390E-14-5.82310E-13
 -1      2238 1.93943E+01 3.63977E+00-9.02699E-03-6.27339E-01-1.39281E-13-5.69884E-13
 -1      2239 1.92229E+01 3.50515E+00 2.31813E-03-3.46094E-01-6.67711E-14-5.42471E-13
 -1      2240 1.86962E+01 4.08595E+00-7.38227E-03 3.76370E-02 1.58208E-13-5.34999E-13
 -1      2241 1.86903E+01 4.08932E+00-7.81124E-03-5.59724E-02 1.17560E-13-5.56177E-13
 -1      2242 1.88152E+01 4.01478E+00-6.67204E-03 2.03932E-01 2.34698E-13-5.06778E-13
 -1      2243 1.87375E+01 4.05181E+00-9.34222E-03 1.02986E-01 1.92889E-13-5.17953E-13
 -1      2244 1.88060E+01 3.79340E+00 1.98262E-03 4.62751E-02 1.67388E-13-4.89879E-13
 -1      2245 1.90636E+01 3.85625E+00-7.08509E-03 3.96830E-01 3.10739E-13-4.56232E-13
 -1      2246 1.89225E+01 3.92710E+00-1.14072E-02 2.80568E-01 2.65631E-13-4.88913E-13
 -1      2247 1.89679E+01 3.67862E+00 1.85162E-03 1.78127E-01 2.38292E-13-4.64668E-13
 -1      2248 1.94355E+01 3.59666E+00-9.30383E-03 6.36627E-01 3.96425E-13-3.45875E-13
 -1      2249 1.92338E+01 3.71146E+00-1.39992E-02 4.94332E-01 3.41557E-13-4.15690E-13
 -1      2250 1.92663E+01 3.46015E+00 1.80367E-03 3.40880E-01 3.12279E-13-4.00073E-13
 -1      2251 1.99139E+01 3.21309E+00-1.46747E-02 9.20091E-01 4.54380E-13-2.24406E-13
 -1      2252 1.96608E+01 3.38951E+00-1.70376E-02 7.53561E-01 4.06632E-13-2.93804E-13
 -1      2253 1.96871E+01 3.12796E+00 2.63031E-03 5.40742E-01 3.87091E-13-2.93256E-13
 -1      2254 2.04891E+01 2.65532E+00-2.51131E-02 1.21521E+00 4.91570E-13-5.85886E-14
 -1      2255 2.01902E+01 2.93025E+00-1.94049E-02 1.04126E+00 4.62045E-13-1.51976E-13
 -1      2256 2.02040E+01 2.66344E+00 5.64159E-03 7.57928E-01 4.23224E-13-1.60954E-13
 -1      2257 2.11095E+01 9.58791E-01 1.39798E-02-3.76218E-01-2.96260E-13-1.35876E-13
 -1      2258 2.10078E+01 7.54089E-01 3.79395E-04-2.24272E-02-2.64586E-13-1.42135E-13
 -1      2259 3.28623E+01 5.42512E+00-1.32330E-01-9.44450E-01-1.09468E-12 2.59293E-13
 -1      2260 3.21775E+01 3.29359E+00-7.96932E-02-7.82379E-01-1.01388E-12 3.63098E-13
 -1      2261 2.09955E+01 3.50013E-01 7.86450E-03-3.29176E-01 2.28227E-13 2.05190E-13
 -1      2262 2.10128E+01 4.42745E-01 2.03124E-02-1.36362E-01 2.53337E-13 2.58697E-13
 -1      2263 2.09905E+01 7.29104E-01-4.87420E-03 5.22364E-02 3.14207E-13 1.26296E-13
 -1      2264 2.10718E+01 2.01540E+00-1.04359E-02-1.34345E+00-3.76888E-13-2.22248E-13
 -1      2265 2.10480E+01 1.29960E+00-4.01815E-03-6.97368E-01-3.39780E-13-1.79500E-13
 -1      2266 2.08911E+01 1.50959E+00 1.16162E-03-5.63429E-01-3.08242E-13-2.38941E-13
 -1      2267 2.06913E+01 2.47960E+00-6.06382E-03-1.25251E+00-3.54371E-13-3.19619E-13
 -1      2268 2.10050E+01 6.12263E-01 1.59977E-02 2.55957E-01-2.21666E-13-1.17648E-13
 -1      2269 2.09979E+01 5.00041E-01 4.08484E-03 4.82777E-01-1.79448E-13-1.32769E-13
 -1      2270 2.08967E+01 9.23802E-01-4.11915E-03 8.72961E-02-2.49226E-13-1.94193E-13
 -1      2271 2.10174E+01 4.18312E-01 1.09798E-02 6.89649E-01-1.63807E-13-1.17755E-13
 -1      2272 2.10946E+01 3.42602E-01 3.85826E-03 8.43851E-01-1.27349E-13-1.33507E-13
 -1      2273 2.08847E+01 6.22093E-01-5.75966E-03 6.09345E-01-1.79612E-13-1.72170E-13
 -1      2274 2.11576E+01 2.76822E-01 7.48712E-03 9.93128E-01-1.02510E-13-1.31665E-13
 -1      2275 2.12985E+01 2.04251E-01 2.10726E-03 1.09131E+00-8.12616E-14-1.32340E-13
 -1      2276 2.09552E+01 4.17370E-01-6.21589E-03 9.93218E-01-1.28128E-13-1.49985E-13
 -1      2277 2.14133E+01 1.28959E-01 6.21566E-03 1.18614E+00-5.35147E-14-1.36652E-13
 -1      2278 2.15985E+01 3.52917E-02-1.09010E-03 1.22499E+00-3.38185E-14-1.29641E-13
 -1      2279 2.11216E+01 2.23525E-01-6.69782E-03 1.25952E+00-8.73656E-14-1.78551E-13
 -1      2280 2.17748E+01-6.87094E-02 6.76181E-03 1.25411E+00-6.57744E-14-1.27691E-13
 -1      2281 2.19857E+01-2.01783E-01-6.02881E-03 1.21612E+00-5.60105E-14-1.46093E-13
 -1      2282 2.13944E+01-2.07980E-02-8.00774E-03 1.40262E+00-5.66751E-14-1.62334E-13
 -1      2283 2.22367E+01-3.46387E-01 8.58357E-03 1.15412E+00-1.91869E-14-1.65107E-13
 -1      2284 2.24521E+01-5.24660E-01-1.26246E-02 1.01331E+00-2.58868E-14-1.50740E-13
 -1      2285 2.17915E+01-3.59963E-01-1.03241E-02 1.38818E+00-5.16436E-14-1.95150E-13
 -1      2286 2.27865E+01-7.03205E-01 1.04173E-02 8.24133E-01-6.43769E-14-1.06615E-13
 -1      2287 2.29773E+01-9.01533E-01-1.94556E-02 5.58319E-01-1.29730E-13-4.78345E-14
 -1      2288 2.23349E+01-8.04809E-01-1.27256E-02 1.15560E+00-2.43413E-14-2.05353E-13
 -1      2289 2.33778E+01-1.06704E+00 9.51735E-03 2.10423E-01-1.24577E-13 8.79895E-15
 -1      2290 2.35035E+01-1.20343E+00-2.25911E-02-1.72811E-01-1.18926E-13 3.66241E-14
 -1      2291 2.30262E+01-1.28731E+00-1.23977E-02 6.32646E-01-9.24822E-14-2.93559E-14
 -1      2292 2.38912E+01-1.24896E+00 6.43066E-04-6.64336E-01-1.06054E-13 9.26264E-14
 -1      2293 2.39076E+01-1.17859E+00-1.57410E-02-1.08764E+00-9.22457E-14 1.12579E-13
 -1      2294 2.37944E+01-1.59717E+00-5.55863E-03-2.13990E-01-7.22240E-14 1.06062E-13
 -1      2295 2.41364E+01-9.58321E-01-1.74051E-02-1.59350E+00-1.60221E-13 1.66047E-13
 -1      2296 2.40220E+01-5.45950E-01 3.91051E-03-1.87935E+00-2.08311E-13 1.45292E-13
 -1      2297 2.44445E+01-1.39137E+00 4.74584E-03-1.26403E+00-1.25704E-13 2.45556E-13
 -1      2298 2.39440E+01 7.13577E-03-4.39361E-02-2.10561E+00-2.73992E-13 3.92724E-14
 -1      2299 2.37526E+01 6.90290E-01 1.82071E-02-2.01654E+00-2.83369E-13-3.49503E-14
 -1      2300 2.46942E+01-3.33737E-01 1.19600E-02-2.10813E+00-2.85754E-13 2.24934E-13
 -1      2301 2.34644E+01 1.34694E+00-5.14323E-02-1.66340E+00-3.33320E-13-1.85921E-13
 -1      2302 2.33186E+01 1.89665E+00 6.57984E-03-1.11418E+00-4.17593E-13-2.18749E-13
 -1      2303 2.44318E+01 1.31549E+00-1.69724E-02-2.06158E+00-4.40703E-13 2.58023E-14
 -1      2304 2.31670E+01 2.18599E+00-2.54626E-02-2.46620E-01-4.23321E-13-3.47955E-13
 -1      2305 2.31864E+01 2.15952E+00-2.80197E-02 5.09137E-01-3.57072E-13-3.84130E-13
 -1      2306 2.40482E+01 2.61351E+00-4.89598E-02-7.83584E-01-4.80838E-13-1.99242E-13
 -1      2307 2.33741E+01 1.82966E+00 9.05207E-03 1.34928E+00-2.57391E-13-5.09917E-13
 -1      2308 2.35494E+01 1.25256E+00-5.14135E-02 1.87025E+00-1.86752E-13-5.52598E-13
 -1      2309 2.40863E+01 2.56111E+00-4.42197E-02 1.06627E+00-3.79037E-13-4.62242E-13
 -1      2310 2.38473E+01 5.88457E-01 1.84919E-02 2.17403E+00-8.98379E-14-6.20266E-13
 -1      2311 2.40585E+01-8.23219E-02-4.15998E-02 2.22928E+00-2.92474E-15-6.10169E-13
 -1      2312 2.45083E+01 1.20121E+00-8.83748E-03 2.25925E+00-1.61426E-13-6.14737E-13
 -1      2313 2.41215E+01-6.08598E-01 9.14685E-04 1.97087E+00 1.99135E-14-6.07374E-13
 -1      2314 2.42475E+01-9.91064E-01-1.71313E-02 1.67095E+00 8.05263E-14-6.16538E-13
 -1      2315 2.47569E+01-4.33417E-01 1.15185E-02 2.21549E+00-4.07539E-14-5.93282E-13
 -1      2316 2.40146E+01-1.18511E+00-1.72519E-02 1.16194E+00 1.38961E-13-5.54793E-13
 -1      2317 2.40112E+01-1.23229E+00 1.99199E-03 7.41242E-01 2.35730E-13-4.94572E-13
 -1      2318 2.44919E+01-1.40833E+00 6.03254E-03 1.34304E+00 1.42844E-13-4.40004E-13
 -1      2319 2.36265E+01-1.17123E+00-2.28957E-02 2.62478E-01 2.12160E-13-4.76032E-13
 -1      2320 2.35167E+01-1.02605E+00 9.94286E-03-1.08467E-01 1.80985E-13-4.66676E-13
 -1      2321 2.38419E+01-1.56624E+00-5.69447E-03 3.04699E-01 2.21934E-13-3.51615E-13
 -1      2322 2.31275E+01-8.58776E-01-1.91540E-02-4.40340E-01 2.61497E-13-3.61691E-13
 -1      2323 2.29542E+01-6.63962E-01 1.02357E-02-6.93915E-01 3.60720E-13-2.77360E-13
 -1      2324 2.30913E+01-1.23264E+00-1.12690E-02-5.10290E-01 2.93490E-13-2.84712E-13
 -1      2325 2.26296E+01-4.92744E-01-1.24778E-02-8.73771E-01 3.21441E-13-2.50084E-13
 -1      2326 2.24293E+01-3.25820E-01 7.51881E-03-1.00881E+00 1.95082E-13-2.66092E-13
 -1      2327 2.24220E+01-7.60193E-01-1.13590E-02-1.00908E+00 3.45533E-13-2.05658E-13
 -1      2328 2.21813E+01-1.94764E-01-6.16130E-03-1.07304E+00 6.62148E-14-2.29868E-13
 -1      2329 2.19775E+01-7.96196E-02 4.73600E-03-1.11678E+00 2.10906E-14-2.50346E-13
 -1      2330 2.18909E+01-3.44989E-01-8.58065E-03-1.23763E+00 1.86764E-13-2.90180E-13
 -1      2331 2.17926E+01 4.35541E-03-1.48716E-03-1.10661E+00-2.28520E-14-3.15403E-13
 -1      2332 2.15988E+01 7.15760E-02 2.64646E-03-1.09093E+00-3.05854E-14-3.27437E-13
 -1      2333 2.14868E+01-5.32097E-02-5.68364E-03-1.27856E+00-3.74406E-14-2.30457E-13
 -1      2334 2.14593E+01 1.17284E-01 1.47791E-03-1.03899E+00-2.58972E-14-3.96340E-13
 -1      2335 2.12829E+01 1.49312E-01 1.34386E-03-9.90265E-01 5.30213E-15-2.30189E-13
 -1      2336 2.11783E+01 1.20943E-01-3.63842E-03-1.20571E+00-8.52651E-14-1.68743E-13
 -1      2337 2.11749E+01 1.68735E-01 3.10572E-03-9.19042E-01 1.04392E-13-1.86374E-13
 -1      2338 2.10195E+01 1.78187E-01 6.26234E-04-8.55894E-01 9.25238E-14-1.28935E-14
 -1      2339 2.09374E+01 2.07039E-01-2.42460E-03-1.07325E+00 6.83532E-14-1.92022E-13
 -1      2340 2.09338E+01 1.81545E-01 3.79788E-03-7.79586E-01-4.33699E-14-8.57675E-14
 -1      2341 2.08007E+01 1.78062E-01 2.74526E-04-7.13755E-01-7.66537E-14-1.18290E-14
 -1      2342 2.07445E+01 2.35668E-01-1.77474E-03-9.17255E-01-3.27419E-14-1.11009E-13
 -1      2343 2.07316E+01 1.72644E-01 3.89345E-03-6.40604E-01-1.13171E-13-6.51597E-14
 -1      2344 2.06202E+01 1.62696E-01 1.24732E-04-5.78726E-01-1.13435E-13-1.30488E-13
 -1      2345 2.05875E+01 2.30715E-01-1.43864E-03-7.59958E-01-1.33513E-13-2.98045E-14
 -1      2346 2.05641E+01 1.53190E-01 3.64465E-03-5.12989E-01-1.52163E-13-2.07891E-13
 -1      2347 2.04731E+01 1.40752E-01 7.40739E-05-4.58298E-01-5.60167E-14-2.09207E-13
 -1      2348 2.04588E+01 2.08478E-01-1.24972E-03-6.13874E-01-1.57285E-13-3.24451E-14
 -1      2349 2.04277E+01 1.29947E-01 3.22408E-03-4.01720E-01-1.81675E-14-1.55003E-13
 -1      2350 2.03547E+01 1.17284E-01 6.54785E-05-3.55344E-01 1.34732E-14-1.45938E-13
 -1      2351 2.03536E+01 1.79132E-01-1.11606E-03-4.85089E-01-9.64775E-14-4.93948E-14
 -1      2352 2.03183E+01 1.06718E-01 2.74160E-03-3.08172E-01 1.79260E-14-1.91623E-13
 -1      2353 2.02609E+01 9.50067E-02 7.04520E-05-2.70038E-01-2.11412E-14-7.62686E-14
 -1      2354 2.02684E+01 1.48572E-01-9.95892E-04-3.75663E-01 5.92462E-16-2.87912E-14
 -1      2355 2.02321E+01 8.54465E-02 2.26244E-03-2.31689E-01-1.04877E-13-2.36078E-14
 -1      2356 2.01878E+01 7.52088E-02 7.63300E-05-2.01090E-01-4.85582E-14-4.20753E-14
 -1      2357 2.02002E+01 1.19933E-01-8.75842E-04-2.85284E-01-3.79554E-14-3.24893E-14
 -1      2358 2.01653E+01 6.69644E-02 1.82203E-03-1.70575E-01-2.72167E-14-7.96748E-14
 -1      2359 2.01318E+01 5.83468E-02 7.86308E-05-1.46534E-01 3.85952E-15-1.27881E-13
 -1      2360 2.01464E+01 9.46692E-02-7.55290E-04-2.12355E-01-3.88931E-14 1.07350E-13
 -1      2361 2.01145E+01 5.14706E-02 1.43667E-03-1.22714E-01-5.22888E-14-1.78447E-13
 -1      2362 2.00896E+01 4.44175E-02 7.67681E-05-1.04184E-01-1.22215E-13-2.50951E-13
 -1      2363 2.01047E+01 7.32562E-02-6.37819E-04-1.54690E-01-5.78072E-14-2.76169E-14
 -1      2364 2.00766E+01 3.88278E-02 1.11095E-03-8.59281E-02 3.55072E-14-2.27796E-13
 -1      2365 2.00586E+01 3.31853E-02 7.17085E-05-7.19075E-02 8.20224E-14-6.77564E-14
 -1      2366 2.00729E+01 5.56303E-02-5.27583E-04-1.09939E-01-2.75954E-14-6.63000E-14
 -1      2367 2.00489E+01 2.87380E-02 8.42876E-04-5.81688E-02-2.38035E-14-7.37101E-14
 -1      2368 2.00362E+01 2.43135E-02 6.47132E-05-4.77581E-02 1.36567E-14-7.24814E-14
 -1      2369 2.00491E+01 4.14581E-02-4.27850E-04-7.58341E-02 8.44667E-14-9.26919E-14
 -1      2370 2.00292E+01 2.08427E-02 6.27092E-04-3.76121E-02-1.38925E-14-2.08472E-13
 -1      2371 2.00205E+01 1.74377E-02 5.68319E-05-3.00350E-02-7.00651E-14-2.62805E-13
 -1      2372 2.00316E+01 3.02928E-02-3.40473E-04-5.03143E-02-8.73575E-14-2.55877E-13
 -1      2373 2.00156E+01 1.47778E-02 4.56791E-04-2.26938E-02 1.04420E-13-3.66942E-13
 -1      2374 2.00099E+01 1.22044E-02 4.87681E-05-1.73004E-02 2.17458E-13-2.78264E-13
 -1      2375 2.00192E+01 2.16597E-02-2.65962E-04-3.15832E-02-1.66272E-14-3.20914E-13
 -1      2376 2.00065E+01 1.02014E-02 3.24847E-04-1.21107E-02 1.47636E-13-2.16806E-13
 -1      2377 2.00030E+01 8.29054E-03 4.08740E-05-8.37126E-03 4.17715E-15-9.59205E-14
 -1      2378 2.00106E+01 1.51034E-02-2.03854E-04-1.81234E-02 2.03109E-13-2.10942E-13
 -1      2379 2.00009E+01 6.80668E-03 2.24472E-04-4.80458E-03 1.01286E-13 1.05849E-13
 -1      2380 1.99989E+01 5.41026E-03 3.31761E-05-2.29821E-03 2.47381E-13 2.03477E-13
 -1      2381 2.00048E+01 1.02088E-02-1.53085E-04-8.68764E-03 2.27890E-13 1.88362E-14
 -1      2382 1.99976E+01 4.32513E-03 1.49554E-04 6.20146E-05 1.43543E-13 3.40509E-13
 -1      2383 1.99968E+01 3.31549E-03 2.54498E-05 1.66071E-03 2.96253E-13 3.48836E-13
 -1      2384 2.00012E+01 6.61002E-03-1.12308E-04-2.27593E-03 2.99713E-13 3.83500E-13
 -1      2385 1.99961E+01 2.52477E-03 9.48937E-05 3.13306E-03 3.98958E-13 1.85280E-13
 -1      2386 1.99959E+01 1.79208E-03 1.73664E-05 4.06637E-03 3.05276E-13 2.74171E-14
 -1      2387 1.99991E+01 3.98934E-03-8.00702E-05 1.89163E-03 1.48614E-13 1.38142E-13
 -1      2388 1.99957E+01 1.20508E-03 5.61081E-05 4.88524E-03 5.72583E-14-1.22282E-13
 -1      2389 1.99960E+01 6.53553E-04 8.37761E-06 5.32400E-03-6.90722E-14-2.71349E-14
 -1      2390 1.99981E+01 2.07290E-03-5.49005E-05 4.40338E-03 1.32746E-13-2.65499E-14
 -1      2391 1.99960E+01 1.89454E-04 2.98045E-05 5.65124E-03 4.19063E-14-3.39790E-15
 -1      2392 1.99965E+01-2.62657E-04-2.63794E-07 5.70385E-03-1.04927E-13 1.28700E-13
 -1      2393 1.99978E+01 6.20149E-04-3.61982E-05 5.68438E-03-2.04790E-15 7.64944E-14
 -1      2394 1.99967E+01-6.86111E-04 1.00026E-05 5.64521E-03-3.29690E-13 2.12032E-13
 -1      2395 1.99974E+01-1.08980E-03-7.00491E-06 5.36453E-03-3.68214E-13 2.97310E-13
 -1      2396 1.99979E+01-5.67053E-04-2.17068E-05 6.02098E-03-1.03282E-13-1.16439E-14
 -1      2397 2.13120E+01 1.13496E-01 2.16648E-03-8.24753E-01 9.36425E-14 7.32726E-14
 -1      2398 2.11641E+01 1.68258E-01 7.93628E-03-7.55781E-01 1.20539E-13 1.43158E-13
 -1      2399 2.16171E+01-6.76940E-03-1.77125E-03-9.02895E-01 6.57848E-14 5.53398E-14
 -1      2400 2.14337E+01 5.86068E-02 5.19801E-03-8.86938E-01 6.51760E-14 5.48192E-14
 -1      2401 2.12314E+01 1.19112E-01-6.05250E-03-9.81496E-01 1.04768E-13 3.16999E-15
 -1      2402 2.19738E+01-1.62234E-01-6.74239E-03-8.51311E-01 5.60060E-14 9.99515E-14
 -1      2403 2.17838E+01-7.66152E-02 3.86391E-03-9.00043E-01 7.00752E-14 9.16650E-14
 -1      2404 2.15126E+01-6.14185E-02-5.80841E-03-1.05600E+00 5.14319E-14 2.64402E-14
 -1      2405 2.23434E+01-3.57897E-01-1.23484E-02-6.37027E-01-1.14388E-14 1.35084E-13
 -1      2406 2.21788E+01-2.52218E-01 3.17368E-03-7.66369E-01 1.36072E-14 1.35882E-13
 -1      2407 2.18731E+01-2.92031E-01-5.59064E-03-9.76468E-01 8.09400E-15 6.90038E-14
 -1      2408 2.26776E+01-5.67460E-01-1.69541E-02-2.31640E-01-4.46639E-14 1.70082E-13
 -1      2409 2.25737E+01-4.60611E-01 2.30134E-03-4.50376E-01-2.62494E-14 1.72583E-13
 -1      2410 2.22947E+01-5.69876E-01-4.71456E-03-7.04304E-01-3.63201E-14 1.11962E-13
 -1      2411 2.29109E+01-7.13776E-01-1.74377E-02 3.54614E-01 4.80328E-14 1.64001E-13
 -1      2412 2.29033E+01-6.53198E-01 1.52001E-04 6.35336E-02 1.40686E-14 1.77074E-13
 -1      2413 2.27399E+01-8.41981E-01-1.71688E-03-2.08918E-01 2.09164E-15 9.50741E-14
 -1      2414 2.29638E+01-6.66371E-01-1.03058E-02 1.02248E+00 8.12753E-14 1.73926E-13
 -1      2415 2.30745E+01-7.24428E-01-4.94864E-03 7.24446E-01 4.38772E-14 1.67364E-13
 -1      2416 2.31316E+01-9.80922E-01 4.78881E-03 4.89630E-01 6.04269E-14 7.00674E-14
 -1      2417 2.27720E+01-3.01845E-01 4.64340E-03 1.54215E+00 1.08869E-13 2.21024E-13
 -1      2418 2.29883E+01-5.32356E-01-1.28637E-02 1.35870E+00 7.90882E-14 2.11429E-13
 -1      2419 2.33433E+01-8.03743E-01 1.21638E-02 1.25421E+00 3.66061E-14 1.40061E-13
 -1      2420 2.23653E+01 3.52334E-01 1.87902E-02 1.59890E+00 1.12295E-13 2.59014E-13
 -1      2421 2.26201E+01-5.52010E-03-1.90059E-02 1.66441E+00 1.39565E-13 2.57135E-13
 -1      2422 2.32548E+01-1.89299E-01 1.25444E-02 1.78026E+00 8.00388E-14 1.64582E-13
 -1      2423 2.19265E+01 1.01685E+00 1.80073E-02 9.91253E-01 1.27920E-13 1.57057E-13
 -1      2424 2.21139E+01 7.08440E-01-1.78285E-02 1.35403E+00 1.34297E-13 2.21848E-13
 -1      2425 2.28917E+01 7.34578E-01-9.94244E-04 1.69539E+00 1.26146E-13 1.35637E-13
 -1      2426 2.17552E+01 1.26837E+00 3.30221E-03-1.20294E-01 1.20508E-13-2.80201E-15
 -1      2427 2.17794E+01 1.21902E+00-1.31551E-03 4.08569E-01 1.01788E-13 8.23881E-14
 -1      2428 2.25122E+01 1.51881E+00-1.85044E-02 8.16290E-01 1.86490E-13 5.18748E-14
 -1      2429 2.20119E+01 9.30029E-01-1.27998E-02-1.20299E+00 2.35018E-13-1.15932E-13
 -1      2430 2.18547E+01 1.16933E+00 1.78910E-02-7.60991E-01 1.62996E-13-5.55682E-14
 -1      2431 2.24578E+01 1.65508E+00-1.97725E-02-5.19394E-01 1.76786E-13-2.93546E-14
 -1      2432 2.25467E+01 2.36628E-01-1.81428E-02-1.75523E+00 2.09719E-13-5.97595E-14
 -1      2433 2.22746E+01 6.03482E-01 2.22792E-02-1.58572E+00 2.51479E-13-2.68145E-14
 -1      2434 2.27933E+01 1.05636E+00-3.30385E-03-1.61172E+00 2.24721E-13-1.03448E-13
 -1      2435 2.30347E+01-3.78782E-01-1.23022E-02-1.63669E+00-2.31872E-14-5.82130E-14
 -1      2436 2.27652E+01-1.01287E-01 1.05733E-02-1.74445E+00 9.77788E-14-2.79473E-14
 -1      2437 2.32380E+01 1.11602E-01 1.15500E-02-1.97596E+00 1.12541E-13-2.76359E-14
 -1      2438 2.32630E+01-6.77603E-01-5.40959E-03-1.08828E+00-7.81120E-14-1.56332E-13
 -1      2439 2.30790E+01-5.70459E-01-6.93623E-03-1.35200E+00-1.21700E-13-1.17705E-13
 -1      2440 2.34574E+01-6.36747E-01 1.21356E-02-1.61648E+00-9.08388E-15-1.61793E-13
 -1      2441 2.32157E+01-6.80774E-01 2.61021E-04-4.22654E-01 9.84065E-15-1.26013E-13
 -1      2442 2.31505E+01-7.10847E-01-1.66105E-02-7.13622E-01 2.98546E-15-1.06730E-13
 -1      2443 2.33697E+01-9.48030E-01 5.82894E-03-9.05933E-01-6.13316E-14-2.23541E-13
 -1      2444 2.29725E+01-5.19496E-01 2.56678E-03 1.43460E-01 5.68985E-14-6.15051E-14
 -1      2445 2.30151E+01-6.14505E-01-1.78147E-02-9.35806E-02 1.91895E-14-1.14864E-13
 -1      2446 2.30559E+01-8.96189E-01-7.19864E-04-1.73249E-01 1.31674E-14-2.12113E-13
 -1      2447 2.26294E+01-3.17512E-01 2.72533E-03 5.25979E-01 1.74921E-14 1.08659E-14
 -1      2448 2.27493E+01-4.20319E-01-1.40847E-02 3.70710E-01 1.28306E-13 5.69328E-14
 -1      2449 2.26451E+01-6.56967E-01-3.96690E-03 3.92147E-01 5.54899E-14-8.85714E-14
 -1      2450 2.22542E+01-1.43800E-01 2.14728E-03 7.29676E-01-2.24502E-13-5.08862E-14
 -1      2451 2.24188E+01-2.26483E-01-8.91975E-03 6.50738E-01-9.98264E-14-4.38200E-14
 -1      2452 2.22281E+01-3.84757E-01-4.50681E-03 7.43550E-01-4.83585E-14 4.48440E-14
 -1      2453 2.18865E+01-2.10482E-02 1.55078E-03 7.96144E-01-1.03779E-13-5.63860E-14
 -1      2454 2.20691E+01-7.67279E-02-4.24499E-03 7.74543E-01-2.18681E-13-7.31522E-14
 -1      2455 2.18463E+01-1.59757E-01-3.87126E-03 9.09016E-01-1.69481E-13-1.28138E-13
 -1      2456 2.15467E+01 5.32734E-02 1.15064E-03 7.72494E-01-1.69291E-14-9.71434E-14
 -1      2457 2.17282E+01 2.12097E-02-7.69143E-04 7.87793E-01-1.66043E-14-1.02024E-13
 -1      2458 2.15117E+01-4.79059E-03-3.02509E-03 9.40269E-01-4.65398E-14-2.90141E-13
 -1      2459 2.12444E+01 9.07694E-02 9.25669E-04 6.97882E-01 8.70046E-14 9.93021E-15
 -1      2460 2.14128E+01 7.58810E-02 1.46413E-03 7.33417E-01-5.02934E-15-6.77646E-14
 -1      2461 2.12239E+01 8.66899E-02-2.36116E-03 8.87189E-01-3.41865E-15-2.45702E-13
 -1      2462 2.09831E+01 1.03715E-01 8.02468E-04 6.00309E-01 8.47044E-14-8.77172E-14
 -1      2463 2.11320E+01 9.99033E-02 2.68360E-03 6.44342E-01 1.73606E-13-3.32872E-14
 -1      2464 2.09791E+01 1.30991E-01-1.92879E-03 7.88727E-01 1.25372E-13-2.18800E-13
 -1      2465 2.07626E+01 1.01961E-01 7.25880E-04 4.97791E-01-8.10170E-14 7.84011E-14
 -1      2466 2.08895E+01 1.04560E-01 3.18011E-03 5.42911E-01-4.40200E-14 4.04195E-14
 -1      2467 2.07728E+01 1.44332E-01-1.65638E-03 6.71915E-01-5.32294E-14-1.30382E-13
 -1      2468 2.05806E+01 9.24181E-02 6.62754E-04 4.00804E-01-2.99923E-15 2.28257E-13
 -1      2469 2.06856E+01 9.82477E-02 3.21258E-03 4.42817E-01-1.96378E-14 1.24660E-13
 -1      2470 2.06010E+01 1.39418E-01-1.46632E-03 5.53835E-01-8.58839E-14 7.89638E-15
 -1      2471 2.04334E+01 7.95266E-02 5.98697E-04 3.14657E-01 3.31343E-14 2.67113E-14
 -1      2472 2.05180E+01 8.65876E-02 2.97777E-03 3.51536E-01 1.07497E-13 1.94357E-13
 -1      2473 2.04600E+01 1.25056E-01-1.30883E-03 4.44235E-01 4.86395E-14 6.79522E-14
 -1      2474 2.03167E+01 6.59360E-02 5.30564E-04 2.41377E-01 1.20306E-13-6.94071E-14
 -1      2475 2.03833E+01 7.30619E-02 2.61193E-03 2.72446E-01-3.43846E-14 5.93549E-15
 -1      2476 2.03459E+01 1.06851E-01-1.15951E-03 3.47894E-01 8.41547E-14-3.41702E-14
 -1      2477 2.02258E+01 5.31052E-02 4.60225E-04 1.81034E-01 1.75545E-13 4.57659E-14
 -1      2478 2.02772E+01 5.96737E-02 2.20232E-03 2.06403E-01 1.79545E-13 5.07013E-14
 -1      2479 2.02552E+01 8.81194E-02-1.01096E-03 2.66431E-01 7.92848E-14-5.70233E-14
 -1      2480 2.01565E+01 4.17419E-02 3.90861E-04 1.32637E-01 1.10708E-13 1.15322E-13
 -1      2481 2.01952E+01 4.74697E-02 1.80082E-03 1.52828E-01 1.57983E-13 3.30675E-14
 -1      2482 2.01841E+01 7.06628E-02-8.64734E-04 1.99589E-01 1.64018E-13 1.20674E-13
 -1      2483 2.01046E+01 3.21000E-02 3.25386E-04 9.46962E-02 3.36994E-14 1.53399E-13
 -1      2484 2.01332E+01 3.69058E-02 1.43538E-03 1.10409E-01 3.32174E-14 1.50521E-13
 -1      2485 2.01295E+01 5.53290E-02-7.25239E-04 1.46095E-01 5.37718E-14 2.89124E-13
 -1      2486 2.00666E+01 2.41747E-02 2.65946E-04 6.55698E-02 8.61183E-14 3.25474E-13
 -1      2487 2.00872E+01 2.80897E-02 1.11848E-03 7.75447E-02 7.63240E-14 3.08735E-13
 -1      2488 2.00883E+01 4.23943E-02-5.96530E-04 1.04213E-01-5.48339E-14 2.78956E-13
 -1      2489 2.00396E+01 1.78262E-02 2.13751E-04 4.36604E-02 6.74891E-14 3.71420E-13
 -1      2490 2.00540E+01 2.09381E-02 8.53162E-04 5.26008E-02 1.65217E-13 3.75330E-13
 -1      2491 2.00578E+01 3.18117E-02-4.81470E-04 7.20858E-02 1.55238E-13 4.22490E-13
 -1      2492 2.00208E+01 1.28537E-02 1.69174E-04 2.75187E-02-6.03323E-15 2.07539E-13
 -1      2493 2.00305E+01 1.52737E-02 6.37064E-04 3.40532E-02-1.41993E-14 2.79671E-13
 -1      2494 2.00358E+01 2.33681E-02-3.81537E-04 4.79314E-02 1.37254E-13 3.71517E-13
 -1      2495 2.00084E+01 9.03878E-03 1.31941E-04 1.58883E-02-5.16138E-14 1.33553E-13
 -1      2496 2.00146E+01 1.08827E-02 4.65124E-04 2.05550E-02 8.00088E-14 1.97504E-13
 -1      2497 2.00204E+01 1.67784E-02-2.96910E-04 3.01413E-02 7.15712E-14 4.49634E-13
 -1      2498 2.00006E+01 6.16895E-03 1.01328E-04 7.71723E-03-2.56303E-13 2.09093E-13
 -1      2499 2.00042E+01 7.54655E-03 3.31156E-04 1.09622E-02-2.93305E-13 3.98479E-14
 -1      2500 2.00099E+01 1.17397E-02-2.26801E-04 1.73265E-02-1.04929E-13 2.97833E-13
 -1      2501 1.99961E+01 4.04899E-03 7.63007E-05 2.15022E-03 2.78204E-14 2.98113E-13
 -1      2502 1.99980E+01 5.05990E-03 2.28807E-04 4.33237E-03-3.97326E-14 2.08767E-13
 -1      2503 2.00031E+01 7.96061E-03-1.69814E-04 8.32690E-03-1.11794E-13 1.13697E-13
 -1      2504 1.99939E+01 2.50539E-03 5.56231E-05-1.48749E-03 8.90889E-14 2.61808E-13
 -1      2505 1.99946E+01 3.23746E-03 1.52093E-04-8.80639E-05 5.88236E-14 2.61154E-13
 -1      2506 1.99990E+01 5.17523E-03-1.24254E-04 2.20185E-03-3.48022E-14 1.03137E-13
 -1      2507 1.99934E+01 1.38585E-03 3.79426E-05-3.71020E-03 5.57078E-14 3.71689E-13
 -1      2508 1.99932E+01 1.91596E-03 9.56841E-05-2.88334E-03 1.03599E-13 3.92379E-13
 -1      2509 1.99969E+01 3.14772E-03-8.83594E-05-1.78871E-03 3.72946E-14-3.03241E-15
 -1      2510 1.99939E+01 5.56126E-04 2.19155E-05-4.89133E-03 3.78958E-13 3.30224E-13
 -1      2511 1.99932E+01 9.52104E-04 5.50424E-05-4.48847E-03 2.22635E-13 4.32384E-13
 -1      2512 1.99960E+01 1.67115E-03-6.05029E-05-4.20676E-03 1.46403E-13 1.51398E-13
 -1      2513 1.99949E+01-1.03075E-04 7.65793E-06-5.28086E-03 9.46073E-14 1.78427E-13
 -1      2514 1.99940E+01 2.18415E-04 2.63689E-05-5.20840E-03 2.88676E-13 2.96611E-13
 -1      2515 1.99960E+01 5.63757E-04-3.91060E-05-5.45919E-03 3.34218E-13 4.58544E-13
 -1      2516 1.99962E+01-7.05752E-04-5.45528E-06-5.02504E-03 1.01897E-13 1.44816E-13
 -1      2517 1.99953E+01-4.06532E-04 5.27950E-06-5.23903E-03 1.03689E-13 9.29967E-14
 -1      2518 1.99966E+01-3.28488E-04-2.12919E-05-5.82196E-03 1.49800E-13 2.37815E-13
 -1      2519 1.99976E+01-1.32181E-03-1.90016E-05-4.19385E-03-1.58546E-13 3.43772E-13
 -1      2520 1.99967E+01-1.00076E-03-3.28015E-06-4.66513E-03-8.36741E-14 2.51310E-13
 -1      2521 1.99974E+01-1.18404E-03-7.58834E-06-5.46971E-03-1.40963E-13 3.19748E-13
 -1      2522 1.99981E+01-1.62623E-03-8.08068E-06-3.50786E-03-5.49368E-14 2.67129E-13
 -1      2523 2.00012E+01-5.76129E-03 1.38281E-05-3.55868E-03-7.73585E-14-9.17530E-14
 -1      2524 2.00010E+01-5.23702E-03 1.00892E-05-4.02096E-03-3.81494E-14-5.08428E-13
 -1      2525 2.00015E+01-6.32396E-03 1.52301E-05-2.37681E-03 9.08875E-14 2.49507E-13
 -1      2526 2.00014E+01-5.95631E-03 1.56830E-05-2.95878E-03 1.23568E-14 2.90321E-13
 -1      2527 2.00018E+01-4.33897E-03-5.53122E-06-3.54142E-03 2.10841E-13 1.17797E-13
 -1      2528 2.00000E+01-3.92093E-03 1.37993E-05-4.93305E-03 2.18238E-14 2.13430E-13
 -1      2529 1.99995E+01-3.20375E-03-1.94026E-05-4.93443E-03 6.76738E-14 2.49387E-14
 -1      2530 2.00007E+01-4.94703E-03 1.25011E-05-4.46500E-03-1.85575E-13-3.40039E-13
 -1      2531 2.00004E+01-4.31299E-03-3.79511E-07-4.72859E-03-2.01650E-13 3.42215E-14
 -1      2532 2.00003E+01-3.22862E-03-6.30802E-06-5.29930E-03 1.39008E-14-1.27132E-13
 -1      2533 2.00012E+01-3.87682E-03-5.56811E-06-4.62553E-03-8.65783E-14-2.40410E-13
 -1      2534 2.00016E+01-6.62304E-03 1.69769E-05-1.04924E-03 4.76223E-14-1.59951E-13
 -1      2535 2.00016E+01-6.43377E-03 1.82880E-05-1.69249E-03 9.65278E-14-3.41578E-14
 -1      2536 2.00021E+01-4.62942E-03-4.20037E-06-2.20627E-03 1.49183E-13 7.42450E-14
 -1      2537 2.00017E+01-6.65892E-03 1.85071E-05 3.34494E-04-9.90828E-15-6.69025E-14
 -1      2538 2.00017E+01-6.65913E-03 1.83024E-05-3.27683E-04-6.51159E-14-1.59801E-13
 -1      2539 2.00022E+01-4.76981E-03-3.23223E-06-7.46209E-04 1.61446E-13-2.61775E-13
 -1      2540 2.00016E+01-6.43589E-03 1.86615E-05 1.70100E-03 2.90969E-14-1.54329E-13
 -1      2541 2.00016E+01-6.62582E-03 1.66951E-05 1.05686E-03-8.62560E-15-8.94533E-14
 -1      2542 2.00022E+01-4.77267E-03-3.31826E-06 7.52352E-04 8.28848E-14-2.09764E-15
 -1      2543 2.00014E+01-5.96947E-03 1.56973E-05 2.95037E-03-4.16681E-14-1.76925E-13
 -1      2544 2.00015E+01-6.33090E-03 1.50643E-05 2.37643E-03 3.11018E-14-1.70087E-13
 -1      2545 2.00021E+01-4.63860E-03-4.29228E-06 2.20360E-03 9.87156E-14-2.26166E-13
 -1      2546 2.00010E+01-5.25547E-03 8.51199E-06 4.02029E-03 9.10064E-14 2.94305E-13
 -1      2547 2.00012E+01-5.77497E-03 1.42289E-05 3.55366E-03-4.52122E-14-1.44272E-13
 -1      2548 2.00018E+01-4.35342E-03-5.48875E-06 3.53452E-03 5.93966E-14-1.28774E-13
 -1      2549 2.00004E+01-4.32408E-03-4.41649E-06 4.73911E-03-5.15360E-15 2.51044E-13
 -1      2550 2.00007E+01-4.95604E-03 1.47778E-05 4.46835E-03-4.44464E-14 4.68839E-13
 -1      2551 2.00012E+01-3.88261E-03-2.58259E-06 4.63911E-03 4.69331E-14 1.52167E-13
 -1      2552 1.99995E+01-3.20041E-03-1.53330E-05 4.91791E-03-2.33573E-13-6.31391E-14
 -1      2553 2.00000E+01-3.91122E-03 1.11377E-05 4.94434E-03-1.15397E-13 8.92352E-14
 -1      2554 2.00003E+01-3.22642E-03-5.25483E-06 5.30967E-03-1.61731E-13 8.30458E-14
 -1      2555 1.91402E+01-5.35011E+00 9.11473E-03 6.51482E+00 1.61704E-13 1.05273E-13
 -1      2556 1.53389E+01-5.32924E+00 4.95890E-02 6.69383E+00 6.15064E-14 1.13652E-13
 -1      2557 1.99986E+01-2.42580E-03-3.28640E-06 4.12880E-03-1.30524E-13 1.82813E-13
 -1      2558 3.03871E+01-7.11401E-01-1.36187E-01 7.14206E-01 5.12642E-13-3.44058E-13
 -1      2559 2.81898E+01-2.66079E+00-3.21024E-02 2.30605E+00 4.51042E-13-3.27960E-13
 -1      2560 2.10933E+01 2.20342E-01 5.34392E-03-6.35737E-01 1.54243E-13 1.58970E-13
 -1      2561 2.10106E+01 2.80761E-01 1.29573E-02-5.14184E-01 1.97479E-13 1.88581E-13
 -1      2562 2.10432E+01 2.74857E-01-6.25996E-03-7.77467E-01 1.73847E-13 5.34143E-14
 -1      2563 3.87256E+00-3.25771E+00 4.81538E-02 3.15313E+00-1.04569E-13 6.62137E-13
 -1      2564 2.74285E+00-3.28515E+00 1.97615E-02 1.09240E+00-1.06123E-13 7.23033E-13
 -1      2565 2.74382E+01-3.87992E+00-1.07475E-01 2.93575E+00-3.57395E-13 8.09075E-14
 -1      2566 2.40131E+01-5.03680E+00 2.30754E-02 4.66995E+00-2.24681E-13-2.00062E-13
 -1      2567 2.57552E+01-4.17912E+00-7.21384E-02 4.21196E+00 3.45612E-13-2.44110E-13
 -1      2568 2.25379E+01-5.10326E+00-9.48097E-03 5.11542E+00 2.13413E-13-1.48048E-13
 -1      2569 1.83463E+01-5.60188E+00 2.40433E-02-6.41005E+00-1.94733E-13-6.99545E-13
 -1      2570 2.20378E+01-5.23859E+00-5.62446E-02-5.87335E+00-1.07914E-13-6.70797E-13
 -1      2571 1.87206E+01 4.06741E+00-8.94960E-03-1.19077E-01 8.88068E-14-5.66251E-13
 -1      2572 1.87880E+01 4.03683E+00-6.95419E-03-2.16714E-01 4.35869E-14-5.80694E-13
 -1      2573 1.89346E+01 3.71018E+00 2.12421E-03-1.96406E-01 2.73675E-14-5.47847E-13
 -1      2574 1.87932E+01 3.80507E+00 2.08821E-03-7.19560E-02 9.19413E-14-5.34661E-13
 -1      2575 3.28854E+01 7.12006E+00-1.21099E-01-6.44633E-01 8.26617E-13-2.02963E-13
 -1      2576 3.29681E+01 5.94666E+00-6.79574E-02-8.00208E-01 8.18956E-13-2.36255E-13
 -1      2577 3.36523E+01 7.04883E+00-5.09745E-02 3.94711E-01 8.75189E-13-2.24598E-13
 -1      2578 3.32294E+01 7.61642E+00-9.96778E-02 1.00025E-01 8.79574E-13-1.75840E-13
 -1      2579 3.25166E+01 4.09914E+00-8.16380E-02 5.22290E-01 6.47427E-13-1.76636E-13
 -1      2580 3.36391E+01 5.76415E+00-6.66734E-02 5.40271E-01 7.85927E-13-2.73781E-13
 -1      2581 3.02084E+01-6.28816E-01-4.85862E-02-6.94067E-01 1.98591E-13-1.49825E-13
 -1      2582 3.16839E+01 1.35422E+00-1.19398E-01 4.43102E-02 3.97127E-13-7.02771E-14
 -1      2583 2.54077E+01-4.32181E+00-2.89502E-03-4.04791E+00-7.09155E-14-4.68403E-13
 -1      2584 2.84687E+01-2.85809E+00-1.08685E-01-2.73806E+00 7.76046E-14-3.19883E-13
 -1      2585 3.24284E+01 5.77403E+00-9.12588E-02 1.11764E+00-8.46101E-13-1.12965E-14
 -1      2586 3.24829E+01 7.01078E+00-1.37988E-01 7.34952E-01-9.85767E-13-2.56739E-15
 -1      2587 1.08725E+01-5.04929E+00 5.36440E-02-6.52346E+00-2.20768E-13-7.84567E-13
 -1      2588 1.43238E+01-5.31271E+00-2.03085E-02-7.14922E+00-1.55820E-13-7.73936E-13
 -1      2589 3.12933E+00-2.83743E+00 7.49945E-02 6.18745E-01-3.55271E-15-9.83269E-13
 -1      2590 3.17555E+00-3.14072E+00 7.92093E-02-1.64580E+00-1.65978E-14-1.02152E-12
 -1      2591 5.96209E+00-4.17797E+00-1.69927E-03 5.07845E+00-5.78704E-14-7.92366E-13
 -1      2592 4.11380E+00-3.40771E+00 6.61276E-02 3.20631E+00 4.54498E-14-9.13658E-13
 -1      2593 2.03348E+01-5.52514E+00-5.80915E-02 6.27564E+00-9.66449E-14-3.25080E-13
 -1      2594 1.68644E+01-5.63851E+00 3.13436E-02 6.58481E+00-4.95715E-14-3.60725E-13
 -1      2595 3.25835E+01 7.38919E+00-1.43040E-01-7.94044E-02-1.04655E-12 1.21531E-13
 -1      2596 3.28834E+01 6.95324E+00-8.81052E-02-6.31554E-01-1.10811E-12 1.33948E-13
 -1      2597 3.14117E+01 1.50408E+00-6.59462E-02 6.83878E-01-4.35985E-13-2.96430E-14
 -1      2598 3.22508E+01 3.43578E+00-1.63691E-01 1.07744E+00-6.22419E-13-1.12965E-14
 -1      2599 3.31104E+01 4.29968E+00-5.16587E-02-5.86825E-01 8.52984E-13-3.19356E-13
 -1      2600 3.16369E+01 2.35790E+00-7.86715E-02-4.00735E-01 7.77406E-13-2.65898E-13
 -1      2601 1.29140E+01-5.09409E+00-1.41933E-03 6.99200E+00-2.87548E-14-4.21052E-13
 -1      2602 9.23990E+00-4.77353E+00 3.84582E-02 6.11077E+00 5.30131E-15-5.60385E-13
 -1      2603 2.85627E+01-2.79226E+00 1.33229E-03-2.00564E+00-9.25093E-14 1.03972E-13
 -1      2604 3.04030E+01-1.12370E+00-1.51440E-01-8.03408E-01-2.58224E-13-3.66929E-14
 -1      2605 1.45827E+01-5.28372E+00 6.25658E-02-6.64777E+00 2.92155E-13 9.15296E-13
 -1      2606 1.80836E+01-5.36455E+00 5.28620E-02-6.68001E+00 2.61624E-13 8.55531E-13
 -1      2607 3.02483E+00-3.01459E+00 6.85249E-02-8.22086E-01-2.22947E-14 7.71383E-13
 -1      2608 4.03488E+00-3.02314E+00 7.39499E-02-2.87234E+00 2.66454E-14 8.43992E-13
 -1      2609 2.12343E+01 9.03927E-01-3.21862E-03 7.53087E-01 4.03828E-13 3.74566E-13
 -1      2610 2.14836E+01 1.26678E+00-4.66866E-03 1.27074E+00 4.35669E-13 4.39419E-13
 -1      2611 2.12408E+01 1.73166E+00-1.58213E-02 1.42218E+00 4.76627E-13 2.99084E-13
 -1      2612 2.11140E+01 1.11630E+00-1.01821E-02 6.73187E-01 4.16521E-13 1.98183E-13
 -1      2613 3.15972E+01 6.93556E-01-8.02174E-02-2.52913E-02-8.38260E-13 3.42559E-13
 -1      2614 2.97110E+01-1.41669E+00-5.67929E-02 7.18326E-01-6.03392E-13 2.76890E-13
 -1      2615 3.09328E+01 4.80487E+00-5.41565E-02-1.53166E+00 7.96585E-13-1.98563E-13
 -1      2616 1.96414E+01 3.18331E+00 3.72926E-03-5.29691E-01-1.55483E-13-5.26437E-13
 -1      2617 1.96188E+01 3.43505E+00-1.74237E-02-7.35359E-01-1.71721E-13-5.50953E-13
 -1      2618 1.98745E+01 3.27743E+00-1.31698E-02-9.00437E-01-2.30070E-13-5.19257E-13
 -1      2619 4.60593E+00-1.86129E+00 1.45361E-01 1.20220E-01-2.32793E-13 6.57419E-13
 -1      2620 2.09181E+01 2.16210E+00-1.29125E-02 1.33899E+00 4.79800E-13 1.14077E-13
 -1      2621 3.05586E+01 1.62402E+00-7.44843E-02-1.45256E+00-8.23008E-13 5.57554E-13
 -1      2622 1.62730E+01-5.02993E+00 1.20588E-01 6.60172E+00 2.03143E-13-2.89338E-13
 -1      2623 2.03741E+01 2.75880E+00-1.33512E-02-1.08385E+00-2.94385E-13-4.02064E-13
 -1      2624 3.00472E+01-3.17142E-01-3.38546E-02 8.13617E-01-1.97779E-13-1.53488E-13
 -1      2625 1.38145E+01-4.83244E+00 8.99713E-02 6.74362E+00-6.68354E-14 1.67977E-13
 -1      2626 1.23824E+01-3.86775E+00 1.62306E-01 6.44292E+00-2.56933E-13 2.84495E-13
 -1      2627 1.68366E+01-4.86888E+00 3.32786E-02 6.35773E+00-1.58318E-13 1.27717E-13
 -1      2628 2.73317E+01-3.85865E+00 4.64849E-02 2.25181E+00 2.76237E-13-4.27824E-13
 -1      2629 3.05818E+01 6.75200E+00-9.73373E-02 4.46809E-01-9.57123E-13-9.54792E-15
 -1      2630 1.99983E+01-1.98996E-03-1.35203E-05-4.40220E-03-1.39547E-13 3.19550E-14
 -1      2631 1.99987E+01-2.51204E-03 7.58429E-06-4.71995E-03-9.68312E-14 6.86150E-14
 -1      2632 2.31972E+01-5.41135E+00 1.00366E-01 4.84990E+00 4.23273E-14-1.16712E-13
 -1      2633 2.19543E+01-5.42226E+00 4.68193E-02 5.26733E+00 3.50275E-14-1.78288E-13
 -1      2634 1.99981E+01-1.69397E-03-2.01310E-05 4.61737E-03-5.80744E-14 4.53129E-13
 -1      2635 1.99990E+01-2.68035E-03 1.15267E-06 4.96651E-03-2.21845E-13 4.51658E-14
 -1      2636 1.99991E+01-2.31109E-03 3.68075E-06 5.49656E-03-2.62874E-13 1.35105E-13
 -1      2637 1.99975E+01-1.37548E-03-7.85327E-06 5.12722E-03-2.81183E-13 5.03522E-13
 -1      2638 9.48598E+00-3.55768E+00 1.33064E-01 5.73326E+00 2.01811E-13-5.93692E-13
 -1      2639 3.05347E+01 3.20272E-01-5.29543E-02-4.99431E-01 5.35544E-13-3.26045E-13
 -1      2640 2.89766E+01-1.37855E+00-1.76785E-02-4.16684E-01 4.11882E-13-3.76976E-13
 -1      2641 2.96301E+01 1.17167E+00-1.85289E-01-1.63132E+00 5.99285E-13-4.52388E-13
 -1      2642 2.09619E+01 4.51625E-01-5.80942E-03-4.43562E-01 2.40943E-13 8.08763E-14
 -1      2643 6.13056E+00-3.15037E+00 1.12935E-01 4.32674E+00-2.50827E-13 5.52003E-13
 -1      2644 6.24654E+00-1.94490E+00 1.09710E-01 3.41781E+00-3.04187E-13 4.93633E-13
 -1      2645 8.60056E+00-2.92966E+00 8.21296E-02 5.29191E+00-3.30042E-13 4.49113E-13
 -1      2646 4.72868E+00-2.34946E+00 1.36953E-01 1.94882E+00 1.01891E-13-8.98948E-13
 -1      2647 5.69301E+00-1.14740E+00 1.50005E-01 7.63917E-01 1.33702E-13-9.04360E-13
 -1      2648 6.50423E+00-1.80319E+00 7.81811E-02 3.22446E+00 2.18756E-13-8.33777E-13
 -1      2649 1.01716E+01-4.05324E+00 1.28716E-01-6.21122E+00-2.42417E-13-8.23841E-13
 -1      2650 6.00720E+00-2.94699E+00 1.16057E-01-3.96940E+00 6.03545E-14 8.35443E-13
 -1      2651 8.29387E+00-2.73435E+00 8.54541E-02-4.92373E+00 1.31450E-13 9.34308E-13
 -1      2652 6.59589E+00-1.58115E+00 1.58380E-01-3.05407E+00-6.68077E-14 7.78627E-13
 -1      2653 2.08797E+01 1.90231E+00 1.16880E-02 9.75635E-01 4.48900E-13 6.63705E-14
 -1      2654 1.31073E+01-4.69546E+00 1.00408E-01-6.61140E+00 2.61624E-13 1.02457E-12
 -1      2655 1.60488E+01-4.73237E+00 1.49753E-02-6.33186E+00 3.53245E-13 7.56215E-13
 -1      2656 1.17628E+01-3.67101E+00 1.73578E-01-6.23997E+00 2.72837E-13 1.00286E-12
 -1      2657 2.73146E+01-3.92281E+00 6.65833E-02-2.57148E+00 1.04430E-13 8.58202E-14
 -1      2658 2.11100E+01-5.59321E+00 5.48132E-03-5.49157E+00 3.59351E-13 6.00270E-13
 -1      2659 3.05375E+01 4.15120E+00-9.61350E-02 1.77344E+00-6.18061E-13-2.30177E-13
 -1      2660 2.45614E+01-5.07719E+00 6.26275E-02-4.24258E+00-2.63928E-13-3.61239E-13
 -1      2661 2.89918E+01-2.27771E+00 4.07329E-03-8.14951E-01-5.66630E-14 6.58640E-14
 -1      2662 3.07282E+01 2.29161E+00-6.21040E-02 1.31483E+00 3.32873E-13 1.01946E-13
 -1      2663 5.16597E+00-2.56374E+00 1.10558E-01-2.78901E+00-7.31221E-14-9.83269E-13
 -1      2664 1.77960E+01-5.28796E+00 9.57026E-02-6.52918E+00-3.26877E-13-6.57373E-13
 -1      2665 2.87221E+01-3.01933E+00-7.45924E-03 1.34162E+00-4.42375E-13 2.58960E-13
 -1      2666 2.70924E+01-4.18060E+00 1.23981E-02 1.95769E+00-2.25424E-13 2.85882E-13
 -1      2667 2.87430E+01-2.12122E+00-9.19606E-02-3.07344E-01-4.75148E-13 4.95479E-13
 -1      2668 3.08286E+01 5.62827E+00-8.14015E-02-1.26354E+00-1.02435E-12 3.43392E-13
 -1      2669 3.13582E+01 6.15492E+00-3.07271E-02 1.04875E+00 7.46181E-13-8.63198E-15
 -1      2670 1.99983E+01-1.51336E-03-1.34160E-05 5.71130E-03-2.91817E-13 2.49601E-13
 -1      2671 3.09787E+01 7.05395E+00-5.58186E-02-4.33402E-01 8.58980E-13-8.68750E-14
 -1      2672 1.99988E+01-2.21993E-03-8.37163E-06-5.35725E-03-4.80565E-14 2.29656E-13
 -1      2673 1.90561E+01 3.34574E+00-3.92280E-03 1.27440E-01 2.45938E-13-4.11136E-13
 -1      2674 1.89322E+01 3.42580E+00-7.20310E-03 6.25026E-02 2.09123E-13-4.36122E-13
 -1      2675 1.88448E+01 3.50091E+00-4.37044E-03 4.08181E-02 1.78015E-13-4.55114E-13
 -1      2676 1.87960E+01 3.53159E+00-5.93789E-03-1.32175E-02 1.46171E-13-4.59827E-13
 -1      2677 1.89436E+01 3.20917E+00 5.89632E-03-6.72345E-03 1.78040E-13-4.21650E-13
 -1      2678 1.98588E+01 2.67669E+00-7.17256E-03 4.01099E-01 3.74860E-13-2.51495E-13
 -1      2679 1.96197E+01 2.87564E+00-8.80526E-03 3.04363E-01 3.56635E-13-3.08213E-13
 -1      2680 2.03887E+01 2.13551E+00-8.50877E-03 5.52110E-01 4.13380E-13-1.24485E-13
 -1      2681 2.01171E+01 2.42225E+00-7.34152E-03 4.64622E-01 3.84505E-13-1.81816E-13
 -1      2682 2.00714E+01 2.23931E+00 6.01491E-03 2.13190E-01 3.54027E-13-1.93931E-13
 -1      2683 2.07413E+01 1.29413E+00 4.64066E-03-7.39349E-02-2.40015E-13-2.54580E-13
 -1      2684 2.07175E+01 1.07555E+00-1.79418E-03 2.34930E-01-1.90953E-13-2.46096E-13
 -1      2685 1.84588E+01-4.95316E+00-2.73087E-02 6.09622E+00 2.67730E-13-2.32384E-13
 -1      2686 1.54045E+01-4.01562E+00 1.67297E-01 6.22194E+00 3.23408E-13-2.68813E-13
 -1      2687 2.08698E+01 8.83940E-01-2.96408E-04-8.48709E-02 3.05875E-13 3.18100E-14
 -1      2688 2.09269E+01 1.09089E+00 9.56535E-03 2.26876E-01 3.40557E-13 4.74272E-14
 -1      2689 2.17541E+01-4.25073E-01-6.39685E-03-1.11584E+00-1.25167E-14 9.55719E-15
 -1      2690 2.15736E+01-2.46635E-01 9.28819E-03-1.18978E+00 2.56915E-14-3.29251E-15
 -1      2691 2.07244E+01 9.04812E-01 7.48730E-03 4.93876E-01-1.81095E-13-2.19152E-13
 -1      2692 2.07272E+01 7.61684E-01-2.75145E-05 7.27116E-01-1.56621E-13-2.10608E-13
 -1      2693 2.05252E+01 1.22242E+00-1.51190E-03 3.60138E-01-1.84468E-13-2.64513E-13
 -1      2694 2.07359E+01 6.42228E-01 6.37743E-03 9.36393E-01-1.32326E-13-1.91975E-13
 -1      2695 2.07853E+01 5.25601E-01 1.20780E-03 1.10715E+00-1.10507E-13-2.10195E-13
 -1      2696 2.05161E+01 8.76940E-01-3.21784E-03 8.45415E-01-1.46986E-13-2.25800E-13
 -1      2697 2.08215E+01 4.11971E-01 6.00416E-03 1.27119E+00-6.94806E-14-1.97013E-13
 -1      2698 2.09223E+01 2.83471E-01 1.42642E-03 1.38466E+00-4.75092E-14-1.68997E-13
 -1      2699 2.05408E+01 5.92007E-01-4.93499E-03 1.23633E+00-8.98772E-14-2.09018E-13
 -1      2700 2.10116E+01 1.41818E-01 7.35091E-03 1.50175E+00-6.09397E-14-1.51888E-13
 -1      2701 2.11690E+01-3.15680E-02 4.43243E-04 1.55001E+00-6.12816E-14-1.91322E-13
 -1      2702 2.06428E+01 2.81571E-01-7.53527E-03 1.53699E+00-5.44360E-14-1.77357E-13
 -1      2703 2.13454E+01-2.29242E-01 1.08928E-02 1.60664E+00-5.39022E-14-1.80802E-13
 -1      2704 2.15675E+01-4.73111E-01-2.24339E-03 1.56845E+00-4.03440E-14-1.78272E-13
 -1      2705 2.08729E+01-1.30310E-01-1.19462E-02 1.73681E+00-6.71394E-14-1.86829E-13
 -1      2706 2.18759E+01-7.41438E-01 1.66284E-02 1.53292E+00 8.48475E-15-1.21851E-13
 -1      2707 2.21672E+01-1.05804E+00-7.53538E-03 1.37534E+00 1.76697E-14-9.76501E-14
 -1      2708 2.13032E+01-7.03412E-01-1.85692E-02 1.79749E+00 5.97840E-15-1.03937E-13
 -1      2709 2.26514E+01-1.37417E+00 2.29287E-02 1.19205E+00 4.18370E-14-2.33195E-14
 -1      2710 2.29951E+01-1.70528E+00-1.54501E-02 8.80110E-01 1.18920E-14 6.49535E-14
 -1      2711 2.20223E+01-1.44411E+00-2.61580E-02 1.63769E+00 8.74229E-14 4.03633E-14
 -1      2712 2.36572E+01-1.96471E+00 2.44257E-02 4.78094E-01-3.50901E-14 1.55901E-13
 -1      2713 2.39938E+01-2.13867E+00-2.22272E-02 8.45208E-03-2.55009E-14 2.18357E-13
 -1      2714 2.30950E+01-2.21866E+00-3.00890E-02 1.12597E+00 6.18587E-14 2.18428E-13
 -1      2715 2.47027E+01-2.10212E+00 8.17936E-03-6.29774E-01-5.01283E-14 3.04332E-13
 -1      2716 2.49178E+01-1.83881E+00-2.40064E-02-1.14372E+00-1.50926E-13 3.08665E-13
 -1      2717 2.44423E+01-2.61185E+00-2.74131E-02 1.14306E-01-1.97065E-14 3.50939E-13
 -1      2718 2.54475E+01-1.24365E+00-2.72746E-02-1.85493E+00-2.83088E-13 3.60642E-13
 -1      2719 2.54266E+01-2.90808E-01-1.26032E-02-2.15671E+00-3.60934E-13 3.29911E-13
 -1      2720 2.57459E+01-1.98357E+00-3.71931E-02-1.23945E+00-2.22752E-13 5.17826E-13
 -1      2721 2.54359E+01 9.21480E-01-9.54689E-02-2.35889E+00-4.75342E-13 1.97295E-13
 -1      2722 2.52722E+01 2.17830E+00-3.01989E-02-2.05195E+00-5.63369E-13 7.94607E-14
 -1      2723 2.64036E+01 2.45252E-01-3.15775E-02-2.27609E+00-5.25954E-13 3.99888E-13
 -1      2724 2.50540E+01 3.26275E+00-1.02177E-01-1.34497E+00-6.27373E-13-3.42096E-14
 -1      2725 2.49455E+01 3.84794E+00-6.90398E-02-4.41017E-01-6.23793E-13-1.52659E-13
 -1      2726 2.63218E+01 3.21274E+00-9.51920E-02-1.84913E+00-6.90462E-13 1.22694E-13
 -1      2727 2.49818E+01 3.77522E+00-6.53993E-02 7.65927E-01-5.35988E-13-3.04113E-13
 -1      2728 2.50745E+01 3.10985E+00-1.15952E-01 1.61029E+00-4.14363E-13-4.23373E-13
 -1      2729 2.61447E+01 4.59221E+00-1.26103E-01 1.84222E-01-6.98719E-13-1.42320E-13
 -1      2730 2.53348E+01 1.99497E+00-2.19127E-02 2.28947E+00-2.87791E-13-5.50480E-13
 -1      2731 2.54860E+01 7.05467E-01-9.70296E-02 2.51382E+00-1.74943E-13-6.24771E-13
 -1      2732 2.63827E+01 3.10396E+00-6.58583E-02 2.14690E+00-4.37983E-13-3.99979E-13
 -1      2733 2.54465E+01-4.42491E-01-1.32224E-02 2.25555E+00 1.50019E-14-5.75146E-13
 -1      2734 2.54190E+01-1.34484E+00-3.92423E-02 1.91604E+00 1.13946E-13-5.03613E-13
 -1      2735 2.64193E+01 7.95607E-02-2.37652E-02 2.41193E+00-6.66481E-14-5.64840E-13
 -1      2736 2.49140E+01-1.88254E+00-2.19557E-02 1.22903E+00 1.90232E-13-3.63231E-13
 -1      2737 2.46799E+01-2.11834E+00 5.09515E-03 6.93848E-01 2.79161E-13-2.67815E-13
 -1      2738 2.56745E+01-2.02282E+00-7.72377E-03 1.28780E+00 2.33679E-13-3.31514E-13
 -1      2739 2.39669E+01-2.09716E+00-2.07051E-02 7.87353E-02 2.63147E-13-1.82809E-13
 -1      2740 2.36273E+01-1.90529E+00 2.30210E-02-3.78973E-01 2.84153E-13-1.73129E-13
 -1      2741 2.43563E+01-2.57010E+00-1.53408E-02-6.52630E-02 3.03995E-13-1.16785E-13
 -1      2742 2.29832E+01-1.63490E+00-1.31495E-02-7.54502E-01 2.86297E-13-2.37607E-13
 -1      2743 2.26452E+01-1.30940E+00 2.21118E-02-1.05459E+00 3.37029E-13-1.62667E-13
 -1      2744 2.30106E+01-2.11961E+00-1.96764E-02-1.00665E+00 2.57186E-13-1.03746E-13
 -1      2745 2.21716E+01-1.00110E+00-6.73573E-03-1.22553E+00 3.49173E-13-1.87530E-13
 -1      2746 2.18860E+01-7.02116E-01 1.50146E-02-1.37832E+00 2.72636E-13-2.94042E-13
 -1      2747 2.19569E+01-1.36529E+00-2.04268E-02-1.48632E+00 3.04140E-13-1.98193E-13
 -1      2748 2.15801E+01-4.54074E-01-2.03647E-03-1.41560E+00 2.44352E-13-3.45286E-13
 -1      2749 2.13568E+01-2.37857E-01 8.88473E-03-1.46162E+00 1.58714E-13-2.66040E-13
 -1      2750 2.12459E+01-6.68591E-01-1.45724E-02-1.64050E+00 2.31738E-13-3.15907E-13
 -1      2751 2.11728E+01-7.16104E-02 6.32724E-04-1.42448E+00 3.65194E-14-3.07056E-13
 -1      2752 2.10012E+01 6.20653E-02 4.45902E-03-1.40284E+00-9.39882E-14-2.87271E-13
 -1      2753 2.08065E+01-1.65857E-01-8.87595E-03-1.60688E+00 5.15239E-14-2.47321E-13
 -1      2754 2.08943E+01 1.58154E-01 1.97398E-03-1.32827E+00-1.26311E-13-1.69242E-13
 -1      2755 2.07604E+01 2.28388E-01 1.71105E-03-1.26859E+00-2.57237E-14-1.20476E-13
 -1      2756 2.05465E+01 1.46182E-01-4.90691E-03-1.47603E+00-4.26666E-14-1.94605E-13
 -1      2757 2.06984E+01 2.74074E-01 2.61861E-03-1.17853E+00 6.44249E-14-1.86734E-13
 -1      2758 2.05912E+01 3.01645E-01 1.64436E-04-1.10129E+00 3.49884E-14-1.82792E-13
 -1      2759 2.03936E+01 3.11675E-01-2.53080E-03-1.30079E+00 3.66872E-14-8.29675E-14
 -1      2760 2.05537E+01 3.15034E-01 2.86369E-03-1.00861E+00 1.84575E-14-1.64556E-13
 -1      2761 2.04660E+01 3.16694E-01-6.04504E-04-9.27007E-01-6.03618E-14-1.58773E-13
 -1      2762 2.03004E+01 3.78195E-01-1.26314E-03-1.11188E+00 8.05047E-14-3.16198E-13
 -1      2763 2.04414E+01 3.11370E-01 2.86148E-03-8.39069E-01-1.47177E-13-1.00100E-13
 -1      2764 2.03688E+01 2.98906E-01-9.10797E-04-7.60957E-01-1.45938E-13-9.04005E-14
 -1      2765 2.02391E+01 3.84077E-01-6.59352E-04-9.27195E-01-5.78605E-14-8.97300E-14
 -1      2766 2.03511E+01 2.84017E-01 2.70196E-03-6.81662E-01-1.77435E-13 3.17394E-14
 -1      2767 2.02910E+01 2.65039E-01-9.63318E-04-6.11246E-01-1.87181E-13-2.69682E-14
 -1      2768 2.01945E+01 3.56467E-01-4.09856E-04-7.56825E-01-1.15572E-13 4.99002E-14
 -1      2769 2.02769E+01 2.46292E-01 2.44815E-03-5.42302E-01-1.38803E-13-5.86601E-14
 -1      2770 2.02276E+01 2.25386E-01-8.90113E-04-4.81392E-01-4.52265E-14-4.85790E-14
 -1      2771 2.01592E+01 3.13057E-01-3.26599E-04-6.05861E-01-1.61293E-13-1.72240E-14
 -1      2772 2.02159E+01 2.06108E-01 2.14657E-03-4.23132E-01-1.48950E-14-5.07123E-14
 -1      2773 2.01758E+01 1.85851E-01-7.64529E-04-3.72060E-01 2.78895E-14-3.34362E-14
 -1      2774 2.01297E+01 2.64632E-01-3.06883E-04-4.76171E-01-6.56872E-14-1.45147E-13
 -1      2775 2.01659E+01 1.67835E-01 1.83098E-03-3.23981E-01-4.36656E-14-8.54527E-14
 -1      2776 2.01338E+01 1.49535E-01-6.26583E-04-2.82216E-01-3.62779E-15-2.11614E-15
 -1      2777 2.01045E+01 2.17336E-01-3.02414E-04-3.67558E-01 4.26367E-14-2.34882E-13
 -1      2778 2.01254E+01 1.33626E-01 1.52507E-03-2.43349E-01-5.69883E-14-8.32093E-14
 -1      2779 2.01001E+01 1.17821E-01-4.96627E-04-2.09917E-01-7.86061E-14-8.40369E-14
 -1      2780 2.00830E+01 1.74357E-01-2.94521E-04-2.78566E-01-8.51562E-14-2.80248E-13
 -1      2781 2.00930E+01 1.04298E-01 1.24375E-03-1.79081E-01-8.42634E-14-1.44649E-13
 -1      2782 2.00734E+01 9.10790E-02-3.83446E-04-1.52828E-01-1.35366E-13-1.88862E-13
 -1      2783 2.00649E+01 1.37059E-01-2.77882E-04-2.07065E-01-1.10120E-13-3.08238E-13
 -1      2784 2.00676E+01 7.99061E-02 9.94796E-04-1.28797E-01-8.86549E-14-7.13569E-14
 -1      2785 2.00527E+01 6.91238E-02-2.89247E-04-1.08554E-01 4.33457E-14-1.05968E-14
 -1      2786 2.00498E+01 1.05735E-01-2.52993E-04-1.50653E-01-8.93973E-14-1.76104E-13
 -1      2787 2.00480E+01 6.01034E-02 7.81019E-04-9.01513E-02 3.71066E-14-7.35651E-14
 -1      2788 2.00368E+01 5.14945E-02-2.13222E-04-7.48220E-02-4.89159E-14-1.91982E-13
 -1      2789 2.00376E+01 8.00929E-02-2.22870E-04-1.06924E-01-7.21048E-15-1.54263E-13
 -1      2790 2.00331E+01 4.43577E-02 6.02042E-04-6.09784E-02-3.94207E-14-1.62191E-13
 -1      2791 2.00249E+01 3.76153E-02-1.53376E-04-4.95825E-02-1.11449E-13-2.04940E-13
 -1      2792 2.00278E+01 5.95501E-02-1.90780E-04-7.36155E-02-8.71221E-14-1.62928E-13
 -1      2793 2.00220E+01 3.20729E-02 4.55496E-04-3.93621E-02-1.59673E-15-2.31913E-13
 -1      2794 2.00162E+01 2.68872E-02-1.07335E-04-3.10566E-02 6.40118E-14-1.79473E-13
 -1      2795 2.00201E+01 4.34086E-02-1.59214E-04-4.86980E-02-1.49212E-14-1.46737E-14
 -1      2796 2.00140E+01 2.26586E-02 3.37906E-04-2.36643E-02 8.96423E-14-2.09410E-13
 -1      2797 2.00100E+01 1.87391E-02-7.27641E-05-1.77447E-02 1.93196E-13-2.04844E-13
 -1      2798 2.00142E+01 3.09533E-02-1.29806E-04-3.04125E-02 1.78326E-14 5.38011E-14
 -1      2799 2.00084E+01 1.55669E-02 2.45357E-04-1.25229E-02 3.38168E-13-2.90050E-13
 -1      2800 2.00057E+01 1.26523E-02-4.75775E-05-8.41527E-03 3.44954E-13-1.56672E-13
 -1      2801 2.00097E+01 2.15068E-02-1.03491E-04-1.72782E-02 2.38282E-13-4.28358E-13
 -1      2802 2.00045E+01 1.03081E-02 1.73955E-04-4.83332E-03 3.32481E-13-1.48126E-13
 -1      2803 2.00028E+01 8.16936E-03-3.00687E-05-2.08230E-03 2.81618E-13-1.92424E-13
 -1      2804 2.00064E+01 1.44561E-02-8.07004E-05-8.08045E-03 3.30257E-13-5.18871E-13
 -1      2805 2.00019E+01 6.45384E-03 1.20031E-04 2.76879E-04 7.11945E-14-6.83192E-14
 -1      2806 2.00010E+01 4.89256E-03-1.88338E-05 2.02218E-03 1.76545E-13-1.60103E-13
 -1      2807 2.00040E+01 9.26092E-03-6.15767E-05-1.84785E-03 2.20957E-13-5.34188E-13
 -1      2808 2.00004E+01 3.63326E-03 8.05580E-05 3.47592E-03 1.54725E-13-1.87311E-13
 -1      2809 1.99999E+01 2.47961E-03-1.21244E-05 4.47569E-03 5.84314E-14-1.04939E-13
 -1      2810 2.00024E+01 5.45186E-03-4.58904E-05 2.17497E-03 3.95890E-14-3.04536E-13
 -1      2811 1.99995E+01 1.52941E-03 5.26146E-05 5.25878E-03 1.18426E-14 2.10039E-15
 -1      2812 1.99994E+01 6.34653E-04-8.80014E-06 5.69901E-03-7.60575E-14-7.52349E-14
 -1      2813 2.00012E+01 2.62932E-03-3.28155E-05 4.55408E-03 7.33928E-15-2.12003E-13
 -1      2814 1.99991E+01-1.49283E-04 3.14277E-05 5.96871E-03-9.94409E-14-9.68601E-14
 -1      2815 1.99992E+01-8.81106E-04-2.99871E-06 5.96156E-03-1.41515E-13-8.94287E-14
 -1      2816 2.00004E+01 4.20830E-04-2.88985E-05 5.71016E-03-8.68198E-14-2.36780E-13
 -1      2817 2.13893E+01-9.83087E-02-2.58320E-03-1.18933E+00 4.48196E-14 1.37240E-14
 -1      2818 2.12410E+01 3.99983E-02 7.60058E-03-1.17811E+00 6.99983E-14 1.57570E-14
 -1      2819 2.12326E+01-2.05664E-01-9.57546E-03-1.34145E+00 4.34027E-14-6.24100E-14
 -1      2820 1.17705E+01-3.18239E+00 3.39235E-02 5.97630E+00 3.16802E-13-3.63626E-13
 -1      2821 9.22040E+00-2.21085E+00 2.10825E-01 4.78975E+00 3.27099E-13-6.48565E-13
 -1      2822 2.11263E+01 1.55375E-01-2.19506E-04-1.10455E+00 8.21903E-14 5.56179E-15
 -1      2823 2.10197E+01 2.66502E-01 7.38988E-03-1.02405E+00 1.22707E-13 5.50986E-15
 -1      2824 2.09621E+01 1.34333E-01-7.37580E-03-1.24633E+00 9.26785E-14-3.36240E-14
 -1      2825 2.22232E+01-8.19403E-01-1.14637E-02-8.39106E-01-5.74120E-14 4.49865E-14
 -1      2826 2.20245E+01-6.09507E-01 1.16817E-02-1.01812E+00-3.70294E-14 2.20942E-14
 -1      2827 2.16486E+01-6.37802E-01-1.23451E-02-1.26860E+00-2.21821E-14-2.93855E-14
 -1      2828 2.27736E+01-1.20574E+00-1.62090E-02-3.17509E-01 5.72858E-14-7.70022E-15
 -1      2829 2.25832E+01-1.01424E+00 1.30517E-02-6.11622E-01-1.41189E-14 3.37571E-14
 -1      2830 2.22340E+01-1.13910E+00-1.41190E-02-9.70318E-01-1.61568E-14-4.88153E-14
 -1      2831 2.33280E+01-1.39889E+00-1.65420E-02 4.44090E-01 2.92518E-15 8.70861E-14
 -1      2832 2.31897E+01-1.33713E+00 1.03358E-02 6.01933E-02 3.01165E-14 6.54865E-14
 -1      2833 2.29741E+01-1.58824E+00-1.13877E-02-3.87164E-01 2.46033E-15 2.60338E-14
 -1      2834 2.37276E+01-1.11187E+00-8.79430E-03 1.30558E+00-1.49544E-15 2.11649E-13
 -1      2835 2.36922E+01-1.33396E+00-2.76840E-03 9.33525E-01-9.89681E-15 1.84974E-13
 -1      2836 2.37582E+01-1.71060E+00 3.94547E-05 4.88420E-01-5.42730E-14 1.45581E-13
 -1      2837 2.37993E+01-1.31359E-01 1.16734E-02 1.90562E+00 1.05249E-13 2.25319E-13
 -1      2838 2.38794E+01-7.13095E-01-2.52202E-02 1.73994E+00 4.31039E-14 2.30847E-13
 -1      2839 2.43372E+01-1.16482E+00 5.19636E-03 1.48065E+00 1.28248E-14 2.64212E-13
 -1      2840 2.34967E+01 1.29905E+00 1.15552E-02 1.75902E+00 1.36571E-13 1.72723E-13
 -1      2841 2.36408E+01 5.35181E-01-5.54855E-02 1.97407E+00 1.38040E-13 2.09733E-13
 -1      2842 2.44415E+01 2.64511E-01 2.99130E-03 2.11510E+00 1.26427E-13 3.49840E-13
 -1      2843 2.31213E+01 2.35727E+00-1.68817E-02 6.49626E-01 2.43805E-13 7.91606E-14
 -1      2844 2.32266E+01 1.91923E+00-5.42230E-02 1.23566E+00 1.84805E-13 1.11343E-13
 -1      2845 2.41362E+01 1.97400E+00 8.15041E-03 1.68334E+00 2.36563E-13 2.54465E-13
 -1      2846 2.31127E+01 2.22818E+00-5.74690E-02-9.05135E-01 2.35104E-13-5.45597E-14
 -1      2847 2.31007E+01 2.47660E+00-1.55878E-02-2.61142E-01 2.65316E-13-1.00605E-14
 -1      2848 2.38845E+01 3.07147E+00 1.02177E-02 1.80530E-01 2.95288E-13 8.67225E-14
 -1      2849 2.35534E+01 1.04984E+00-5.17192E-02-1.99973E+00 1.89577E-13-1.01934E-13
 -1      2850 2.33999E+01 1.77038E+00 1.81103E-02-1.63734E+00 2.02394E-13-1.62658E-13
 -1      2851 2.39954E+01 2.59660E+00-2.33496E-04-1.48471E+00 2.76730E-13-1.11029E-13
 -1      2852 2.39041E+01-3.56117E-01-3.83503E-02-2.04522E+00 1.11403E-13-1.43992E-13
 -1      2853 2.37855E+01 3.32950E-01 1.53479E-02-2.10102E+00 1.84691E-13-1.15186E-13
 -1      2854 2.44616E+01 8.73954E-01 2.10199E-02-2.26713E+00 1.78408E-13-1.94482E-13
 -1      2855 2.38745E+01-1.17169E+00-1.00611E-02-1.38939E+00 1.97481E-14-2.33097E-13
 -1      2856 2.38645E+01-8.33810E-01 5.64694E-04-1.70064E+00 5.57136E-14-2.09098E-13
 -1      2857 2.44583E+01-7.16377E-01 6.90136E-03-1.97112E+00 1.49315E-13-2.72480E-13
 -1      2858 2.34833E+01-1.36289E+00 6.33371E-03-5.07862E-01-7.25369E-14-2.38276E-13
 -1      2859 2.35736E+01-1.34710E+00-1.76182E-02-8.97235E-01-9.92457E-14-2.54826E-13
 -1      2860 2.40189E+01-1.60325E+00-1.00551E-02-1.01410E+00 1.77106E-14-2.92965E-13
 -1      2861 2.29071E+01-1.12343E+00 1.24667E-02 2.40584E-01-5.74440E-14-1.48287E-13
 -1      2862 2.30704E+01-1.28395E+00-1.84019E-02-8.61031E-02 6.16261E-16-1.97516E-13
 -1      2863 2.32962E+01-1.65944E+00-9.84285E-03-5.67621E-02-7.43456E-14-2.48108E-13
 -1      2864 2.23316E+01-7.40159E-01 1.17373E-02 7.36340E-01 2.28748E-14-7.86906E-14
 -1      2865 2.25212E+01-9.44260E-01-1.36437E-02 5.17347E-01-4.14239E-14-1.49268E-13
 -1      2866 2.25251E+01-1.28934E+00-1.31335E-02 6.28211E-01-1.78968E-14-1.74119E-13
 -1      2867 2.18396E+01-3.81158E-01 8.59668E-03 9.97168E-01-7.75148E-14 1.28268E-14
 -1      2868 2.20258E+01-5.57960E-01-8.29085E-03 8.80573E-01 4.99980E-14-7.98233E-15
 -1      2869 2.18781E+01-8.06621E-01-1.19213E-02 1.02529E+00-2.25557E-14-8.93710E-14
 -1      2870 2.14469E+01-1.11731E-01 5.38129E-03 1.08293E+00-7.80364E-14-1.79178E-13
 -1      2871 2.16169E+01-2.38015E-01-3.92492E-03 1.04470E+00-8.41303E-14-3.57588E-14
 -1      2872 2.13902E+01-3.83383E-01-8.89401E-03 1.19565E+00-9.50555E-15 4.04588E-14
 -1      2873 2.11403E+01 6.18793E-02 2.94938E-03 1.05488E+00-2.39522E-14-2.88672E-13
 -1      2874 2.12907E+01-1.59658E-02-8.61515E-04 1.06873E+00-4.79656E-14-2.74029E-13
 -1      2875 2.10403E+01-7.76029E-02-5.90618E-03 1.21309E+00-2.96599E-14-8.94400E-14
 -1      2876 2.08999E+01 1.57891E-01 1.35745E-03 9.61483E-01 1.00041E-14-2.49340E-13
 -1      2877 2.10308E+01 1.17361E-01 1.07881E-03 1.00561E+00-2.52582E-14-2.39483E-13
 -1      2878 2.07917E+01 1.13434E-01-3.70386E-03 1.13842E+00-2.32775E-14-2.61428E-13
 -1      2879 2.07091E+01 1.99320E-01 4.09114E-04 8.36941E-01 3.88214E-14-1.10188E-13
 -1      2880 2.08216E+01 1.84165E-01 2.17793E-03 8.95445E-01 1.05055E-13-1.67721E-13
 -1      2881 2.06120E+01 2.15101E-01-2.32131E-03 1.01486E+00 4.66393E-15-1.51725E-13
 -1      2882 2.05558E+01 2.06161E-01-9.29673E-05 7.03654E-01-8.03872E-14-2.76423E-14
 -1      2883 2.06512E+01 2.06606E-01 2.68856E-03 7.66000E-01-5.23030E-14-4.90969E-14
 -1      2884 2.04780E+01 2.55329E-01-1.53483E-03 8.71348E-01-6.74252E-14-8.49773E-14
 -1      2885 2.04319E+01 1.93238E-01-3.18241E-04 5.75189E-01-2.93715E-14-3.80830E-14
 -1      2886 2.05117E+01 2.02264E-01 2.81104E-03 6.34997E-01-3.94110E-14-1.28604E-14
 -1      2887 2.03748E+01 2.57280E-01-1.10924E-03 7.26224E-01-5.29592E-14-7.54240E-14
 -1      2888 2.03317E+01 1.70558E-01-3.86631E-04 4.58944E-01-1.20275E-14 7.18772E-14
 -1      2889 2.03973E+01 1.83536E-01 2.69149E-03 5.12781E-01-3.10679E-14-4.14486E-14
 -1      2890 2.02932E+01 2.37783E-01-8.80670E-04 5.90304E-01-8.71209E-14 5.75027E-15
 -1      2891 2.02512E+01 1.44405E-01-3.73965E-04 3.58228E-01 8.71513E-14 7.61699E-14
 -1      2892 2.03043E+01 1.58486E-01 2.43571E-03 4.04614E-01 9.73508E-14 5.82752E-14
 -1      2893 2.02278E+01 2.08071E-01-7.48184E-04 4.69257E-01 4.03530E-14 2.77849E-14
 -1      2894 2.01871E+01 1.18464E-01-3.24717E-04 2.73788E-01 8.06427E-14 1.57259E-14
 -1      2895 2.02294E+01 1.32017E-01 2.11654E-03 3.12455E-01 4.71064E-14 6.63912E-14
 -1      2896 2.01752E+01 1.75144E-01-6.55702E-04 3.65359E-01 7.61520E-14 1.57143E-14
 -1      2897 2.01368E+01 9.47114E-02-2.63776E-04 2.04853E-01 1.54288E-13 1.52708E-13
 -1      2898 2.01698E+01 1.06895E-01 1.78169E-03 2.36235E-01 1.25650E-13 8.79871E-14
 -1      2899 2.01329E+01 1.43073E-01-5.77460E-04 2.78745E-01 9.38267E-14-2.75517E-14
 -1      2900 2.00978E+01 7.40395E-02-2.04251E-04 1.49845E-01-5.70679E-14 3.76894E-13
 -1      2901 2.01231E+01 8.45091E-02 1.46087E-03 1.74739E-01 6.22260E-14 2.84472E-13
 -1      2902 2.00992E+01 1.14004E-01-5.04264E-04 2.08285E-01-4.84209E-14-4.00951E-15
 -1      2903 2.00681E+01 5.66884E-02-1.51929E-04 1.06848E-01-1.99989E-14 3.34820E-13
 -1      2904 2.00872E+01 6.53912E-02 1.17074E-03 1.26188E-01-1.96615E-14 4.17035E-13
 -1      2905 2.00728E+01 8.88683E-02-4.33531E-04 1.52185E-01-2.80982E-14 2.37922E-13
 -1      2906 2.00459E+01 4.25298E-02-1.08667E-04 7.38932E-02 2.21343E-13 1.38304E-13
 -1      2907 2.00600E+01 4.95743E-02 9.18769E-04 8.86216E-02 7.84393E-14 2.02517E-13
 -1      2908 2.00522E+01 6.78660E-02-3.65807E-04 1.08397E-01 9.67695E-14 1.25161E-13
 -1      2909 2.00297E+01 3.12481E-02-7.43933E-05 4.91237E-02 9.16913E-14 1.36012E-13
 -1      2910 2.00398E+01 3.68212E-02 7.06600E-04 6.01189E-02 2.76199E-13 2.21506E-13
 -1      2911 2.00366E+01 5.07874E-02-3.02795E-04 7.48690E-02 1.70464E-13 1.40398E-14
 -1      2912 2.00181E+01 2.24479E-02-4.82031E-05 3.08796E-02-2.33225E-14 3.98375E-13
 -1      2913 2.00251E+01 2.67662E-02 5.32474E-04 3.89180E-02-5.91064E-14 2.80375E-13
 -1      2914 2.00248E+01 3.72179E-02-2.45933E-04 4.96855E-02-2.52519E-14 2.40192E-13
 -1      2915 2.00100E+01 1.57179E-02-2.89292E-05 1.77341E-02-6.22715E-14 3.84359E-13
 -1      2916 2.00148E+01 1.89990E-02 3.92754E-04 2.34770E-02 2.74876E-14 4.86693E-13
 -1      2917 2.00162E+01 2.66592E-02-1.96009E-04 3.11463E-02-6.22262E-14 4.13908E-13
 -1      2918 2.00046E+01 1.06653E-02-1.54374E-05 8.49949E-03 6.04311E-14 2.80728E-13
 -1      2919 2.00077E+01 1.31131E-02 2.82951E-04 1.24924E-02-1.92370E-14 3.26782E-13
 -1      2920 2.00101E+01 1.86013E-02-1.53219E-04 1.77954E-02-2.93627E-14 5.19025E-13
 -1      2921 2.00012E+01 6.93284E-03-6.77386E-06 2.21476E-03 8.23957E-14 1.18416E-14
 -1      2922 2.00030E+01 8.73081E-03 1.98425E-04 4.89503E-03 1.40575E-13 2.02919E-13
 -1      2923 2.00058E+01 1.25610E-02-1.17313E-04 8.42402E-03 1.73349E-13 3.67228E-13
 -1      2924 1.99993E+01 4.20390E-03-2.20123E-06-1.87434E-03 5.53856E-14-1.72811E-13
 -1      2925 2.00002E+01 5.51339E-03 1.34783E-04-1.67098E-04 2.86739E-14-1.80856E-13
 -1      2926 2.00029E+01 8.10036E-03-8.77678E-05 2.05671E-03 2.15110E-13-1.12844E-13
 -1      2927 1.99983E+01 2.20095E-03-1.23166E-06-4.33944E-03 1.39910E-13-1.37302E-13
 -1      2928 1.99986E+01 3.16287E-03 8.80954E-05-3.35165E-03 1.10531E-13-1.82557E-13
 -1      2929 2.00010E+01 4.83209E-03-6.39276E-05-2.07033E-03 8.71671E-14-3.70783E-13
 -1      2930 1.99980E+01 6.82975E-04-2.58078E-06-5.59252E-03 1.82236E-13 2.90739E-13
 -1      2931 1.99980E+01 1.41787E-03 5.48379E-05-5.14572E-03 1.82390E-13 1.42542E-13
 -1      2932 1.99999E+01 2.41703E-03-4.50440E-05-4.53487E-03-2.01256E-15-1.69281E-13
 -1      2933 1.99981E+01-5.47070E-04-8.02809E-07-5.90136E-03 4.11251E-14 3.36850E-13
 -1      2934 1.99979E+01 3.72095E-05 2.71541E-05-5.89122E-03 2.02305E-13 4.52801E-13
 -1      2935 1.99994E+01 5.71730E-04-2.62192E-05-5.75677E-03 5.73529E-14 4.32623E-13
 -1      2936 1.99987E+01-1.61479E-03-1.08388E-05-5.56388E-03-1.03271E-13 4.20629E-13
 -1      2937 1.99983E+01-1.05894E-03 1.54951E-06-5.89027E-03 1.53561E-14 3.94759E-13
 -1      2938 1.99994E+01-8.72205E-04-8.51876E-06-6.03923E-03 8.75465E-14 6.60469E-13
 -1      2939 1.99997E+01-2.16677E-03 6.83791E-06-5.76447E-03 2.65337E-14 2.67604E-13
 -1      2940 2.00029E+01-2.92425E-03 2.74508E-06-3.80104E-04 2.13238E-13-2.74511E-13
 -1      2941 2.00029E+01-2.89014E-03 4.12406E-06-1.12133E-03 2.86220E-13-1.99240E-13
 -1      2942 2.00025E+01-2.90349E-03 2.21700E-06-3.28095E-03 3.83886E-13 1.90918E-13
 -1      2943 2.00022E+01-2.72913E-03 6.08480E-06-3.89808E-03 3.24089E-13-2.53805E-14
 -1      2944 2.00029E+01-2.89591E-03 4.39292E-06 1.12419E-03-3.20765E-15-4.43554E-14
 -1      2945 2.00029E+01-2.92752E-03 2.41011E-06 3.81972E-04 2.87009E-14-1.51560E-13
 -1      2946 2.00036E+01-1.02318E-03 1.36745E-05-1.29102E-06 1.04804E-13-3.31464E-13
 -1      2947 2.00028E+01-2.93652E-03 1.79152E-06-1.87048E-03 2.61471E-13-8.93308E-14
 -1      2948 2.00027E+01-2.83386E-03 5.12157E-06-2.57481E-03 2.66280E-13 2.21128E-13
 -1      2949 2.00032E+01-1.20997E-03 7.27104E-06-2.95683E-03 4.07572E-13 1.05737E-13
 -1      2950 2.00035E+01-1.07242E-03 1.21192E-05-1.50501E-03 2.63010E-13-1.17242E-13
 -1      2951 2.09577E+01 3.66107E-01 9.20260E-04-8.90788E-01 1.68034E-13-9.11196E-15
 -1      2952 2.09007E+01 4.73591E-01 8.64589E-03-7.46899E-01 1.93130E-13-2.60897E-15
 -1      2953 2.08067E+01 4.12093E-01-5.70119E-03-1.01879E+00 1.56510E-13-4.28248E-14
 -1      2954 2.00027E+01-2.84845E-03 4.70423E-06 2.55863E-03 5.00057E-14-1.31695E-13
 -1      2955 2.00028E+01-2.94729E-03 1.14846E-06 1.86365E-03 3.94627E-14-3.55165E-14
 -1      2956 2.00035E+01-1.08293E-03 1.19994E-05 1.49283E-03 5.28834E-14-1.65746E-13
 -1      2957 2.00023E+01-2.74992E-03 2.25061E-06 3.89130E-03 1.32126E-13-6.51962E-14
 -1      2958 2.00025E+01-2.92032E-03 2.60320E-06 3.26839E-03 8.37717E-14-1.86284E-13
 -1      2959 2.00032E+01-1.22609E-03 6.37592E-06 2.94163E-03 7.17698E-14-7.92486E-14
 -1      2960 2.00015E+01-2.56020E-03-5.50195E-06 4.96899E-03 5.88365E-14 7.80833E-14
 -1      2961 2.00019E+01-2.79972E-03 3.75986E-06 4.50019E-03 1.89060E-13 8.40861E-14
 -1      2962 2.00026E+01-1.37324E-03 6.54650E-06 4.27448E-03 1.66864E-13 1.99897E-14
 -1      2963 2.74431E+01-3.45900E+00-1.20405E-01 9.13014E-01 1.82248E-13-4.46115E-13
 -1      2964 2.59083E+01-4.54273E+00 2.92146E-02 2.41203E+00 4.38816E-14-5.13783E-13
 -1      2965 2.90662E+01 6.60620E+00-1.91463E-01 1.97312E-01 8.51930E-13 1.07629E-13
 -1      2966 2.88592E+01 6.30581E+00-1.45980E-01-1.00377E+00 8.00998E-13 3.65194E-14
 -1      2967 2.08121E+01 1.62195E+00-8.32665E-04 6.40900E-01 4.10194E-13 2.36720E-14
 -1      2968 2.35942E+01-5.27125E+00-5.19681E-02 4.21470E+00-4.28130E-14-4.66266E-13
 -1      2969 2.07668E+01-5.19670E+00 6.83007E-02 5.30375E+00-8.23924E-14-3.03011E-13
 -1      2970 2.04862E+01-5.28950E+00 6.03304E-02-5.37715E+00 4.31086E-13 4.80806E-13
 -1      2971 2.35753E+01-5.43415E+00-4.13656E-02-4.45715E+00 3.76310E-13 2.83551E-13
 -1      2972 2.60138E+01-4.60128E+00 4.27279E-02-2.62780E+00 3.12181E-13 7.42462E-15
 -1      2973 2.77365E+01-3.65913E+00-1.67328E-01-8.01764E-01 1.88334E-13-8.68472E-14
 -1      2974 2.51955E+01-4.83155E+00 3.32509E-02-2.71029E+00 4.47031E-13-2.40918E-14
 -1      2975 1.99992E+01-1.82832E-03-2.28336E-06 5.68819E-03-7.25022E-14 2.08355E-13
 -1      2976 1.99998E+01-2.25653E-03-1.05580E-05 5.71066E-03-1.18714E-13 1.00492E-13
 -1      2977 1.99990E+01-1.37366E-03 1.26587E-05 5.90475E-03-7.11358E-14-3.52151E-14
 -1      2978 6.00665E+00-9.72112E-01 2.18298E-01 1.34164E+00-3.31322E-13 5.02320E-13
 -1      2979 6.04168E+00-8.52306E-01 1.49821E-01-6.41483E-01-2.34809E-13 5.22249E-13
 -1      2980 2.76512E+01-3.50469E+00 2.30890E-02-1.10030E+00-2.05383E-13 1.08705E-13
 -1      2981 2.85042E+01-1.79488E+00-1.54598E-01 4.68491E-01-9.27869E-14 1.85518E-13
 -1      2982 2.87471E+01-1.71845E+00-2.52083E-02 8.48404E-01 5.20417E-16-1.74166E-13
 -1      2983 2.90622E+01 2.38989E-01-1.87923E-01 1.78230E+00-2.05183E-13-1.69503E-13
 -1      2984 1.94043E+01 3.07266E+00-4.71424E-03 2.48549E-01 3.33172E-13-3.51028E-13
 -1      2985 1.92135E+01 3.20821E+00-8.29146E-03 1.65652E-01 2.85069E-13-3.87964E-13
 -1      2986 1.92038E+01 3.00472E+00 5.67166E-03 3.79049E-02 2.51126E-13-3.65702E-13
 -1      2987 1.95938E+01 2.68178E+00 5.93198E-03 1.15415E-01 3.11342E-13-2.97340E-13
 -1      2988 1.91617E+01 3.25874E+00-8.25663E-03-1.80457E-01-2.74899E-14-5.07059E-13
 -1      2989 1.93482E+01 3.12876E+00-4.92182E-03-2.55285E-01-8.78026E-14-4.97214E-13
 -1      2990 6.32361E+00-1.24775E+00 1.53202E-01-2.08335E+00-3.04479E-14-8.96672E-13
 -1      2991 7.28443E+00-2.12717E+00 1.23731E-01-4.22518E+00-1.24040E-13-8.19594E-13
 -1      2992 2.90420E+01 1.01039E+00-1.07217E-01 1.57571E+00 1.84491E-13 2.61458E-13
 -1      2993 2.95737E+01 3.23945E+00-1.55871E-01 1.77374E+00 4.00097E-13 2.43250E-13
 -1      2994 2.44881E+01-5.22290E+00-8.04017E-02 3.60815E+00 6.19643E-14 7.86177E-14
 -1      2995 2.18540E+01-5.24776E+00 9.92976E-02 4.93863E+00 2.31454E-13-9.33628E-14
 -1      2996 1.66082E+01-4.61247E+00 1.47093E-01-6.38367E+00-3.72952E-13-6.32050E-13
 -1      2997 1.97522E+01-5.35809E+00-6.23606E-02-5.97440E+00-3.76060E-13-5.08600E-13
 -1      2998 9.80559E+00-2.86990E+00 1.43635E-01-5.46639E+00-2.28068E-13-7.28029E-13
 -1      2999 1.32429E+01-3.78411E+00 3.44784E-02-6.47648E+00-3.12972E-13-6.73850E-13
 -1      3000 1.06593E+01-1.82453E+00 1.67541E-01-4.70656E+00-2.14689E-13-6.84522E-13
 -1      3001 2.03542E+01 2.48551E+00 7.20970E-04-7.87633E-01-2.62221E-13-3.86332E-13
 -1      3002 2.94328E+01 4.76479E+00-1.52021E-01 1.70913E+00 5.69239E-13 2.32078E-13
 -1      3003 2.92424E+01 5.99468E+00-1.77508E-01 1.08388E+00 7.58310E-13 1.93234E-13
 -1      3004 2.81220E+01 3.34610E+00-9.17489E-02 2.04772E+00 3.82291E-13 3.41199E-13
 -1      3005 2.33185E+01-5.22987E+00 1.14442E-01-4.45066E+00-3.80321E-13-2.76501E-13
 -1      3006 2.57198E+01-4.90535E+00-1.25138E-01-3.04724E+00-2.62498E-13-4.34652E-14
 -1      3007 2.08765E+01 5.84462E-01 1.04329E-03-5.55200E-01 2.31346E-13-2.84519E-15
 -1      3008 2.08750E+01 7.21138E-01 1.07366E-02-3.39893E-01 2.62603E-13 7.76934E-15
 -1      3009 2.07313E+01 1.02823E+00-1.59877E-03-2.01140E-01 3.09215E-13-4.36429E-14
 -1      3010 2.07385E+01 6.85064E-01-4.02188E-03-6.71625E-01 2.30511E-13-8.07838E-14
 -1      3011 2.93523E+01 2.50952E+00-8.32301E-02 2.31598E+00-4.40634E-13-2.44207E-13
 -1      3012 2.90994E+01 4.37591E+00-2.08628E-01 1.95610E+00-6.86812E-13-2.61083E-13
 -1      3013 2.83504E+01 8.86570E-01-5.90628E-02 2.24339E+00-2.44305E-13-2.98261E-13
 -1      3014 2.92084E+01 2.33825E+00-1.91273E-01-2.02756E+00-8.52013E-13 5.60094E-13
 -1      3015 2.89978E+01 3.02479E-01-9.16416E-02-1.67746E+00-7.11153E-13 5.64715E-13
 -1      3016 2.88946E+01 4.79820E+00-2.47221E-01-1.73074E+00 6.30773E-13-6.53644E-14
 -1      3017 2.94771E+01 3.36613E+00-1.18930E-01-2.06331E+00 6.11289E-13-3.06005E-13
 -1      3018 1.95624E+01 2.93614E+00-9.32821E-03-2.99126E-01-1.23376E-13-5.00877E-13
 -1      3019 1.97997E+01 2.74226E+00-8.58071E-03-3.90132E-01-1.66149E-13-4.83282E-13
 -1      3020 1.95269E+01 2.75025E+00 5.33047E-03-1.18228E-01-8.98238E-14-4.60655E-13
 -1      3021 1.88420E+01 3.28897E+00 6.11923E-03-2.57446E-02 1.22291E-13-4.43255E-13
 -1      3022 1.87885E+01 3.53979E+00-5.51481E-03-2.60802E-02 1.12549E-13-4.96269E-13
 -1      3023 1.88226E+01 3.51937E+00-4.86099E-03-7.77000E-02 7.00710E-14-5.23409E-13
 -1      3024 2.00000E+01-1.16106E-03-2.47174E-05 5.95658E-03 5.22435E-14-5.62135E-14
 -1      3025 1.72069E+01-4.25905E+00 7.71466E-02-5.86351E+00 3.51830E-13 5.72487E-13
 -1      3026 1.89981E+01-4.94306E+00 1.04712E-01-5.79793E+00 4.25771E-13 4.84203E-13
 -1      3027 2.13383E+01-4.97994E+00 3.79936E-02-4.72704E+00 5.49311E-13 2.15375E-13
 -1      3028 1.47402E+01-3.01338E+00 1.41352E-01 5.62819E+00 3.62058E-13-3.13485E-13
 -1      3029 9.21275E+00-1.33507E+00 1.74509E-01 3.74908E+00 3.05894E-13-6.73017E-13
 -1      3030 2.77025E+01 5.60481E+00-9.69044E-02 7.16563E-01 6.64024E-13 2.63789E-13
 -1      3031 1.92872E+01-4.89566E+00 7.52943E-02 5.76701E+00-1.50047E-13-1.71120E-13
 -1      3032 1.75499E+01-4.20261E+00 9.11730E-02 5.82529E+00-2.80304E-13 1.43635E-15
 -1      3033 2.11291E+01-4.73955E+00 4.55733E-02 4.70270E+00-2.05364E-13-4.11301E-13
 -1      3034 2.00005E+01-2.30148E-03-1.08051E-07-5.49718E-03 1.83261E-13-1.03806E-13
 -1      3035 2.00004E+01-1.56563E-03-4.99581E-06-5.75530E-03-1.52997E-14 6.15673E-14
 -1      3036 2.00010E+01-2.64311E-03 3.12624E-06-5.29172E-03-4.78521E-18-2.99523E-13
 -1      3037 2.47641E+01-4.70271E+00 2.73136E-02 2.79669E+00-9.08648E-14-5.51684E-13
 -1      3038 2.78962E+01-2.64023E+00-5.28370E-02-1.24619E-01 1.68503E-13-4.45005E-13
 -1      3039 2.67718E+01-3.31299E+00 8.59312E-03 2.80970E-01-6.58501E-14-5.18391E-13
 -1      3040 2.75081E+01-1.70835E+00-1.78500E-01-1.16795E+00 2.33542E-13-5.30687E-13
 -1      3041 2.00005E+01-2.55203E-03 1.62119E-05 5.48280E-03-9.21984E-14 3.71851E-14
 -1      3042 2.77681E+01 5.13305E+00-7.00457E-02-1.51676E+00 6.53616E-13 2.63678E-16
 -1      3043 2.06202E+01 1.76506E+00-3.66109E-03 4.74186E-01 3.98560E-13-6.41722E-14
 -1      3044 2.86120E+01 1.62442E+00-8.07051E-02-2.00134E+00 4.70846E-13-3.85025E-13
 -1      3045 1.59730E+01-3.70136E+00 1.45498E-01-5.96809E+00-3.62960E-13-6.10692E-13
 -1      3046 1.13761E+01-3.10407E+00 1.61068E-01 5.86373E+00-3.55480E-13 4.76508E-13
 -1      3047 1.05584E+01-2.16829E+00 1.01667E-01 5.12884E+00-4.34347E-13 4.13364E-13
 -1      3048 1.40294E+01-3.35578E+00 6.67509E-02 5.92231E+00-3.75491E-13 2.85660E-13
 -1      3049 2.59740E+01-4.66158E+00 3.79352E-02 2.31071E+00-1.16573E-15 2.40648E-13
 -1      3050 2.47584E+01-4.56372E+00 8.39775E-02 2.66240E+00 1.71654E-13 1.92050E-13
 -1      3051 2.64835E+01-4.15904E+00-1.57516E-01 9.65317E-01-1.06680E-13 3.70159E-13
 -1      3052 7.09883E+00-7.64793E-01 2.03687E-01-1.73965E+00-1.27776E-13 6.19005E-13
 -1      3053 8.41597E+00-8.11665E-01 1.26197E-01-2.81813E+00-5.92790E-14 6.65717E-13
 -1      3054 7.94470E+00-2.11885E-01 1.00579E-01-6.52123E-01-2.87704E-13 3.51746E-13
 -1      3055 2.84696E+01-6.78326E-01-8.14828E-02 1.39646E+00-9.22873E-16 2.55213E-13
 -1      3056 2.75425E+01 5.83143E-01-9.29931E-02 2.11358E+00 9.09828E-14 3.70856E-13
 -1      3057 2.74043E+01-1.90954E+00-3.03754E-02 9.01812E-01-1.56802E-13 2.67709E-13
 -1      3058 1.09532E+01-2.80322E+00 1.64343E-01-5.52208E+00 1.67311E-13 9.80438E-13
 -1      3059 1.34867E+01-3.04275E+00 3.45149E-02-5.63660E+00 2.06640E-13 8.38704E-13
 -1      3060 1.05424E+01-1.74458E+00 1.40973E-01-4.68287E+00-6.85563E-15 8.28976E-13
 -1      3061 2.77096E+01-2.71250E+00-3.49723E-02 4.03764E-01 1.57910E-13-1.48118E-13
 -1      3062 2.64356E+01-4.10982E+00 1.33917E-02-1.58744E+00-2.83593E-13 1.08705E-13
 -1      3063 7.49650E+00-4.29259E-01 7.93136E-02 4.87304E-01 1.73073E-13-7.68940E-13
 -1      3064 6.78474E+00-7.19703E-01 2.08529E-01-7.79760E-01 6.21864E-14-8.86430E-13
 -1      3065 8.39001E+00-4.66207E-01 1.42670E-01-2.04903E+00-4.51028E-14-7.57394E-13
 -1      3066 2.87148E+01 6.07320E+00-1.29941E-01 1.05869E+00-7.95863E-13-8.38912E-14
 -1      3067 2.87582E+01 6.33741E+00-1.74189E-01-1.47868E-01-9.18793E-13 1.06887E-13
 -1      3068 7.55580E+00-1.01811E+00 1.61324E-01 2.45889E+00-4.24737E-13 5.61995E-13
 -1      3069 2.00019E+01-2.85160E-03 2.60068E-06-4.42316E-03 3.99783E-14-1.87130E-13
 -1      3070 2.00015E+01-2.59939E-03 5.05808E-06-4.87897E-03-1.59069E-14-2.19640E-13
 -1      3071 2.00017E+01-1.61399E-03-2.27633E-06-5.10466E-03 7.22320E-14-2.14699E-13
 -1      3072 2.00026E+01-1.42770E-03 1.13109E-06-4.18007E-03 3.72239E-13 1.16445E-13
 -1      3073 1.88966E+01 3.45938E+00-6.89982E-03-9.29959E-02 4.70395E-14-5.04833E-13
 -1      3074 1.90115E+01 3.38621E+00-4.34703E-03-1.52513E-01 1.02313E-15-5.07514E-13
 -1      3075 1.91484E+01 3.05860E+00 5.89225E-03-6.46827E-02-1.33096E-14-4.62286E-13
 -1      3076 1.89121E+01 3.23926E+00 6.21743E-03-3.82200E-02 5.12717E-14-4.88857E-13
 -1      3077 2.08302E+01-4.61803E+00 1.03977E-01 4.91168E+00 3.08809E-13-1.19212E-13
 -1      3078 2.05357E+01 1.60597E+00 2.70195E-03 1.72913E-01 3.69117E-13-8.70222E-14
 -1      3079 2.01244E+01 2.43484E+00-4.11383E-03-4.46266E-01-1.91058E-13-4.05279E-13
 -1      3080 2.05919E+01 1.89876E+00-6.40228E-03-5.49272E-01-2.77386E-13-3.13599E-13
 -1      3081 2.06506E+01 1.53863E+00 1.91752E-03-2.27759E-01-2.58146E-13-2.77703E-13
 -1      3082 2.00633E+01 2.25127E+00 5.73129E-03-1.92890E-01-1.72379E-13-3.97650E-13
 -1      3083 2.19773E+01-4.99701E+00 7.41728E-02-4.72836E+00-4.35804E-13-2.92872E-13
 -1      3084 2.04462E+01 1.67964E+00-8.46299E-05-7.54776E-02-2.05411E-13-2.75312E-13
 -1      3085 2.00007E+01-1.34837E-03-7.00602E-06 5.71793E-03 1.65985E-13 8.61246E-14
 -1      3086 2.00011E+01-2.23905E-03-6.98265E-06 5.35266E-03 3.28062E-14 1.02372E-13
 -1      3087 2.00018E+01-1.10972E-03 2.33653E-05 5.20812E-03 5.96280E-14 6.21160E-14
 -1      3088 2.00009E+01-6.22696E-04 3.20854E-05 5.71866E-03 1.54215E-13-7.12311E-14
 -1      3089 2.89346E+01 5.72865E+00-1.84910E-01-1.16483E+00-9.68892E-13 2.71720E-13
 -1      3090 2.91278E+01 4.43595E+00-1.22664E-01-1.86977E+00-9.11160E-13 4.14863E-13
 -1      3091 2.74826E+01 5.28052E+00-1.37357E-01-6.94953E-01-8.23730E-13 1.14651E-13
 -1      3092 2.79428E+01 2.82256E+00-1.23731E-01-2.14430E+00-7.99069E-13 4.65877E-13
 -1      3093 2.02091E+01 1.83088E+00-4.11721E-03 1.33761E-02 3.33356E-13-1.58422E-13
 -1      3094 1.99576E+01 2.08502E+00-3.44505E-03-2.32412E-02 3.05690E-13-2.17585E-13
 -1      3095 2.71362E+01 2.01929E+00-9.81897E-02-2.42019E+00 4.49141E-13-3.32213E-13
 -1      3096 2.77808E+01 1.36653E-01-2.95997E-02-2.11596E+00 3.95128E-13-5.13020E-13
 -1      3097 2.14987E+01-7.93667E-01-2.27268E-03-1.46299E+00-5.41502E-14-9.87968E-14
 -1      3098 2.12613E+01-5.04033E-01 1.34045E-02-1.52800E+00-3.39419E-14-1.00836E-13
 -1      3099 2.02853E+01 1.15280E+00 2.92442E-03 7.20072E-01-1.35884E-13-2.61121E-13
 -1      3100 2.02792E+01 9.89724E-01-5.53286E-04 9.41831E-01-1.10409E-13-2.48739E-13
 -1      3101 2.02531E+01 8.39613E-01 3.06571E-03 1.14772E+00-9.74695E-14-2.18818E-13
 -1      3102 2.02780E+01 6.86198E-01 1.94172E-03 1.32582E+00-5.47956E-14-2.16650E-13
 -1      3103 1.99935E+01 1.09154E+00-5.08927E-04 1.03603E+00-8.95844E-14-2.53295E-13
 -1      3104 2.02688E+01 5.24135E-01 3.80999E-03 1.50750E+00-6.04034E-14-2.09741E-13
 -1      3105 2.03466E+01 3.39317E-01 4.07457E-03 1.64322E+00-7.33615E-14-2.20196E-13
 -1      3106 1.99387E+01 7.43726E-01-3.33027E-03 1.43290E+00-6.64876E-14-2.25133E-13
 -1      3107 2.03918E+01 1.25636E-01 6.48886E-03 1.80314E+00-6.10912E-14-1.99247E-13
 -1      3108 2.05522E+01-1.31740E-01 5.95701E-03 1.88906E+00-2.22890E-14-1.86131E-13
 -1      3109 1.99483E+01 3.30620E-01-7.67738E-03 1.79216E+00-5.73707E-14-2.00445E-13
 -1      3110 2.07073E+01-4.33728E-01 1.24718E-02 2.01872E+00 4.26083E-14-1.55595E-13
 -1      3111 2.09893E+01-7.98738E-01 6.48843E-03 2.03234E+00 7.35796E-14-8.26099E-14
 -1      3112 2.01050E+01-2.39944E-01-1.49745E-02 2.11524E+00 2.18301E-14-1.67593E-13
 -1      3113 2.13383E+01-1.20872E+00 2.36000E-02 2.09685E+00 1.30420E-13-1.23405E-14
 -1      3114 2.17766E+01-1.68598E+00 2.71113E-03 1.99187E+00 1.49747E-13 2.51344E-14
 -1      3115 2.05344E+01-1.05279E+00-2.66307E-02 2.37361E+00 1.44810E-13-9.63682E-14
 -1      3116 2.24285E+01-2.16452E+00 4.03136E-02 1.90201E+00 1.63734E-13 1.17715E-13
 -1      3117 2.30294E+01-2.65764E+00-3.01295E-03 1.60351E+00 1.27659E-13 2.13485E-13
 -1      3118 2.14178E+01-2.13752E+00-4.36967E-02 2.46245E+00 2.14784E-13-2.97505E-15
 -1      3119 2.55831E+01-3.34916E+00 1.93843E-02 3.22335E-01 1.60011E-14 4.56767E-13
 -1      3120 2.62807E+01-2.78400E+00-8.45994E-03-3.83868E-01-1.89675E-13 4.94216E-13
 -1      3121 2.69952E+01-2.79440E-01-1.08728E-01-2.07092E+00-5.93896E-13 5.60947E-13
 -1      3122 2.72776E+01 1.49941E+00-6.26249E-02-2.42105E+00-7.07115E-13 4.16646E-13
 -1      3123 2.72664E+01 3.94141E+00-7.04902E-02 1.99725E+00-5.71099E-13-3.40845E-13
 -1      3124 2.72499E+01 1.95961E+00-1.90569E-01 2.56835E+00-4.12531E-13-4.57627E-13
 -1      3125 2.62456E+01-2.41534E+00-4.05882E-02 1.01755E+00 2.71294E-13-3.88641E-13
 -1      3126 2.57088E+01-3.01423E+00 4.85790E-03 3.20213E-01 3.22934E-13-2.60434E-13
 -1      3127 2.45570E+01-3.13881E+00-2.95809E-02-4.59785E-01 3.51054E-13-8.56428E-14
 -1      3128 2.39020E+01-2.90635E+00 3.71866E-02-1.00860E+00 3.60940E-13-8.81868E-14
 -1      3129 2.50231E+01-3.55729E+00-2.56913E-02-7.46448E-01 4.43447E-13-1.52688E-13
 -1      3130 2.29382E+01-2.53135E+00-8.33678E-03-1.38233E+00 2.06196E-13-5.92582E-14
 -1      3131 2.23687E+01-2.05116E+00 3.72344E-02-1.67102E+00 1.49424E-13-1.68384E-13
 -1      3132 2.29713E+01-2.99396E+00-1.40479E-02-1.75868E+00 2.86356E-13-1.28906E-13
 -1      3133 2.17220E+01-1.60116E+00-2.33413E-03-1.78050E+00 2.23515E-13-1.17209E-13
 -1      3134 2.13015E+01-1.14223E+00 2.06307E-02-1.87996E+00 2.94325E-13-1.78602E-13
 -1      3135 2.14578E+01-2.02295E+00-3.86613E-02-2.15562E+00 1.77596E-13-8.46619E-14
 -1      3136 2.09459E+01-7.73184E-01 3.01860E-03-1.84169E+00 2.51651E-13-2.17079E-13
 -1      3137 2.06674E+01-4.39791E-01 1.00996E-02-1.83655E+00 2.19666E-13-2.39392E-13
 -1      3138 2.05678E+01-1.01559E+00-2.23218E-02-2.12272E+00 2.50011E-13-1.59551E-13
 -1      3139 2.04952E+01-1.85522E-01 4.23490E-03-1.74067E+00 1.22029E-13-2.24272E-13
 -1      3140 2.03237E+01 2.47032E-02 3.92158E-03-1.68131E+00-3.38311E-14-2.10018E-13
 -1      3141 2.01017E+01-2.99266E-01-1.19589E-02-1.93581E+00 1.67218E-13-2.72218E-13
 -1      3142 2.02568E+01 1.77622E-01 3.93021E-03-1.56783E+00-6.10358E-14-1.62696E-13
 -1      3143 2.01538E+01 2.93525E-01 7.03237E-04-1.48271E+00-1.36652E-15-1.10589E-13
 -1      3144 1.98926E+01 1.50352E-01-5.72367E-03-1.70029E+00 2.69601E-14-2.30243E-13
 -1      3145 2.01418E+01 3.71617E-01 3.35854E-03-1.36830E+00 3.78247E-15-7.11345E-14
 -1      3146 2.00786E+01 4.22954E-01-9.32034E-04-1.27369E+00 4.68532E-14-9.19774E-14
 -1      3147 1.98250E+01 3.97853E-01-2.16012E-03-1.46118E+00 3.20461E-14-1.64713E-13
 -1      3148 2.00918E+01 4.51498E-01 2.86880E-03-1.16555E+00 7.05724E-14-2.70221E-13
 -1      3149 2.00504E+01 4.62229E-01-1.67981E-03-1.07100E+00-1.39491E-14-2.77581E-13
 -1      3150 1.98270E+01 5.07527E-01-3.26003E-04-1.23480E+00-1.85471E-14-1.77006E-13
 -1      3151 2.00725E+01 4.60794E-01 2.50500E-03-9.72448E-01 1.10318E-15-2.21312E-13
 -1      3152 2.00427E+01 4.48142E-01-1.93119E-03-8.83590E-01-3.47685E-14-1.92221E-13
 -1      3153 1.98577E+01 5.30347E-01 4.89404E-04-1.02755E+00-2.63193E-15-3.67626E-13
 -1      3154 2.00655E+01 4.30364E-01 2.22412E-03-7.96141E-01-6.75883E-14-8.37345E-14
 -1      3155 2.00421E+01 4.05822E-01-1.91187E-03-7.16082E-01-6.61132E-14 3.78248E-14
 -1      3156 1.98955E+01 5.02920E-01 7.52961E-04-8.42127E-01 1.34026E-14-2.42015E-13
 -1      3157 2.00621E+01 3.80534E-01 1.98201E-03-6.40230E-01-2.27343E-13 4.93242E-14
 -1      3158 2.00425E+01 3.51331E-01-1.75403E-03-5.70402E-01-2.18193E-13 2.70645E-14
 -1      3159 1.99304E+01 4.49761E-01 7.45566E-04-6.79541E-01-1.32680E-13-1.18393E-13
 -1      3160 2.00586E+01 3.23910E-01 1.75306E-03-5.05970E-01-2.36445E-13-2.23574E-14
 -1      3161 2.00417E+01 2.94340E-01-1.53358E-03-4.46675E-01-6.75053E-14-1.00005E-13
 -1      3162 1.99587E+01 3.86376E-01 6.27566E-04-5.39728E-01-2.71189E-13 4.57374E-14
 -1      3163 2.00538E+01 2.67860E-01 1.52755E-03-3.93012E-01 3.33542E-14-1.97656E-13
 -1      3164 2.00394E+01 2.40307E-01-1.29470E-03-3.43805E-01-6.09532E-15-3.10986E-13
 -1      3165 1.99797E+01 3.22054E-01 4.81773E-04-4.21790E-01-9.10154E-14-6.41118E-14
 -1      3166 2.00480E+01 2.16366E-01 1.30684E-03-2.99931E-01-9.22568E-14-4.23822E-13
 -1      3167 2.00357E+01 1.91985E-01-1.06397E-03-2.59918E-01-1.88892E-13-4.15771E-13
 -1      3168 1.99942E+01 2.61986E-01 3.44287E-04-3.24139E-01-1.12854E-13-3.28124E-13
 -1      3169 2.00417E+01 1.71251E-01 1.09698E-03-2.24670E-01-1.26254E-13-4.29620E-13
 -1      3170 2.00313E+01 1.50437E-01-8.55890E-04-1.92735E-01-3.21752E-14-3.51106E-13
 -1      3171 2.00035E+01 2.08724E-01 2.28951E-04-2.44710E-01-1.06506E-13-4.38390E-13
 -1      3172 2.00352E+01 1.33032E-01 9.03587E-04-1.64896E-01-7.46667E-14-3.02386E-13
 -1      3173 2.00267E+01 1.15743E-01-6.75439E-04-1.39859E-01-6.98286E-14-3.26945E-13
 -1      3174 2.00089E+01 1.63176E-01 1.40329E-04-1.81202E-01-1.34064E-14-4.58143E-13
 -1      3175 2.00290E+01 1.01492E-01 7.30476E-04-1.18243E-01-2.38762E-14-2.53350E-13
 -1      3176 2.00222E+01 8.74551E-02-5.23157E-04-9.89535E-02 2.93928E-14-2.78414E-13
 -1      3177 2.00116E+01 1.25282E-01 7.63260E-05-1.31281E-01 2.76885E-15-4.47746E-13
 -1      3178 2.00234E+01 7.60311E-02 5.79775E-04-8.24556E-02-9.42925E-15-3.53647E-13
 -1      3179 2.00180E+01 6.48618E-02-3.97711E-04-6.78545E-02-1.11023E-13-2.50675E-13
 -1      3180 2.00125E+01 9.44693E-02 3.22546E-05-9.27029E-02 1.17258E-14-4.48269E-13
 -1      3181 2.00185E+01 5.58787E-02 4.51909E-04-5.54845E-02-8.28019E-14-2.11463E-13
 -1      3182 2.00143E+01 4.71541E-02-2.96628E-04-4.46332E-02 6.12711E-14-1.92719E-13
 -1      3183 2.00121E+01 6.99163E-02 3.58292E-06-6.34012E-02-4.50488E-14-4.44772E-13
 -1      3184 2.00144E+01 4.02166E-02 3.45883E-04-3.55322E-02 2.88018E-14-1.39058E-13
 -1      3185 2.00111E+01 3.35201E-02-2.16844E-04-2.76266E-02-9.69822E-14-1.69711E-13
 -1      3186 2.00111E+01 5.07111E-02-1.36764E-05-4.15433E-02 6.56888E-14-2.75004E-13
 -1      3187 2.00109E+01 2.82539E-02 2.59818E-04-2.10703E-02-1.69914E-14-1.47015E-13
 -1      3188 2.00085E+01 2.31988E-02-1.55178E-04-1.54402E-02 2.10402E-13-3.29448E-13
 -1      3189 2.00097E+01 3.59498E-02-2.28247E-05-2.55532E-02-2.62818E-14-1.65182E-13
 -1      3190 2.00081E+01 1.92650E-02 1.91403E-04-1.08329E-02 2.90055E-13-5.08679E-13
 -1      3191 2.00063E+01 1.55049E-02-1.08611E-04-6.93381E-03 2.33072E-13-5.07996E-13
 -1      3192 2.00081E+01 2.47903E-02-2.64936E-05-1.41120E-02 1.90079E-13-2.52035E-13
 -1      3193 2.00058E+01 1.26048E-02 1.38212E-04-3.79693E-03 2.67721E-13-6.71010E-13
 -1      3194 2.00045E+01 9.83621E-03-7.46117E-05-1.19770E-03 1.78669E-13-7.71980E-13
 -1      3195 2.00066E+01 1.64767E-02-2.67039E-05-6.14295E-03 1.27438E-13-5.41434E-13
 -1      3196 2.00040E+01 7.70968E-03 9.76270E-05 8.42785E-04 8.57310E-14-5.93444E-13
 -1      3197 2.00031E+01 5.66971E-03-4.99961E-05 2.47258E-03 7.92579E-14-5.05482E-13
 -1      3198 2.00051E+01 1.03462E-02-2.48279E-05-7.87646E-04 2.57907E-13-8.58827E-13
 -1      3199 2.00026E+01 4.08953E-03 6.65738E-05 3.69750E-03 3.04432E-14-4.10644E-13
 -1      3200 2.00020E+01 2.57167E-03-2.78147E-05 4.59723E-03 2.85380E-14-3.53627E-13
 -1      3201 2.00038E+01 5.82923E-03-1.99221E-05 2.60956E-03 9.44941E-14-5.44906E-13
 -1      3202 2.00016E+01 1.50161E-03 4.65092E-05 5.16761E-03-8.66612E-14-1.98942E-13
 -1      3203 2.00012E+01 2.98691E-04-1.41796E-05 5.52651E-03-6.15190E-14-2.15592E-13
 -1      3204 2.00018E+01 1.19875E-04-3.01700E-05 5.33255E-03 1.07246E-13 1.89170E-14
 -1      3205 2.00027E+01 2.54921E-03-3.33190E-05 4.49020E-03 2.00195E-14-2.56285E-13
 -1      3206 2.10472E+01-2.57553E-01 4.47442E-04-1.49218E+00 1.48436E-14-9.12880E-14
 -1      3207 2.08857E+01-3.32423E-02 8.96653E-03-1.46750E+00 6.62160E-14-7.66918E-14
 -1      3208 2.08054E+01-4.04993E-01-1.45803E-02-1.68967E+00 3.44489E-15-9.67556E-14
 -1      3209 1.08890E+01-1.08412E+00-3.47124E-04 3.94449E+00 3.57811E-13-5.18086E-13
 -1      3210 9.22842E+00-2.95589E-01 2.27592E-01 2.41054E+00 2.73136E-13-6.96304E-13
 -1      3211 2.00041E+01 7.93345E-04-4.89699E-06 1.74018E-03 2.16162E-13-1.55799E-13
 -1      3212 2.00042E+01 8.42397E-04-1.18482E-05 1.03806E-03 2.59022E-13-6.15199E-14
 -1      3213 2.30757E+01-2.01835E+00-1.51743E-02-6.49395E-01-9.48235E-14 7.37279E-15
 -1      3214 2.27144E+01-1.73431E+00 2.43876E-02-9.85584E-01-7.11848E-14-5.14740E-14
 -1      3215 2.41042E+01-2.20536E+00-1.48942E-02 2.81628E-01-9.09082E-14 1.11359E-13
 -1      3216 2.37624E+01-2.19389E+00 2.06726E-02-1.99482E-01-9.38572E-14 7.36525E-14
 -1      3217 2.33155E+01-2.50455E+00-3.06736E-02-8.82047E-01-1.30456E-13-1.05255E-14
 -1      3218 2.49514E+01-1.48662E+00-1.18390E-02 1.37951E+00-4.00088E-14 2.18989E-13
 -1      3219 2.47447E+01-1.97737E+00-4.04061E-03 9.18416E-01-9.84421E-14 1.75718E-13
 -1      3220 2.46736E+01-2.53021E+00-1.14614E-02 2.38746E-01-1.47231E-13 1.14212E-13
 -1      3221 2.56465E+01 3.59982E-01-2.69525E-02 2.04141E+00 9.55139E-14 3.80033E-13
 -1      3222 2.56785E+01-7.89741E-01-4.48685E-02 1.88539E+00-2.00014E-14 3.16854E-13
 -1      3223 2.54820E+01 3.76162E+00-1.24831E-01 1.49676E+00 3.93477E-13 3.45210E-13
 -1      3224 2.56400E+01 2.70298E+00-1.26883E-01 1.96029E+00 3.47250E-13 3.89839E-13
 -1      3225 2.51926E+01 4.43074E+00-1.72353E-01-4.75494E-01 4.98560E-13 2.26798E-14
 -1      3226 2.51940E+01 4.39595E+00-1.42717E-01 4.52124E-01 4.84168E-13 1.44921E-13
 -1      3227 2.53022E+01 9.71656E-02-1.28843E-01-2.31390E+00 2.16389E-13-3.23470E-13
 -1      3228 2.52092E+01 1.24960E+00-6.01530E-02-2.18888E+00 2.50484E-13-2.67377E-13
 -1      3229 2.55164E+01-1.97874E+00-2.91921E-02-1.24137E+00 7.71085E-14-3.85010E-13
 -1      3230 2.57455E+01-1.12976E+00-2.44613E-02-1.70615E+00 1.62627E-13-3.98171E-13
 -1      3231 2.30601E+01-1.89971E+00 2.55246E-02 5.91365E-01-1.22607E-13-2.57257E-13
 -1      3232 2.34306E+01-2.11940E+00-1.43463E-02 2.02888E-01-1.34550E-13-2.42901E-13
 -1      3233 2.21157E+01-1.30347E+00 2.12309E-02 1.12150E+00-9.11044E-14-1.38499E-13
 -1      3234 2.24540E+01-1.62538E+00-9.53987E-03 8.85042E-01-7.84104E-14-1.66981E-13
 -1      3235 2.24629E+01-2.06303E+00-2.57327E-02 1.16320E+00-1.51879E-13-1.53170E-13
 -1      3236 2.14140E+01-7.15616E-01 1.41715E-02 1.35147E+00-8.42834E-14 5.21998E-14
 -1      3237 2.16856E+01-1.00501E+00-3.35039E-03 1.23895E+00-7.73292E-14-5.73786E-14
 -1      3238 2.14968E+01-1.32374E+00-2.21300E-02 1.50387E+00-1.60238E-13 2.17409E-14
 -1      3239 2.09394E+01-2.59883E-01 8.08707E-03 1.38810E+00-7.31196E-14 7.37309E-14
 -1      3240 2.11416E+01-4.72740E-01 1.61117E-04 1.36173E+00-4.77283E-14 1.01303E-13
 -1      3241 2.08578E+01-6.62781E-01-1.53938E-02 1.57826E+00-8.68074E-14 9.58114E-14
 -1      3242 2.06357E+01 4.39626E-02 3.92986E-03 1.31354E+00 5.76895E-14-6.23722E-14
 -1      3243 2.07813E+01-9.20835E-02 1.75307E-03 1.34052E+00 5.60394E-14 9.07796E-15
 -1      3244 2.04708E+01-1.78738E-01-9.53233E-03 1.50772E+00 6.65032E-14 8.58162E-14
 -1      3245 2.04450E+01 2.21323E-01 1.40116E-03 1.18164E+00-2.87367E-14-1.20232E-13
 -1      3246 2.05504E+01 1.45798E-01 2.36117E-03 1.23864E+00 3.62961E-14-1.21192E-13
 -1      3247 2.02535E+01 1.30852E-01-5.25748E-03 1.36654E+00 1.02529E-13-1.56483E-14
 -1      3248 2.03243E+01 3.06744E-01-8.42164E-05 1.02536E+00-7.11168E-14-6.20126E-14
 -1      3249 2.04027E+01 2.73725E-01 2.52606E-03 1.09638E+00-7.89120E-14-1.41383E-13
 -1      3250 2.01390E+01 3.03614E-01-2.62277E-03 1.19636E+00-3.78271E-14-6.23444E-14
 -1      3251 2.02452E+01 3.31613E-01-8.53600E-04 8.64921E-01-8.66114E-14-4.24260E-14
 -1      3252 2.03056E+01 3.25818E-01 2.49114E-03 9.39522E-01-6.40850E-14-1.03811E-13
 -1      3253 2.00827E+01 3.80347E-01-1.17465E-03 1.02001E+00-8.95149E-14-2.51196E-14
 -1      3254 2.01906E+01 3.20039E-01-1.17530E-03 7.12370E-01-1.23598E-13-4.01776E-14
 -1      3255 2.02385E+01 3.30125E-01 2.37041E-03 7.84090E-01-8.13962E-14-5.92772E-15
 -1      3256 2.00568E+01 3.95262E-01-4.38097E-04 8.50486E-01-7.87484E-14-1.24351E-14
 -1      3257 2.01505E+01 2.88923E-01-1.23761E-03 5.74366E-01-9.01564E-15 1.08975E-15
 -1      3258 2.01892E+01 3.07122E-01 2.19458E-03 6.39549E-01 1.60252E-14 5.11529E-14
 -1      3259 2.00457E+01 3.73784E-01-1.06072E-04 6.95072E-01-3.50120E-14 1.03535E-13
 -1      3260 2.01194E+01 2.49316E-01-1.16162E-03 4.53993E-01-1.11003E-14-1.22311E-13
 -1      3261 2.01510E+01 2.70643E-01 1.98077E-03 5.10898E-01-3.25873E-14-7.83366E-14
 -1      3262 2.00406E+01 3.33415E-01 9.68073E-06 5.57463E-01 2.75522E-14-1.44805E-13
 -1      3263 2.00946E+01 2.08016E-01-1.02021E-03 3.52012E-01 9.09265E-14-6.36659E-14
 -1      3264 2.01204E+01 2.29461E-01 1.74514E-03 4.00158E-01-1.29234E-14-1.10327E-13
 -1      3265 2.00375E+01 2.85484E-01 2.40790E-05 4.39000E-01-2.31018E-14-3.53593E-13
 -1      3266 2.00744E+01 1.68931E-01-8.56189E-04 2.67717E-01 4.76423E-14 3.13195E-14
 -1      3267 2.00952E+01 1.88807E-01 1.50165E-03 3.07410E-01 1.22792E-13 7.89613E-14
 -1      3268 2.00347E+01 2.36913E-01 9.33233E-07 3.39473E-01 2.31725E-14-1.18683E-13
 -1      3269 2.00579E+01 1.34065E-01-6.94858E-04 1.99529E-01-9.90654E-14 3.29326E-14
 -1      3270 2.00745E+01 1.51554E-01 1.26329E-03 2.31529E-01-5.62776E-14 1.49620E-14
 -1      3271 2.00316E+01 1.91633E-01-3.15828E-05 2.57652E-01 7.99472E-15 9.40743E-14
 -1      3272 2.00444E+01 1.04198E-01-5.48781E-04 1.45449E-01 1.77055E-15-3.66661E-14
 -1      3273 2.00575E+01 1.19030E-01 1.04092E-03 1.70728E-01-4.20071E-14-4.13791E-15
 -1      3274 2.00280E+01 1.51599E-01-5.96562E-05 1.91699E-01-5.37262E-14 2.46589E-14
 -1      3275 2.00336E+01 7.93880E-02-4.22979E-04 1.03355E-01 9.54977E-14 1.77460E-13
 -1      3276 2.00437E+01 9.16114E-02 8.41021E-04 1.22945E-01-4.71282E-15 1.26164E-13
 -1      3277 2.00243E+01 1.17508E-01-7.78086E-05 1.39518E-01-5.79014E-14 7.31398E-14
 -1      3278 2.00249E+01 5.92931E-02-3.18435E-04 7.11928E-02 2.47944E-14 4.37449E-13
 -1      3279 2.00327E+01 6.91266E-02 6.66612E-04 8.60889E-02 1.30685E-13 3.92204E-13
 -1      3280 2.00206E+01 8.93080E-02-8.64096E-05 9.89734E-02-1.57000E-14 3.66153E-13
 -1      3281 2.00182E+01 4.33725E-02-2.34044E-04 4.70777E-02-1.10304E-13 5.09027E-13
 -1      3282 2.00240E+01 5.11158E-02 5.18464E-04 5.81880E-02-6.87559E-14 5.35940E-13
 -1      3283 2.00171E+01 6.65413E-02-8.73830E-05 6.80371E-02-1.17634E-13 7.15543E-13
 -1      3284 2.00129E+01 3.10103E-02-1.67671E-04 2.93528E-02-1.13293E-13 5.61144E-13
 -1      3285 2.00172E+01 3.69885E-02 3.95596E-04 3.74708E-02-8.06216E-14 5.09127E-13
 -1      3286 2.00139E+01 4.85520E-02-8.29068E-05 4.48668E-02-1.07990E-13 8.24364E-13
 -1      3287 2.00090E+01 2.15898E-02-1.16791E-04 1.66088E-02 1.05430E-13 2.35489E-13
 -1      3288 2.00120E+01 2.61207E-02 2.95895E-04 2.24052E-02-2.77842E-15 3.81409E-13
 -1      3289 2.00110E+01 3.46150E-02-7.49629E-05 2.78537E-02-1.03954E-14 4.81322E-13
 -1      3290 2.00060E+01 1.45328E-02-7.88817E-05 7.68130E-03 3.14840E-13-4.30674E-15
 -1      3291 2.00082E+01 1.79099E-02 2.16675E-04 1.17063E-02 2.52766E-13 1.57121E-13
 -1      3292 2.00086E+01 2.40130E-02-6.52117E-05 1.56352E-02 2.54495E-13 1.53092E-14
 -1      3293 2.00039E+01 9.31809E-03-5.16542E-05 1.63407E-03 1.60815E-13 9.51351E-14
 -1      3294 2.00053E+01 1.18039E-02 1.55119E-04 4.32682E-03 2.75503E-13 8.43986E-14
 -1      3295 2.00065E+01 1.60789E-02-5.48976E-05 7.08909E-03 2.96606E-13 3.93686E-14
 -1      3296 2.00023E+01 5.48630E-03-3.30482E-05-2.26304E-03-3.02882E-14 9.29786E-14
 -1      3297 2.00032E+01 7.31071E-03 1.08472E-04-5.63361E-04 1.60006E-13 1.23617E-13
 -1      3298 2.00047E+01 1.02130E-02-4.49345E-05 1.31554E-03 1.16619E-13 4.08898E-13
 -1      3299 2.00012E+01 2.63768E-03-2.10694E-05-4.56091E-03-8.43885E-15 9.62885E-14
 -1      3300 2.00018E+01 3.99991E-03 7.41229E-05-3.60165E-03-4.61476E-14-1.08076E-13
 -1      3301 2.00033E+01 5.88914E-03-3.58310E-05-2.38557E-03 5.05276E-14 3.57958E-13
 -1      3302 2.00005E+01 4.52359E-04-4.52623E-06-5.64290E-03 6.74995E-14 2.42237E-13
 -1      3303 2.00008E+01 1.48316E-03 4.53692E-05-5.25599E-03-2.06664E-14 6.29778E-14
 -1      3304 2.00022E+01 2.65111E-03-2.65399E-05-4.54299E-03-3.98721E-14-1.06867E-13
 -1      3305 2.00005E+01-8.59067E-04 2.84765E-06-5.75215E-03-1.23361E-13 1.88936E-13
 -1      3306 2.00004E+01-1.65639E-04 8.46841E-06-5.79081E-03 1.10479E-14 1.91705E-13
 -1      3307 2.00016E+01 5.57175E-04-1.20481E-05-5.38582E-03-9.11528E-14-1.86655E-13
 -1      3308 2.00014E+01-9.47499E-04-2.74512E-06-5.51810E-03-1.64121E-14-1.58501E-13
 -1      3309 2.06275E+01 4.85458E-01 3.77819E-04-1.12726E+00 1.28579E-13-5.25410E-14
 -1      3310 2.05802E+01 6.38107E-01 5.08226E-03-9.74766E-01 1.80143E-13-6.47678E-14
 -1      3311 2.20979E+01-4.55897E+00-5.71939E-02 3.99588E+00 2.88033E-13 1.37806E-14
 -1      3312 1.97124E+01-3.79262E+00 1.36759E-01 4.87030E+00 3.48235E-13-1.32439E-13
 -1      3313 2.00042E+01 9.40120E-04-8.20927E-06 3.50315E-04 1.40253E-13-3.04758E-13
 -1      3314 2.00042E+01 9.42752E-04-8.67779E-06-3.70372E-04 2.49156E-13-5.15457E-13
 -1      3315 2.00049E+01 3.00529E-03 3.37172E-05 6.32334E-04 3.73140E-13-2.48921E-13
 -1      3316 2.51698E+01-4.28755E+00-4.71992E-02 1.76878E+00-1.17236E-13-5.31302E-13
 -1      3317 2.35019E+01-4.65660E+00 3.76046E-02 3.24629E+00-1.46837E-13-5.24471E-13
 -1      3318 2.00029E+01 7.01919E-07-3.03547E-06 4.37939E-03 1.39651E-13 6.93301E-14
 -1      3319 2.00034E+01 9.80578E-05-7.45472E-06 3.76988E-03 1.68333E-13 4.20668E-14
 -1      3320 1.05409E+01-8.46099E-01 1.33729E-01-3.64221E+00-1.49110E-13-6.30079E-13
 -1      3321 1.25033E+01-1.76659E+00 3.87335E-02-4.90116E+00-2.20650E-13-5.31242E-13
 -1      3322 2.55284E+01 3.65986E+00-1.00181E-01-1.51255E+00 4.62547E-13-1.41618E-13
 -1      3323 2.53780E+01-4.36245E+00 8.53707E-02-2.09667E+00-3.43526E-13 8.92827E-14
 -1      3324 2.64188E+01-3.60032E+00-8.91596E-02-5.22277E-01-3.00567E-13 1.76727E-13
 -1      3325 1.64441E+01-3.08113E+00-4.94923E-02 5.34291E+00 3.57200E-13-2.53270E-13
 -1      3326 1.39883E+01-1.80022E+00 1.91980E-01 4.92268E+00 3.94684E-13-3.29424E-13
 -1      3327 2.78249E+01 4.52369E+00-1.31497E-01 1.59868E+00-6.44790E-13-1.60767E-13
 -1      3328 2.00037E+01 4.46318E-04-5.14055E-06 3.11125E-03 1.47157E-13-5.85688E-14
 -1      3329 2.00039E+01 5.32262E-04-1.18190E-05 2.42456E-03 2.20263E-13-1.03727E-13
 -1      3330 2.00047E+01 2.63632E-03 2.81451E-05 1.93919E-03 3.52010E-13-7.38100E-14
 -1      3331 2.00041E+01 1.97447E-03 2.29865E-06 3.25529E-03 1.58579E-13 1.10520E-14
 -1      3332 2.07741E+01 1.56467E-01 9.88303E-04-1.36742E+00 9.05407E-14-7.82113E-14
 -1      3333 2.06765E+01 3.30657E-01 6.50464E-03-1.27434E+00 1.08202E-13-5.62643E-14
 -1      3334 2.03931E+01 5.14077E-01-5.32244E-03-1.25162E+00 1.23578E-13-9.61030E-14
 -1      3335 2.03095E+01 1.55326E+00 1.77927E-03 2.19597E-01-1.75681E-13-3.06824E-13
 -1      3336 2.03008E+01 1.33589E+00-1.94780E-03 4.87247E-01-1.58789E-13-2.96610E-13
 -1      3337 2.00545E+01 1.45492E+00 4.09215E-05 5.91699E-01-1.36454E-13-2.97821E-13
 -1      3338 2.87536E+01-1.01391E+00-1.03374E-01-1.40994E+00-6.17333E-13 5.44564E-13
 -1      3339 2.78856E+01-2.09476E+00 6.67889E-03-8.33513E-01-4.47871E-13 4.93577E-13
 -1      3340 9.41067E+00-9.58085E-01 1.96665E-01 3.76928E+00-4.38663E-13 4.41869E-13
 -1      3341 8.72493E+00-2.66761E-01 1.08643E-01 1.87217E+00-3.65097E-13 4.24327E-13
 -1      3342 2.21744E+01-1.42914E+00-7.96952E-03-1.21101E+00-7.94460E-15-1.06565E-13
 -1      3343 2.18608E+01-1.09581E+00 1.92448E-02-1.39731E+00-2.08642E-14-7.74934E-14
 -1      3344 2.13218E+01-1.06925E+00-2.16938E-02-1.70972E+00-4.11391E-14-1.28261E-13
 -1      3345 2.73611E+01 4.02178E-01-5.81309E-02 2.26989E+00-1.53488E-13-4.30538E-13
 -1      3346 2.69488E+01 3.05731E+00-1.65295E-01-2.09849E+00-7.55229E-13 2.84987E-13
 -1      3347 1.89620E+01 2.92174E+00-2.66443E-03-7.14992E-02 1.90486E-13-3.87570E-13
 -1      3348 1.88609E+01 2.99071E+00-5.66049E-03-7.77915E-02 1.39047E-13-4.02777E-13
 -1      3349 2.05971E+01 1.24733E+00 1.84496E-04-1.31987E-01 3.18992E-13-7.50076E-14
 -1      3350 2.03845E+01 1.60827E+00 1.56164E-03-4.02356E-02 3.36575E-13-1.08137E-13
 -1      3351 2.02841E+01 1.49119E+00 3.66993E-03-2.79197E-01 2.87011E-13-1.26434E-13
 -1      3352 2.05893E+01 1.04332E+00-1.78575E-03-4.04908E-01 2.77335E-13-8.11914E-14
 -1      3353 2.66327E+01-3.74824E+00 2.88021E-02-4.78299E-01 4.20501E-13-1.55792E-13
 -1      3354 2.71772E+01-2.38155E+00-5.58062E-02 9.34683E-01 2.23252E-13-2.66405E-13
 -1      3355 2.01394E+01 1.99706E+00-3.37006E-03-6.48141E-02-1.75971E-13-3.62983E-13
 -1      3356 2.02311E+01 1.76935E+00 1.71556E-03 8.62079E-02-1.76306E-13-3.25632E-13
 -1      3357 1.98282E+01 2.31097E+00-3.43200E-03-3.97765E-02-1.30617E-13-4.39542E-13
 -1      3358 2.71412E+01-1.33800E+00-7.57829E-02 1.90118E+00 1.50203E-13-4.13641E-13
 -1      3359 1.52760E+01-2.71172E+00 1.33493E-01-5.45653E+00-3.18745E-13-5.13062E-13
 -1      3360 1.77713E+01-3.88853E+00-3.36652E-02-5.59919E+00-3.85331E-13-4.77104E-13
 -1      3361 2.07125E+01-4.37257E+00 1.19829E-01-4.81660E+00-4.26784E-13-3.29931E-13
 -1      3362 2.31533E+01-4.89711E+00-9.34192E-02-3.68822E+00-3.86247E-13-9.23601E-14
 -1      3363 2.57466E+01 2.56486E+00-1.22775E-01-2.19009E+00 4.03302E-13-2.12181E-13
 -1      3364 1.88051E+01 3.03948E+00-3.74364E-03-3.49933E-02 1.30314E-13-4.11839E-13
 -1      3365 1.87947E+01 3.04647E+00-4.50257E-03-3.25951E-02 9.97937E-14-4.41733E-13
 -1      3366 1.88373E+01 2.79983E+00 7.37118E-03-9.43376E-02 1.24441E-13-3.92589E-13
 -1      3367 1.60510E+01-3.42263E+00 1.59497E-01-5.67503E+00 2.67189E-13 5.85546E-13
 -1      3368 1.82416E+01-4.01783E+00-1.96051E-02-5.24859E+00 4.28962E-13 2.58023E-13
 -1      3369 1.48592E+01-2.56685E+00 7.82626E-02-5.24875E+00 1.63813E-13 6.66842E-13
 -1      3370 2.70238E+01-9.49851E-01 2.67880E-02-1.76875E+00 1.71044E-13-5.05651E-13
 -1      3371 2.00023E+01 2.01965E-04-1.08334E-05 5.02627E-03 1.55856E-13 1.01366E-13
 -1      3372 2.00026E+01-4.18212E-05-1.68575E-05 4.73292E-03 9.78729E-14 9.36817E-14
 -1      3373 2.00035E+01 1.58965E-03 2.90589E-05 4.18018E-03 2.69748E-13-8.61977E-14
 -1      3374 2.00028E+01 1.48152E-03 4.72835E-05 4.76104E-03 1.46880E-13-4.00103E-14
 -1      3375 1.02209E+01-3.31215E-01 1.26656E-01-2.81910E+00-8.50327E-14-6.41640E-13
 -1      3376 1.21598E+01-2.34494E-01 8.57637E-02-3.01535E+00-1.10351E-13-5.08801E-13
 -1      3377 1.00398E+01 1.08554E-01 4.70487E-02-1.59335E+00 1.09409E-14-5.79814E-13
 -1      3378 9.65595E+00 5.77789E-02 1.45947E-01 1.05522E+00 1.73035E-13-6.54116E-13
 -1      3379 2.23702E+01-4.57002E+00 1.41471E-02 3.85410E+00-1.74714E-13-5.44947E-13
 -1      3380 2.09861E+01-4.15797E+00 4.02461E-02 4.24463E+00-2.29955E-13-4.61076E-13
 -1      3381 2.32074E+01-4.14552E+00 3.10703E-02 2.77235E+00-2.08082E-13-5.45952E-13
 -1      3382 2.48418E+01-3.20817E+00 8.49499E-03 6.10138E-01 5.11336E-14 3.85280E-13
 -1      3383 2.46141E+01-4.11746E+00-1.09452E-01 1.62019E+00 1.40389E-13 3.27482E-13
 -1      3384 2.40120E+01-4.29784E+00 7.05374E-02 2.68819E+00 2.23935E-13 1.73165E-13
 -1      3385 2.40764E+01-3.07510E+00 4.58477E-02 1.22070E+00 9.73336E-14 3.06432E-13
 -1      3386 2.69543E+01 4.64412E+00-9.69912E-02-1.45097E+00-7.77794E-13 1.34087E-13
 -1      3387 1.98285E+01-3.60296E+00 7.95424E-02-4.58034E+00-3.82611E-13-3.15548E-13
 -1      3388 2.05225E+01 1.10369E-01-9.21805E-03-1.52107E+00 7.50347E-14-1.05702E-13
 -1      3389 2.27884E+01-3.83548E+00 2.35566E-02 2.94083E+00 2.25635E-13 1.21722E-13
 -1      3390 2.21515E+01-1.83826E+00-2.82682E-02-1.48647E+00-8.04022E-14-9.41918E-14
 -1      3391 2.60549E+01-1.65454E+00-5.53954E-02 1.34896E+00-1.14134E-13 2.50753E-13
 -1      3392 2.39532E+01-4.29763E+00 6.39184E-03-2.56652E+00-3.44384E-13 7.91728E-15
 -1      3393 2.41532E+01-2.19025E+00 2.21387E-02-3.06731E-01-3.85529E-14-3.03113E-13
 -1      3394 2.44630E+01-2.08631E+00-6.49122E-03-8.11442E-01 1.99797E-14-2.61165E-13
 -1      3395 2.00039E+01 5.52461E-04-1.14818E-05-2.44785E-03 4.34179E-13 1.71011E-13
 -1      3396 2.00037E+01 4.75100E-04 1.10031E-06-3.12348E-03 4.45317E-13 1.93166E-13
 -1      3397 1.86111E+01-2.89714E+00 7.62116E-02 4.53146E+00 3.49151E-13-1.77726E-13
 -1      3398 1.90387E+01 2.86323E+00-5.31805E-03 5.35293E-02 9.52720E-15-4.45709E-13
 -1      3399 1.92048E+01 2.74292E+00-2.41007E-03 4.42495E-02-3.29953E-14-4.28185E-13
 -1      3400 2.58753E+01-3.84748E+00-1.07578E-03 8.45501E-01-6.55830E-14-5.55646E-13
 -1      3401 2.46620E+01-3.93815E+00-1.27560E-02 1.45891E+00-1.41833E-13-4.73338E-13
 -1      3402 2.60726E+01-3.24908E+00-3.64942E-02-8.47627E-02-6.70432E-14-4.91253E-13
 -1      3403 2.00042E+01 8.52328E-04-1.16616E-05-1.05305E-03 3.10488E-13-3.34387E-13
 -1      3404 2.00041E+01 8.07539E-04-4.08434E-06-1.76378E-03 4.23267E-13-1.45663E-13
 -1      3405 2.00046E+01 2.64905E-03 2.67320E-05-1.96458E-03 4.72692E-13-4.53905E-14
 -1      3406 2.00049E+01 3.01099E-03 3.32432E-05-6.65800E-04 2.00720E-13-4.41856E-13
 -1      3407 1.84057E+01-3.73143E+00 5.16378E-02 5.12648E+00-3.83554E-13-9.07677E-14
 -1      3408 1.63892E+01-3.57395E+00 1.16782E-01 5.76152E+00-3.93366E-13 1.37564E-13
 -1      3409 1.50713E+01-2.78880E+00 5.79373E-02 5.41609E+00-4.43055E-13 1.84651E-13
 -1      3410 1.48549E+01-1.80039E+00 9.67136E-02-4.68651E+00-2.34972E-13-4.77042E-13
 -1      3411 1.93821E+01 2.63659E+00-5.99095E-03 3.20562E-02-5.92409E-14-4.27598E-13
 -1      3412 1.96083E+01 2.45683E+00-2.89829E-03 6.77041E-03-9.99613E-14-4.54095E-13
 -1      3413 1.97068E+01 2.24053E+00 4.66861E-03 1.24130E-01-1.08884E-13-4.05934E-13
 -1      3414 1.93011E+01 2.49012E+00 5.68238E-03 1.65165E-01-3.97757E-14-4.04377E-13
 -1      3415 2.54778E+01-3.07767E+00-1.59221E-02-1.04403E-01-2.40391E-13 1.44774E-13
 -1      3416 2.64579E+01-2.65285E+00-1.17616E-02 5.47154E-01-2.26655E-13 2.15047E-13
 -1      3417 8.85606E+00 1.65749E-01 2.09647E-01 8.36486E-01-2.92175E-13 2.58960E-13
 -1      3418 9.26858E+00 1.52001E-01 1.15023E-01-2.28201E-01-2.01402E-13 3.11667E-13
 -1      3419 1.00909E+01-2.34836E-03 7.54147E-02 2.01323E+00-3.32050E-13 4.65711E-13
 -1      3420 1.01854E+01-9.30715E-01 1.70600E-01-3.68377E+00-4.47489E-14 7.09238E-13
 -1      3421 1.20476E+01-1.26222E+00 4.78323E-02-4.17573E+00-1.42872E-14 7.83471E-13
 -1      3422 1.01433E+01-2.97094E-01 7.29252E-02-2.59634E+00-8.89080E-14 6.18589E-13
 -1      3423 1.97120E+01 2.30684E+00-3.11473E-03-3.97584E-02 2.96677E-13-2.75003E-13
 -1      3424 1.94828E+01 2.49594E+00-5.86465E-03-7.69366E-02 2.62467E-13-2.93900E-13
 -1      3425 1.98701E+01 1.95309E+00 5.52413E-03-2.29111E-01 2.71301E-13-2.40600E-13
 -1      3426 2.37856E+01-4.78615E+00 5.40547E-02-3.21049E+00 5.23123E-13-4.83294E-14
 -1      3427 2.53613E+01-4.37276E+00-6.00821E-02-1.70750E+00 4.84605E-13-6.60097E-14
 -1      3428 2.12323E+01-4.21086E+00 1.29203E-01-4.30485E+00 5.56936E-13 1.28261E-13
 -1      3429 2.25713E+01-4.68631E+00 2.81843E-02-3.88905E+00 5.43614E-13 4.99861E-14
 -1      3430 2.32562E+01-4.23166E+00 1.74631E-02-2.76987E+00 5.18197E-13-2.85987E-14
 -1      3431 1.15430E+01-1.34909E+00 1.16016E-01 4.27100E+00-4.95853E-13 4.21288E-13
 -1      3432 1.99958E+01 1.86836E+00-2.42373E-03 2.16020E-01-1.44527E-13-3.37701E-13
 -1      3433 2.77651E+01-5.51570E-02-1.05575E-01-2.02987E+00-6.56801E-13 5.59552E-13
 -1      3434 2.52830E+01-4.01552E+00-2.34985E-02-1.17584E+00 5.10429E-13-1.31738E-13
 -1      3435 2.00034E+01 8.77806E-05-9.60863E-06-3.69995E-03 4.43414E-13 1.52077E-13
 -1      3436 2.00030E+01-3.72464E-05 1.97847E-06-4.21208E-03 2.75994E-13 1.15743E-13
 -1      3437 2.00041E+01 1.98162E-03 1.98960E-05-3.17287E-03 3.79494E-13 1.81067E-13
 -1      3438 1.92776E+01 2.67386E+00-2.43282E-03-7.44965E-02 2.58473E-13-3.22302E-13
 -1      3439 1.91013E+01 2.80281E+00-6.24661E-03-9.68672E-02 2.13449E-13-3.63925E-13
 -1      3440 1.90465E+01 2.63764E+00 6.97354E-03-1.81057E-01 1.80918E-13-3.54256E-13
 -1      3441 1.94087E+01 2.34830E+00 6.26011E-03-2.25584E-01 2.29852E-13-2.93232E-13
 -1      3442 2.69245E+01-2.87035E+00-2.13557E-02-3.07150E-01-2.46294E-13 4.68042E-13
 -1      3443 2.29669E+01-3.28954E+00-5.55288E-02 2.13196E+00 1.72523E-13 2.14452E-13
 -1      3444 2.67103E+01 5.26119E+00-1.01986E-01-2.82597E-01-7.89951E-13-5.47132E-14
 -1      3445 2.37285E+01-2.57414E+00-2.23917E-02 4.14873E-01-1.01467E-13-2.01553E-13
 -1      3446 2.05898E+01 7.50022E-01-2.92003E-04-8.09169E-01 2.12097E-13-8.85541E-14
 -1      3447 2.05783E+01 9.11403E-01 4.29813E-03-5.99593E-01 2.34128E-13-9.00560E-14
 -1      3448 2.04201E+01 1.10318E+00-3.07756E-03-5.45942E-01 2.57366E-13-9.42281E-14
 -1      3449 2.03789E+01 8.29270E-01-3.04371E-03-9.21667E-01 1.86383E-13-1.05464E-13
 -1      3450 1.88308E+01 3.01959E+00-4.95989E-03 1.52855E-02 7.34416E-14-4.57983E-13
 -1      3451 1.89130E+01 2.96265E+00-3.66521E-03 1.58246E-02 2.83117E-14-4.57108E-13
 -1      3452 1.89776E+01 2.69448E+00 5.62522E-03 1.20497E-01 1.46587E-14-4.27245E-13
 -1      3453 2.66621E+01 4.99324E+00-1.84477E-01 9.39488E-01-7.05436E-13-1.30560E-13
 -1      3454 1.96083E+01 1.01171E+00-8.16710E-04 1.28976E+00-4.27179E-14-2.49357E-13
 -1      3455 1.95950E+01 8.34097E-01 4.07693E-03 1.47913E+00-4.14374E-14-2.29045E-13
 -1      3456 1.95014E+01 6.34539E-01-6.17310E-04 1.68615E+00-4.89944E-14-1.90242E-13
 -1      3457 1.95445E+01 4.08207E-01 8.53290E-03 1.86328E+00-2.52424E-14-1.76878E-13
 -1      3458 1.91552E+01 8.99908E-01 1.72483E-05 1.54567E+00-2.06277E-14-2.08177E-13
 -1      3459 1.94872E+01 1.35063E-01 1.76117E-03 2.09063E+00 1.68503E-14-1.46377E-13
 -1      3460 1.96390E+01-1.88956E-01 1.46240E-02 2.25680E+00 8.51281E-14-1.12054E-13
 -1      3461 1.89883E+01 4.29271E-01-4.35557E-03 1.99044E+00 3.28385E-14-1.42287E-13
 -1      3462 1.96846E+01-5.83114E-01 9.70274E-03 2.51338E+00 1.25745E-13-8.99905E-14
 -1      3463 2.00199E+01-1.05902E+00 2.11397E-02 2.65204E+00 1.88445E-13-8.68602E-14
 -1      3464 1.89406E+01-2.42671E-01-1.20289E-02 2.50509E+00 1.09522E-13-8.42963E-14
 -1      3465 2.02991E+01-1.60028E+00 3.39021E-02 2.91602E+00 2.45856E-13-6.97966E-14
 -1      3466 2.09078E+01-2.26948E+00 2.54859E-02 2.97332E+00 2.48486E-13-1.00050E-14
 -1      3467 1.91681E+01-1.24575E+00-2.61009E-02 3.10373E+00 2.10998E-13-9.01362E-14
 -1      3468 1.88222E+01-2.80088E+00 9.44314E-02-4.50287E+00-3.41255E-13-3.10564E-13
 -1      3469 2.08584E+01-3.64283E+00-4.44288E-02-3.91737E+00-3.68306E-13-1.64672E-13
 -1      3470 2.09030E+01-2.18454E+00 7.29441E-03-2.67294E+00 1.48954E-13-1.44136E-13
 -1      3471 2.03722E+01-1.51901E+00 4.07315E-02-2.62047E+00 1.85238E-13-1.33662E-13
 -1      3472 2.00438E+01-1.04707E+00 1.56389E-02-2.41170E+00 2.40803E-13-1.65072E-13
 -1      3473 1.97036E+01-6.06520E-01 1.01150E-02-2.30679E+00 2.31953E-13-1.69794E-13
 -1      3474 1.92446E+01-1.26912E+00-3.23667E-02-2.85860E+00 1.47642E-13-1.21677E-13
 -1      3475 1.96183E+01-2.59751E-01 1.40134E-02-2.08528E+00 1.46805E-13-2.13505E-13
 -1      3476 1.94433E+01 1.07012E-02 1.31320E-03-1.95920E+00 7.48028E-14-2.28422E-13
 -1      3477 1.89261E+01-3.24471E-01-1.28098E-02-2.34098E+00 1.55066E-13-2.01961E-13
 -1      3478 1.94670E+01 2.20686E-01 8.78364E-03-1.77313E+00 1.44050E-13-1.91077E-13
 -1      3479 1.93945E+01 3.72619E-01-1.73951E-03-1.64759E+00 1.25734E-13-1.08231E-13
 -1      3480 1.89025E+01 2.32843E-01-4.76046E-03-1.90599E+00 1.32481E-13-1.44928E-13
 -1      3481 1.94643E+01 4.83871E-01 5.51873E-03-1.49420E+00 5.62402E-14-1.03157E-13
 -1      3482 1.94458E+01 5.54679E-01-2.79284E-03-1.37695E+00 3.54103E-14-2.89015E-14
 -1      3483 1.90085E+01 5.39284E-01-6.42283E-04-1.55810E+00 1.32407E-13 1.05557E-14
 -1      3484 1.95296E+01 5.99823E-01 3.49666E-03-1.24955E+00-1.40660E-13-2.93876E-14
 -1      3485 1.95361E+01 6.18603E-01-3.03168E-03-1.14271E+00-9.76491E-14-1.28295E-13
 -1      3486 1.91642E+01 6.78719E-01 1.33784E-03-1.27812E+00-5.57605E-15 4.11896E-14
 -1      3487 1.96179E+01 6.22555E-01 2.32454E-03-1.03552E+00 6.61328E-15-2.12088E-13
 -1      3488 1.96336E+01 6.10305E-01-2.91640E-03-9.39668E-01 2.78488E-14-2.15165E-13
 -1      3489 1.93271E+01 7.11725E-01 2.08580E-03-1.04803E+00-9.29771E-14 2.87402E-14
 -1      3490 1.97061E+01 5.90635E-01 1.67925E-03-8.48678E-01 1.00289E-13-2.09644E-13
 -1      3491 1.97229E+01 5.61665E-01-2.64922E-03-7.63998E-01 6.34837E-14-1.15141E-13
 -1      3492 1.94766E+01 6.81249E-01 2.19154E-03-8.55261E-01 6.38996E-14-8.82522E-14
 -1      3493 1.97838E+01 5.30099E-01 1.32561E-03-6.86678E-01-1.58463E-14-2.26925E-13
 -1      3494 1.97980E+01 4.93708E-01-2.32495E-03-6.13106E-01-1.31842E-13-1.38416E-13
 -1      3495 1.96045E+01 6.16450E-01 2.00016E-03-6.92011E-01 1.82041E-14-5.23578E-14
 -1      3496 1.98473E+01 4.57685E-01 1.12007E-03-5.47782E-01-2.07890E-13-3.65899E-14
 -1      3497 1.98581E+01 4.19628E-01-1.98796E-03-4.85000E-01-1.63872E-13 4.50899E-14
 -1      3498 1.97091E+01 5.36339E-01 1.68963E-03-5.53592E-01-6.86839E-14-4.63419E-14
 -1      3499 1.98968E+01 3.83642E-01 9.79639E-04-4.30424E-01-1.50963E-13 2.95139E-15
 -1      3500 1.99042E+01 3.47318E-01-1.65962E-03-3.77833E-01-8.74468E-14 3.87003E-14
 -1      3501 1.97917E+01 4.52854E-01 1.36793E-03-4.37000E-01-1.52650E-13 2.43797E-13
 -1      3502 1.99338E+01 3.13931E-01 8.62165E-04-3.32862E-01-1.28485E-13-3.34234E-14
 -1      3503 1.99384E+01 2.81165E-01-1.35627E-03-2.89588E-01-1.37736E-13-1.34634E-13
 -1      3504 1.98553E+01 3.73118E-01 1.07081E-03-3.39937E-01-1.14981E-13 6.32053E-14
 -1      3505 1.99606E+01 2.51634E-01 7.52074E-04-2.53065E-01-2.00800E-13-9.82460E-14
 -1      3506 1.99630E+01 2.23199E-01-1.09064E-03-2.18067E-01-1.19023E-13-1.86257E-13
 -1      3507 1.99029E+01 3.01045E-01 8.11370E-04-2.60231E-01-1.50393E-13-3.64551E-14
 -1      3508 1.99793E+01 1.97943E-01 6.45597E-04-1.88859E-01-6.61007E-14-2.74134E-13
 -1      3509 1.99802E+01 1.73972E-01-8.63572E-04-1.61036E-01-5.90931E-14-3.12621E-13
 -1      3510 1.99378E+01 2.38346E-01 5.98701E-04-1.95729E-01-1.51242E-13-1.29037E-13
 -1      3511 1.99919E+01 1.52939E-01 5.43348E-04-1.38055E-01 5.04045E-14-2.63696E-13
 -1      3512 1.99918E+01 1.33211E-01-6.72130E-04-1.16311E-01 1.45223E-13-2.21195E-13
 -1      3513 1.99628E+01 1.85352E-01 4.31408E-04-1.44354E-01-2.62487E-14 1.56050E-14
 -1      3514 1.99999E+01 1.16085E-01 4.48176E-04-9.85287E-02-8.57841E-14-3.48825E-13
 -1      3515 1.99992E+01 1.00186E-01-5.13904E-04-8.18231E-02-8.45691E-14-4.12565E-13
 -1      3516 1.99801E+01 1.41617E-01 3.02260E-04-1.04104E-01-2.29441E-14-1.24059E-13
 -1      3517 2.00047E+01 8.65182E-02 3.62668E-04-6.82943E-02 4.26114E-14-5.17612E-13
 -1      3518 2.00037E+01 7.39477E-02-3.85846E-04-5.56819E-02 2.07388E-16-4.17512E-13
 -1      3519 1.99918E+01 1.06279E-01 2.05137E-04-7.30927E-02-4.16672E-14-2.78312E-13
 -1      3520 2.00072E+01 6.32388E-02 2.88029E-04-4.55710E-02 1.12176E-13-3.78930E-13
 -1      3521 2.00060E+01 5.34757E-02-2.84230E-04-3.62235E-02 1.14343E-13-3.55368E-13
 -1      3522 1.99992E+01 7.82670E-02 1.33906E-04-4.96050E-02 8.68777E-14-3.42582E-13
 -1      3523 2.00081E+01 4.52301E-02 2.24515E-04-2.88115E-02 3.21678E-14-2.87540E-13
 -1      3524 2.00069E+01 3.77753E-02-2.05108E-04-2.20236E-02 1.48219E-13-2.02522E-13
 -1      3525 2.00036E+01 5.64539E-02 8.29435E-05-3.21368E-02 4.85684E-14-3.23175E-13
 -1      3526 2.00080E+01 3.15303E-02 1.71765E-04-1.67076E-02 2.46687E-13-3.41764E-13
 -1      3527 2.00069E+01 2.59275E-02-1.44751E-04-1.18942E-02 1.70750E-13-4.12182E-13
 -1      3528 2.00058E+01 3.97530E-02 4.74909E-05-1.94031E-02 1.17326E-13-4.54025E-13
 -1      3529 2.00073E+01 2.12669E-02 1.29030E-04-8.18050E-03 6.20352E-14-4.04002E-13
 -1      3530 2.00063E+01 1.71108E-02-9.99109E-05-4.86820E-03 4.78182E-14-5.39775E-13
 -1      3531 2.00066E+01 2.71648E-02 2.34762E-05-1.03333E-02 8.42946E-14-4.97710E-13
 -1      3532 2.00063E+01 1.36694E-02 9.50248E-05-2.36335E-03 1.15792E-13-5.47054E-13
 -1      3533 2.00054E+01 1.06139E-02-6.43733E-05-1.80926E-04 1.77417E-13-6.25604E-13
 -1      3534 2.00065E+01 1.78002E-02 8.48433E-06-4.05781E-03 8.36870E-14-3.76631E-13
 -1      3535 2.00050E+01 8.03740E-03 5.93310E-05 1.43994E-03 3.08917E-13-6.08538E-13
 -1      3536 2.00043E+01 5.80242E-03-2.78909E-05 2.74632E-03 2.86073E-13-3.51442E-13
 -1      3537 2.00057E+01 1.08965E-02 1.01616E-06 1.21154E-04 3.02491E-13-5.23126E-13
 -1      3538 2.17886E+01-3.12538E+00 6.13941E-02 3.12974E+00 2.73819E-13 4.36302E-14
 -1      3539 1.33804E+01-9.55930E-01 1.05568E-01 3.89557E+00 3.37494E-13-4.15765E-13
 -1      3540 2.33546E+01-3.00269E+00-1.22901E-02-1.40292E+00-1.88429E-13-2.13891E-15
 -1      3541 2.27659E+01-2.56426E+00 4.58063E-02-1.73732E+00-1.90516E-13-5.06511E-14
 -1      3542 2.59740E+01 1.50989E+00-9.51421E-02 2.27293E+00 2.27346E-13 4.03528E-13
 -1      3543 2.17768E+01-1.93697E+00 3.22336E-02 1.81695E+00-2.32464E-13-9.51877E-14
 -1      3544 2.23278E+01-2.40209E+00-1.82998E-04 1.61112E+00-2.36373E-13-1.91089E-13
 -1      3545 1.99977E+01 2.65767E-02 3.01508E-03 1.57353E+00 1.08326E-13-5.90091E-14
 -1      3546 2.01492E+01-1.69300E-01 6.70543E-03 1.64295E+00 4.18371E-14-1.15650E-14
 -1      3547 1.98725E+01 2.90790E-01 3.17930E-04 1.36546E+00 1.28782E-14 4.11866E-14
 -1      3548 1.99568E+01 1.78519E-01 5.16988E-03 1.45108E+00 1.26415E-13 8.15124E-14
 -1      3549 1.95743E+01 1.71477E-01-6.03647E-03 1.57916E+00 4.20529E-14 5.73798E-15
 -1      3550 1.98356E+01 4.25158E-01-1.13845E-03 1.16117E+00-6.84253E-14 1.60101E-14
 -1      3551 1.98801E+01 3.72512E-01 3.92030E-03 1.25087E+00-1.38101E-14 8.74269E-14
 -1      3552 1.95535E+01 4.09993E-01-2.24439E-03 1.33136E+00-8.13127E-15 3.15750E-14
 -1      3553 1.98431E+01 4.72292E-01-1.80537E-03 9.70557E-01-1.03334E-13-1.54012E-15
 -1      3554 1.98656E+01 4.58638E-01 2.93287E-03 1.05778E+00-1.03204E-13 4.93309E-15
 -1      3555 1.95943E+01 5.20804E-01-3.80910E-04 1.11001E+00-9.47090E-14 6.69628E-14
 -1      3556 1.98692E+01 4.65093E-01-2.01334E-03 7.98127E-01-1.51967E-13 7.18395E-14
 -1      3557 1.98806E+01 4.75077E-01 2.28706E-03 8.79066E-01-1.38276E-13 2.12936E-14
 -1      3558 1.96600E+01 5.48476E-01 5.05114E-04 9.15258E-01-1.29136E-13 4.57603E-14
 -1      3559 1.99002E+01 4.27141E-01-1.96941E-03 6.45859E-01 5.31918E-14 9.01813E-15
 -1      3560 1.99064E+01 4.49991E-01 1.86970E-03 7.18424E-01-6.20904E-14 2.54257E-14
 -1      3561 1.97305E+01 5.25655E-01 8.57816E-04 7.45569E-01-1.22004E-13-7.07716E-14
 -1      3562 1.99292E+01 3.74363E-01-1.79710E-03 5.14221E-01 1.13932E-13-6.17653E-14
 -1      3563 1.99334E+01 4.02934E-01 1.57980E-03 5.77483E-01 1.44989E-13 7.92082E-14
 -1      3564 1.97956E+01 4.75196E-01 9.24691E-04 5.99321E-01 5.27634E-14 4.57946E-14
 -1      3565 1.99535E+01 3.16906E-01-1.56911E-03 4.02669E-01-1.17729E-13-9.30712E-14
 -1      3566 1.99570E+01 3.46714E-01 1.35793E-03 4.56485E-01 1.99798E-14-5.28935E-14
 -1      3567 1.98511E+01 4.12303E-01 8.43482E-04 4.74861E-01 1.03692E-13 2.46231E-13
 -1      3568 1.99724E+01 2.60920E-01-1.32399E-03 3.09966E-01-5.00106E-14 1.18486E-14
 -1      3569 1.99757E+01 2.89291E-01 1.16946E-03 3.54740E-01-1.54094E-13-1.36640E-13
 -1      3570 1.98958E+01 3.46627E-01 7.07507E-04 3.70498E-01-4.82146E-14 6.39791E-14
 -1      3571 1.99862E+01 2.09851E-01-1.08748E-03 2.34343E-01-6.29857E-14 5.43937E-14
 -1      3572 1.99895E+01 2.35343E-01 9.97110E-04 2.70852E-01-5.92554E-16 7.37846E-15
 -1      3573 1.99305E+01 2.83972E-01 5.58961E-04 2.84402E-01-7.49212E-14-8.17238E-16
 -1      3574 1.99958E+01 1.65288E-01-8.73186E-04 1.73726E-01-7.96743E-14 1.43629E-13
 -1      3575 1.99990E+01 1.87299E-01 8.38923E-04 2.02943E-01-7.98175E-14 1.35972E-13
 -1      3576 1.99564E+01 2.27520E-01 4.19974E-04 2.14512E-01-1.61360E-13 2.23470E-13
 -1      3577 2.00020E+01 1.27655E-01-6.86579E-04 1.25973E-01-7.40533E-14 1.67795E-13
 -1      3578 2.00050E+01 1.46091E-01 6.95243E-04 1.48933E-01-9.63036E-15 2.09979E-13
 -1      3579 1.99751E+01 1.78644E-01 3.04002E-04 1.58681E-01-8.68988E-14 3.26260E-13
 -1      3580 2.00057E+01 9.67083E-02-5.28873E-04 8.90032E-02-1.88561E-13 3.88777E-13
 -1      3581 2.00085E+01 1.11765E-01 5.66239E-04 1.06726E-01-1.84494E-13 2.36898E-13
 -1      3582 1.99881E+01 1.37589E-01 2.11106E-04 1.14815E-01-1.89060E-13 3.42725E-13
 -1      3583 2.00076E+01 7.18366E-02-3.99089E-04 6.08823E-02-1.85701E-13 4.46386E-13
 -1      3584 2.00100E+01 8.38652E-02 4.53119E-04 7.43171E-02-1.62537E-13 4.12663E-13
 -1      3585 1.99968E+01 1.03964E-01 1.39601E-04 8.09273E-02-2.81839E-13 3.98361E-13
 -1      3586 2.00082E+01 5.22544E-02-2.94856E-04 3.98812E-02-3.82803E-14 3.84654E-13
 -1      3587 2.00103E+01 6.16728E-02 3.56249E-04 4.98753E-02-1.31641E-13 4.33929E-13
 -1      3588 2.00022E+01 7.70278E-02 8.66623E-05 5.51956E-02-1.06250E-13 3.37504E-14
 -1      3589 2.00080E+01 3.71276E-02-2.12989E-04 2.45054E-02 1.49788E-13 1.43468E-13
 -1      3590 2.00098E+01 4.43655E-02 2.75079E-04 3.17891E-02 1.15484E-13 3.02901E-13
 -1      3591 2.00052E+01 5.58764E-02 4.89194E-05 3.60087E-02 1.50249E-13-1.42079E-13
 -1      3592 2.00072E+01 2.56472E-02-1.50151E-04 1.34980E-02 3.17131E-13 8.10226E-14
 -1      3593 2.00088E+01 3.11140E-02 2.08479E-04 1.86830E-02 2.31833E-13 4.98688E-14
 -1      3594 2.00066E+01 3.95739E-02 2.31706E-05 2.19829E-02 3.00457E-13-3.62377E-14
 -1      3595 2.00062E+01 1.70687E-02-1.03062E-04 5.82990E-03 2.47266E-14 3.08465E-13
 -1      3596 2.00075E+01 2.11369E-02 1.55007E-04 9.41468E-03 1.74692E-13 1.08087E-13
 -1      3597 2.00069E+01 2.72214E-02 6.24389E-06 1.19597E-02 1.80012E-13 1.38724E-13
 -1      3598 2.00051E+01 1.07260E-02-6.88371E-05 6.79462E-04 6.07877E-14 3.94387E-13
 -1      3599 2.00061E+01 1.37268E-02 1.13091E-04 3.05928E-03 8.72935E-14 4.29344E-13
 -1      3600 2.00064E+01 1.79988E-02-3.67748E-06 4.99359E-03-3.01546E-14 2.16056E-13
 -1      3601 2.00040E+01 6.04003E-03-4.39968E-05-2.58721E-03 1.10823E-13 3.15198E-13
 -1      3602 2.00048E+01 8.25800E-03 8.08563E-05-1.10910E-03 1.48670E-13 4.73623E-13
 -1      3603 2.00056E+01 1.11738E-02-8.53824E-06 3.33950E-04 1.21975E-13 2.60642E-13
 -1      3604 2.00029E+01 2.51299E-03-2.17446E-05-4.44937E-03 4.18622E-14 6.34723E-15
 -1      3605 2.00035E+01 4.18495E-03 5.51720E-05-3.64946E-03 4.31375E-14 2.04424E-13
 -1      3606 2.00045E+01 6.11362E-03-1.00352E-05-2.60071E-03 1.82546E-13 5.11956E-13
 -1      3607 2.20057E+01-2.11524E+00 1.92804E-03-1.89309E+00-1.40265E-13-1.16329E-13
 -1      3608 2.15154E+01-1.63330E+00 2.90601E-02-2.02728E+00-8.24649E-14-1.31519E-13
 -1      3609 2.17731E+01-2.58729E+00-4.66946E-02-2.37616E+00-1.98776E-13-1.26484E-13
 -1      3610 2.01276E+01-2.84494E+00-4.30878E-02 3.76629E+00 3.08361E-13-6.55864E-14
 -1      3611 1.78856E+01-1.83510E+00 5.37754E-02 4.05038E+00 3.37726E-13-1.77691E-13
 -1      3612 2.00053E+01 5.20467E-03-1.32107E-05 8.04784E-04 4.70310E-13 5.69175E-14
 -1      3613 2.00053E+01 5.29311E-03-2.31442E-05 2.21309E-04 3.43737E-13-1.53446E-13
 -1      3614 2.01390E+01 5.78203E-01 2.11134E-03-1.34550E+00 1.14265E-13-1.38830E-13
 -1      3615 2.01020E+01 7.70381E-01 2.29294E-03-1.18325E+00 1.39556E-13-1.40968E-13
 -1      3616 2.02830E+01-4.16809E-01 8.57422E-03 1.76506E+00-6.33780E-14-7.70402E-14
 -1      3617 2.05378E+01-7.23875E-01 6.99229E-03 1.79484E+00-1.70446E-13-9.06348E-14
 -1      3618 1.97184E+01-2.51039E-01-1.30825E-02 1.84854E+00-5.69611E-14-2.04952E-13
 -1      3619 2.08349E+01-1.07496E+00 1.98764E-02 1.87925E+00-1.65127E-13-7.40420E-14
 -1      3620 2.12251E+01-1.49371E+00 5.45304E-03 1.82947E+00-1.41952E-13-9.65738E-14
 -1      3621 2.08481E+01-1.81551E+00-2.13939E-02 2.27455E+00-1.95664E-13-2.02598E-13
 -1      3622 2.00975E+01-9.16223E-01-1.98811E-02 2.11098E+00-1.54552E-13-3.14524E-13
 -1      3623 2.54683E+01-2.71499E+00-2.54585E-02-4.04037E-01-4.59745E-15-2.99765E-13
 -1      3624 1.44404E+01-8.78704E-01 7.39889E-02-3.91664E+00-1.60630E-13-4.27096E-13
 -1      3625 1.64622E+01-2.01817E+00-3.10897E-02-4.54653E+00-2.25420E-13-4.03781E-13
 -1      3626 1.49471E+01-9.94742E-01 1.07295E-02 3.87821E+00 3.26546E-13-3.26933E-13
 -1      3627 1.28826E+01 7.06179E-04 1.28679E-01 2.96169E+00 2.83433E-13-4.54664E-13
 -1      3628 1.36766E+01-1.69037E+00 1.30605E-01 4.84599E+00-4.53880E-13 3.42545E-13
 -1      3629 1.21955E+01-7.61947E-01 4.06928E-02 3.69046E+00-4.37851E-13 3.84456E-13
 -1      3630 2.25169E+01-3.57400E+00 9.02514E-02-3.00134E+00-3.40381E-13-5.84879E-14
 -1      3631 2.38818E+01-3.66431E+00-3.56475E-02-1.79708E+00-2.82838E-13 6.80411E-14
 -1      3632 2.10746E+01-1.20037E+00 5.49179E-03-1.99164E+00-4.73688E-14-1.56125E-13
 -1      3633 2.07437E+01-7.88073E-01 1.57131E-02-1.99576E+00-4.77415E-14-1.45600E-13
 -1      3634 2.06863E+01-1.50271E+00-3.46580E-02-2.38057E+00-9.57631E-14-1.99572E-13
 -1      3635 2.48309E+01-3.29909E+00 2.83271E-02-7.48584E-01-2.39549E-13 8.27784E-14
 -1      3636 2.00025E+01-5.13571E-04-3.26820E-06-4.70237E-03 2.28982E-13 6.89949E-15
 -1      3637 2.00020E+01-5.80136E-04 4.16537E-06-5.10218E-03 9.69981E-14-1.99652E-13
 -1      3638 2.00022E+01 1.86719E-04-5.09317E-06-5.11310E-03 3.99816E-14-1.08766E-13
 -1      3639 2.00033E+01 1.05438E-03-6.68297E-06-4.24584E-03 3.10675E-13 1.32320E-13
 -1      3640 2.41986E+01-3.87805E+00 4.25195E-02-1.82762E+00 5.19505E-13-4.93746E-14
 -1      3641 1.12280E+01 2.67366E-01-2.13071E-02 1.73054E+00 2.05461E-13-5.17787E-13
 -1      3642 1.03540E+01 4.89856E-01 1.29963E-01-2.66935E-02 1.02951E-13-5.60801E-13
 -1      3643 1.18123E+01 5.90170E-01 9.25498E-02-7.12307E-01 3.57154E-14-4.89803E-13
 -1      3644 1.97638E+01 2.03381E+00 3.16083E-04 2.40667E-01-1.09921E-13-3.84692E-13
 -1      3645 1.98394E+01 1.83350E+00 3.34239E-03 3.71591E-01-1.16847E-13-3.46007E-13
 -1      3646 1.95314E+01 2.17086E+00-5.35740E-03 2.71525E-01-7.22322E-14-4.02198E-13
 -1      3647 2.02499E+01 1.39350E-01 5.02235E-03-1.64290E+00 5.08031E-14-1.34175E-13
 -1      3648 2.01505E+01 3.72708E-01 4.47396E-03-1.51944E+00 7.69983E-14-1.15270E-13
 -1      3649 1.98113E+01 6.02059E-01-4.59536E-03-1.46506E+00 8.20310E-14-1.47951E-13
 -1      3650 2.05279E+01-4.36157E-01 6.82577E-03-1.87258E+00-1.46328E-14-1.22724E-13
 -1      3651 2.03316E+01-1.25702E-01 8.15890E-03-1.79885E+00 4.09014E-14-1.10015E-13
 -1      3652 2.01183E+01-5.86588E-01-1.94790E-02-2.14100E+00 9.09136E-15-1.58941E-13
 -1      3653 1.97357E+01 1.35605E+00 3.34064E-04 8.81243E-01-8.14559E-14-2.78003E-13
 -1      3654 1.96999E+01 1.18173E+00 5.01954E-04 1.08904E+00-5.98613E-14-2.79391E-13
 -1      3655 1.93489E+01 1.27316E+00 1.66352E-03 1.13857E+00-4.65531E-14-2.57860E-13
 -1      3656 2.31419E+01-3.80097E+00-1.90241E-03-2.41159E+00 4.36999E-13-3.28088E-14
 -1      3657 1.39259E+01-1.69590E+00 1.42020E-01-4.69757E+00 1.58061E-13 8.21246E-13
 -1      3658 1.58325E+01-2.35786E+00 3.03797E-02-4.81146E+00 2.54019E-13 4.21836E-13
 -1      3659 1.30829E+01-1.01476E+00 3.28320E-02-3.92646E+00 6.99024E-14 6.03080E-13
 -1      3660 1.98082E+01 1.61194E+00-2.61754E-03 6.00113E-01-9.62327E-14-3.17919E-13
 -1      3661 2.22374E+01-3.19740E+00 4.85362E-02-2.65743E+00 2.77074E-13-5.53359E-14
 -1      3662 2.14247E+01-3.03551E+00 1.37284E-02-3.12782E+00-2.94632E-13-1.31476E-13
 -1      3663 1.81404E+01-1.95688E+00 5.91019E-02-3.99381E+00-2.21257E-13-3.05114E-13
 -1      3664 1.97978E+01-3.73922E+00 3.44521E-02-4.45903E+00 4.28005E-13 1.18378E-13
 -1      3665 1.33101E+01 6.90475E-02 1.73778E-02-2.68076E+00-4.16733E-14-4.34153E-13
 -1      3666 1.38525E+01-4.30179E-01 5.44216E-02-3.46774E+00-1.15366E-13-4.20601E-13
 -1      3667 1.56150E+01-5.12505E-01 5.87971E-02-3.37565E+00-1.10227E-13-3.79035E-13
 -1      3668 2.00038E+01 4.24768E-03 4.26436E-05 3.56238E-03 2.11964E-13-2.52181E-13
 -1      3669 2.00032E+01 2.72893E-03-1.12686E-05 4.23151E-03 1.85919E-13-1.57736E-13
 -1      3670 2.00036E+01 2.82327E-03-3.07228E-05 3.98102E-03 3.21708E-13-6.03352E-14
 -1      3671 2.00047E+01 6.09485E-03-1.74654E-05 2.53654E-03 4.10957E-13-2.96035E-13
 -1      3672 1.99897E+01-3.79359E+00 4.75163E-02 4.51113E+00-2.91253E-13-2.93238E-13
 -1      3673 1.86916E+01-3.16624E+00 2.80263E-02 4.56544E+00-3.33501E-13-1.88266E-13
 -1      3674 2.11813E+01-3.64221E+00 2.66871E-02 3.64321E+00-2.31017E-13-4.05577E-13
 -1      3675 2.01486E+01 9.14491E-01 1.18687E-03-1.01368E+00 1.61695E-13-1.41461E-13
 -1      3676 2.01680E+01 1.05209E+00 8.85817E-04-8.41635E-01 1.96081E-13-1.35461E-13
 -1      3677 1.98678E+01 9.80474E-01-4.70821E-05-1.11208E+00 1.49946E-13-1.77345E-13
 -1      3678 1.87752E+01 2.56664E+00-2.20225E-03-1.69868E-01 1.37252E-13-3.72469E-13
 -1      3679 1.87087E+01 2.61297E+00-3.80009E-03-1.07571E-01 1.19876E-13-3.99080E-13
 -1      3680 1.90531E+01 2.36119E+00-1.31410E-03-3.07129E-01 1.82794E-13-3.17406E-13
 -1      3681 1.88917E+01 2.47145E+00-5.83762E-03-2.65763E-01 1.47774E-13-3.38670E-13
 -1      3682 1.87903E+01 2.33509E+00 7.37185E-03-2.94553E-01 1.35185E-13-3.28144E-13
 -1      3683 2.00023E+01 1.02781E-03 2.20128E-05-4.94532E-03 1.33420E-13-9.62577E-14
 -1      3684 2.06627E+01-2.90969E+00-3.17093E-02-3.30203E+00 2.32207E-13-7.71432E-14
 -1      3685 2.00059E+01 7.87587E-03 6.01586E-05-2.10401E-05 2.00076E-13-9.48278E-14
 -1      3686 2.00053E+01 5.29820E-03-2.26558E-05-2.61356E-04 1.39182E-13-3.66962E-13
 -1      3687 2.00053E+01 5.21366E-03-1.56902E-05-8.42152E-04 1.52641E-13-4.60021E-13
 -1      3688 1.56427E+01-2.08268E+00 7.38216E-02 4.68228E+00-4.32272E-13 1.73077E-13
 -1      3689 1.91270E+01 2.40225E+00-4.06297E-03 2.59379E-01-1.79813E-14-3.78932E-13
 -1      3690 1.93213E+01 2.30869E+00 2.88003E-04 2.62744E-01-5.28024E-14-3.90884E-13
 -1      3691 1.93795E+01 2.12183E+00 3.33023E-03 3.76862E-01-5.59161E-14-3.69068E-13
 -1      3692 2.00040E+01 3.02843E-03-9.35967E-06 3.69668E-03 3.22222E-13-3.95415E-14
 -1      3693 2.00042E+01 3.12404E-03-1.19024E-05 3.39879E-03 2.45490E-13 4.25686E-15
 -1      3694 2.00045E+01 4.65332E-03 3.67198E-05 3.12623E-03 3.16553E-13-1.39076E-13
 -1      3695 1.88104E+01 2.82052E+00 6.55701E-03 1.59427E-02 8.27659E-14-4.21424E-13
 -1      3696 1.17940E+01 9.43346E-02 1.26117E-01 2.63366E+00-3.00399E-13 3.82826E-13
 -1      3697 1.13741E+01 3.41369E-01 3.87604E-02 1.70467E+00-2.31450E-13 3.32005E-13
 -1      3698 1.31958E+01 3.78562E-01 7.53246E-02 2.02121E+00 1.81002E-13-4.20036E-13
 -1      3699 1.33993E+01-3.49572E-01 4.56998E-02 3.19079E+00-3.79240E-13 3.28022E-13
 -1      3700 1.03793E+01 4.47385E-01 5.88049E-02 1.29166E-02-1.60780E-13 2.95652E-13
 -1      3701 1.00185E+01 3.44960E-01 1.65031E-01-1.30815E+00-1.40644E-13 3.74742E-13
 -1      3702 1.12568E+01 9.01073E-02 8.41418E-02-2.09810E+00-6.02192E-14 4.70290E-13
 -1      3703 2.00052E+01 4.87605E-03-2.65927E-05-1.34358E-03 2.26774E-13-3.32950E-13
 -1      3704 2.00050E+01 4.62722E-03-5.96495E-06-1.93796E-03 2.61772E-13 7.80917E-14
 -1      3705 2.00058E+01 7.53502E-03 5.20717E-05-8.64457E-04 1.18721E-13-5.26883E-13
 -1      3706 1.95293E+01 1.70824E+00 1.74753E-03 6.60534E-01-6.91694E-14-3.32888E-13
 -1      3707 1.99802E+01 1.61756E+00-8.62107E-04-4.20250E-01 2.61858E-13-2.02856E-13
 -1      3708 1.97235E+01 1.83621E+00-3.68304E-03-4.19070E-01 2.33123E-13-2.55600E-13
 -1      3709 2.00055E+01 6.54439E-03 3.78521E-05-1.73379E-03 2.36564E-13 1.73058E-15
 -1      3710 2.00048E+01 3.99561E-03-2.78159E-05-2.43509E-03 4.36424E-13 2.43679E-13
 -1      3711 2.00045E+01 3.65553E-03-2.10814E-06-2.95986E-03 3.75081E-13 1.55236E-13
 -1      3712 1.84178E+01-1.12192E+00 4.08658E-02 3.30683E+00 2.45666E-13-1.64633E-13
 -1      3713 1.65830E+01-1.20963E+00 2.03738E-02 3.92954E+00 2.99198E-13-2.99498E-13
 -1      3714 1.58111E+01-3.03503E-01 2.19645E-02 3.17447E+00 2.33273E-13-3.14998E-13
 -1      3715 1.80960E+01-5.73841E-01 4.21960E-05 2.97270E+00 1.79005E-13-1.79793E-13
 -1      3716 1.98728E+01 9.29812E-02-1.02369E-02-1.81817E+00 4.07294E-14-1.41154E-13
 -1      3717 2.00047E+01 3.50181E-03-1.72172E-05 2.74277E-03 2.33174E-13-6.51794E-14
 -1      3718 2.69506E+01-1.17086E+00-4.26299E-02-1.89242E+00-5.01099E-13 5.77066E-13
 -1      3719 2.00033E+01 2.26213E-03-7.07552E-06-4.22429E-03 1.73515E-13 1.44233E-13
 -1      3720 1.89598E+01 2.53182E+00-1.86617E-03 1.87642E-01 3.38337E-15-4.23117E-13
 -1      3721 1.89960E+01 2.37580E+00 6.04694E-03 2.80354E-01-5.61867E-15-3.87919E-13
 -1      3722 1.88290E+01 2.62201E+00-4.07794E-03 1.33891E-01 4.86034E-14-4.08525E-13
 -1      3723 2.00052E+01 4.86003E-03-2.80350E-05 1.31917E-03 5.09238E-13-2.97653E-13
 -1      3724 2.00058E+01 7.53610E-03 6.51848E-05 8.45188E-04 5.02713E-13-9.23529E-14
 -1      3725 2.00051E+01 4.64887E-03-3.07533E-06 1.89923E-03 3.40500E-13-3.15465E-13
 -1      3726 2.31978E+01-2.82314E+00 3.86614E-02 1.36374E+00-1.85339E-13-2.02322E-13
 -1      3727 2.38605E+01-3.10613E+00-1.08357E-02 9.19464E-01-7.75421E-14-2.24866E-13
 -1      3728 2.21681E+01-2.88111E+00-2.19412E-02 2.14905E+00-1.97495E-13-2.22797E-13
 -1      3729 2.36068E+01-3.84406E+00 7.03443E-03 2.11654E+00-2.10281E-13-3.54156E-13
 -1      3730 2.26642E+01-3.63560E+00 2.86411E-02 2.61948E+00-1.91435E-13-4.16393E-13
 -1      3731 1.88190E+01 1.17374E+00-5.75495E-03 1.31152E+00-2.68812E-15-2.64265E-13
 -1      3732 1.87304E+01 9.92294E-01 5.50245E-03 1.51470E+00 2.80843E-14-2.35774E-13
 -1      3733 1.84927E+01 7.79680E-01-8.38355E-03 1.74329E+00 4.84237E-14-2.22201E-13
 -1      3734 1.84487E+01 5.44181E-01 1.25909E-02 1.97679E+00 5.95722E-14-2.00553E-13
 -1      3735 1.81910E+01 1.08781E+00 6.86958E-03 1.49411E+00 4.33721E-14-2.53431E-13
 -1      3736 1.81878E+01 2.41732E-01-8.49178E-03 2.27913E+00 8.59566E-14-1.78525E-13
 -1      3737 1.82478E+01-1.06666E-01 2.35212E-02 2.56085E+00 1.34709E-13-1.92695E-13
 -1      3738 1.77075E+01 6.44651E-01 1.01631E-02 2.01947E+00 7.73878E-14-2.68664E-13
 -1      3739 1.94845E+01 1.57752E-01 1.04124E-02-1.92063E+00 3.95801E-14-1.97145E-13
 -1      3740 1.94041E+01 4.33735E-01 3.01173E-04-1.73974E+00 3.43586E-14-1.99548E-13
 -1      3741 1.84020E+01-1.13969E+00 2.05882E-02-3.11313E+00 8.76582E-14 5.32404E-14
 -1      3742 1.80817E+01-5.50449E-01 1.63185E-02-2.79805E+00 1.17770E-13-1.93478E-14
 -1      3743 2.02248E+01-1.52850E+00 2.17723E-02-2.73981E+00-1.11901E-13-1.68886E-13
 -1      3744 1.97996E+01-9.86796E-01 1.84653E-02-2.60445E+00-3.40808E-14-1.56927E-13
 -1      3745 2.07122E+01-2.34359E+00 3.62596E-02-3.09629E+00-2.38456E-13-2.04152E-13
 -1      3746 1.82415E+01-1.93149E-01 1.99540E-02-2.42265E+00 9.70359E-14 1.31302E-14
 -1      3747 1.81484E+01 1.11655E-01-7.85423E-03-2.17381E+00 6.67037E-14-6.31744E-14
 -1      3748 1.72471E+01-1.43419E-01 2.62246E-04-2.61281E+00 4.30255E-14 2.14826E-13
 -1      3749 1.83611E+01 3.52150E-01 1.26983E-02-1.90415E+00 1.18046E-13-1.08845E-13
 -1      3750 1.83704E+01 5.17883E-01-8.46138E-03-1.71271E+00 2.05123E-13-1.28254E-13
 -1      3751 1.76229E+01 4.39036E-01 3.44417E-03-1.96088E+00 1.17152E-13 5.84562E-14
 -1      3752 1.85771E+01 6.46081E-01 6.86453E-03-1.52122E+00 1.85712E-13-2.34197E-13
 -1      3753 1.86357E+01 7.23949E-01-7.13227E-03-1.37167E+00 1.62566E-13-1.73519E-13
 -1      3754 1.80307E+01 7.40164E-01 4.81101E-03-1.50970E+00 1.51396E-13-2.35339E-13
 -1      3755 1.88206E+01 7.77331E-01 3.73811E-03-1.23024E+00 1.53920E-13-1.30607E-13
 -1      3756 1.88958E+01 7.97895E-01-5.76893E-03-1.11035E+00 3.85859E-14-7.41791E-14
 -1      3757 1.84066E+01 8.74307E-01 5.05847E-03-1.19019E+00 1.37468E-13-3.15897E-13
 -1      3758 1.90540E+01 8.03831E-01 2.00827E-03-1.00161E+00-9.91335E-14 7.88820E-14
 -1      3759 1.91291E+01 7.89263E-01-4.65359E-03-9.02619E-01-9.11549E-14 7.76513E-14
 -1      3760 1.87355E+01 9.00531E-01 4.72073E-03-9.53911E-01 7.55511E-14-2.23206E-13
 -1      3761 1.92609E+01 7.66961E-01 1.11989E-03-8.15695E-01-5.22957E-15 3.93720E-14
 -1      3762 1.93280E+01 7.32486E-01-3.79717E-03-7.32229E-01 6.06067E-14 1.40618E-14
 -1      3763 1.90135E+01 8.60653E-01 4.12623E-03-7.70730E-01-5.06754E-14-7.16031E-14
 -1      3764 1.94358E+01 6.95000E-01 7.00312E-04-6.60854E-01 1.49325E-14 5.72580E-14
 -1      3765 1.94920E+01 6.50899E-01-3.12841E-03-5.89881E-01-8.79139E-15 6.58809E-14
 -1      3766 1.92430E+01 7.83265E-01 3.48000E-03-6.22883E-01 3.61904E-14-9.97810E-15
 -1      3767 1.95786E+01 6.06935E-01 5.14317E-04-5.30485E-01-9.76423E-14 5.87427E-14
 -1      3768 1.96237E+01 5.59875E-01-2.58937E-03-4.70214E-01-1.02350E-13 1.48336E-13
 -1      3769 1.94290E+01 6.87810E-01 2.87564E-03-5.00606E-01-7.25473E-14 7.15478E-14
 -1      3770 1.96923E+01 5.14856E-01 4.45900E-04-4.20735E-01-1.42083E-13 2.37339E-13
 -1      3771 1.97272E+01 4.69013E-01-2.12913E-03-3.70049E-01-1.46195E-13 2.71497E-13
 -1      3772 1.95771E+01 5.87041E-01 2.33669E-03-3.98392E-01-1.03557E-13 1.94041E-13
 -1      3773 1.97807E+01 4.26365E-01 4.16575E-04-3.29142E-01-2.15944E-13 2.40357E-13
 -1      3774 1.98070E+01 3.84259E-01-1.72775E-03-2.87055E-01-1.62977E-13 1.37815E-13
 -1      3775 1.96929E+01 4.89095E-01 1.85454E-03-3.13180E-01-2.12514E-13 2.66140E-13
 -1      3776 1.98480E+01 3.45857E-01 3.93471E-04-2.53571E-01-1.55243E-13 1.92424E-14
 -1      3777 1.98673E+01 3.08726E-01-1.39214E-03-2.19109E-01-1.70432E-13 2.22397E-14
 -1      3778 1.97820E+01 3.99155E-01 1.45327E-03-2.42723E-01-2.62300E-13 3.35405E-13
 -1      3779 1.98982E+01 2.75337E-01 3.65660E-04-1.92034E-01-1.32762E-13-9.01297E-14
 -1      3780 1.99120E+01 2.43547E-01-1.11267E-03-1.64259E-01-1.25188E-13-3.40538E-14
 -1      3781 1.98495E+01 3.19703E-01 1.11270E-03-1.85065E-01-2.74771E-13 7.12363E-14
 -1      3782 1.99349E+01 2.15305E-01 3.29473E-04-1.42711E-01-3.92084E-14-1.20024E-13
 -1      3783 1.99445E+01 1.88759E-01-8.75375E-04-1.20695E-01 2.12231E-14-5.83358E-14
 -1      3784 1.98996E+01 2.51541E-01 8.43091E-04-1.38553E-01-1.21546E-13-1.12254E-13
 -1      3785 1.99611E+01 1.65437E-01 2.87776E-04-1.03828E-01-3.47840E-14-1.55598E-13
 -1      3786 1.99675E+01 1.43756E-01-6.77005E-04-8.66635E-02-1.03610E-13-2.52430E-13
 -1      3787 1.99361E+01 1.94474E-01 6.25517E-04-1.01657E-01-9.63329E-14-1.07734E-13
 -1      3788 1.99793E+01 1.24894E-01 2.45594E-04-7.36727E-02-1.96606E-14-1.47372E-13
 -1      3789 1.99833E+01 1.07533E-01-5.14758E-04-6.05134E-02-5.48613E-15-1.56488E-13
 -1      3790 1.99621E+01 1.47754E-01 4.55202E-04-7.28583E-02-2.22575E-14-2.09450E-13
 -1      3791 1.99914E+01 9.25645E-02 2.04873E-04-5.06765E-02-8.05700E-14-5.51422E-14
 -1      3792 1.99938E+01 7.89128E-02-3.84527E-04-4.07631E-02-2.40549E-14-2.17838E-13
 -1      3793 1.99800E+01 1.10252E-01 3.24463E-04-5.07451E-02-4.55107E-14-3.64126E-14
 -1      3794 1.99991E+01 6.72436E-02 1.67154E-04-3.34490E-02 6.34314E-14-3.89608E-13
 -1      3795 2.00003E+01 5.66929E-02-2.81877E-04-2.61202E-02 7.31523E-14-3.86436E-13
 -1      3796 1.99919E+01 8.06928E-02 2.25737E-04-3.40580E-02-5.93965E-14-1.65078E-13
 -1      3797 2.00036E+01 4.77477E-02 1.33542E-04-2.07907E-02 2.43440E-14-3.54727E-13
 -1      3798 2.00040E+01 3.97265E-02-2.02315E-04-1.54859E-02 8.17113E-14-4.05921E-13
 -1      3799 1.99994E+01 5.77912E-02 1.52415E-04-2.16998E-02 1.72325E-14-3.04767E-13
 -1      3800 2.00059E+01 3.29773E-02 1.04709E-04-1.16915E-02 1.32249E-13-3.87006E-13
 -1      3801 2.00058E+01 2.69686E-02-1.42250E-04-7.94653E-03 1.33250E-13-4.27937E-13
 -1      3802 2.00037E+01 4.03352E-02 9.89035E-05-1.27392E-02 6.18804E-14-2.75699E-13
 -1      3803 2.00066E+01 2.19406E-02 8.14441E-05-5.31963E-03 1.12322E-13-5.31997E-13
 -1      3804 2.00062E+01 1.74871E-02-9.60085E-05-2.76361E-03 1.70169E-13-4.10289E-13
 -1      3805 2.00058E+01 2.72144E-02 5.74235E-05-6.39419E-03 1.58519E-13-3.26350E-13
 -1      3806 2.00064E+01 1.37653E-02 6.03783E-05-1.02126E-03 2.53305E-13-3.90735E-13
 -1      3807 2.00058E+01 1.04885E-02-3.10300E-05 6.78515E-04 4.67454E-13-3.28938E-13
 -1      3808 2.00063E+01 1.74694E-02 2.87922E-05-2.05821E-03 2.14515E-13-3.68374E-13
 -1      3809 1.93587E+01 6.27108E-01-3.38593E-03 1.00756E+00-7.82056E-14-8.53991E-14
 -1      3810 1.93355E+01 6.08128E-01 3.53397E-03 1.10921E+00-5.32678E-14-3.46667E-14
 -1      3811 1.92398E+01 5.63226E-01-3.39604E-03 1.23153E+00-4.57728E-14 2.30477E-14
 -1      3812 1.92396E+01 4.96786E-01 5.77938E-03 1.34835E+00 2.19945E-14 6.53388E-14
 -1      3813 1.90167E+01 6.84398E-01 1.46312E-03 1.12242E+00-4.11179E-14-1.00840E-13
 -1      3814 1.91521E+01 3.91790E-01-2.83613E-03 1.50108E+00-2.11290E-14 1.38469E-13
 -1      3815 1.91996E+01 2.51199E-01 8.11195E-03 1.63507E+00 3.02408E-14 6.87110E-15
 -1      3816 1.88371E+01 5.58680E-01 1.52279E-05 1.39494E+00 2.83074E-14 1.77862E-14
 -1      3817 1.94817E+01 6.22501E-01-3.12505E-03 8.19389E-01-1.49038E-13-7.07172E-14
 -1      3818 1.94504E+01 6.33165E-01 2.25874E-03 9.07629E-01-1.32648E-13-5.56706E-14
 -1      3819 1.91976E+01 7.15482E-01 1.99720E-03 9.05254E-01-5.82433E-14-2.08272E-13
 -1      3820 1.95950E+01 5.77550E-01-2.77734E-03 6.60589E-01-5.19251E-14-1.50919E-13
 -1      3821 1.95635E+01 6.05107E-01 1.54159E-03 7.36784E-01-1.33230E-13-7.14579E-14
 -1      3822 1.93638E+01 6.87407E-01 2.08975E-03 7.28534E-01-1.47252E-13-1.68182E-13
 -1      3823 1.96929E+01 5.11872E-01-2.39894E-03 5.26777E-01 1.20557E-14 5.83431E-14
 -1      3824 1.96648E+01 5.47540E-01 1.13711E-03 5.91977E-01-6.74748E-14-6.40540E-14
 -1      3825 1.95084E+01 6.25681E-01 1.97668E-03 5.82862E-01-1.29886E-13-5.70641E-14
 -1      3826 1.97736E+01 4.38393E-01-2.03324E-03 4.14666E-01-2.68998E-14 3.00582E-13
 -1      3827 1.97504E+01 4.76517E-01 9.05327E-04 4.69816E-01 6.75675E-14 1.68710E-13
 -1      3828 1.96292E+01 5.47817E-01 1.75357E-03 4.62137E-01-9.79393E-14 1.52982E-13
 -1      3829 1.98380E+01 3.65160E-01-1.69827E-03 3.21748E-01-9.99329E-15 1.63291E-13
 -1      3830 1.98198E+01 4.02215E-01 7.58109E-04 3.67695E-01 1.51452E-14 3.20977E-13
 -1      3831 1.97270E+01 4.65299E-01 1.49745E-03 3.62130E-01 6.98596E-15 2.12201E-13
 -1      3832 1.98879E+01 2.97098E-01-1.39733E-03 2.45786E-01-1.13368E-13 2.28838E-13
 -1      3833 1.98743E+01 3.30978E-01 6.42517E-04 2.83460E-01-1.34074E-14 2.28839E-13
 -1      3834 1.98043E+01 3.85201E-01 1.20282E-03 2.79986E-01-8.12764E-14 2.89087E-13
 -1      3835 1.99255E+01 2.36768E-01-1.12955E-03 1.84530E-01-2.01464E-13 3.47599E-13
 -1      3836 1.99157E+01 2.66471E-01 5.47641E-04 2.14947E-01-1.86735E-13 2.68029E-13
 -1      3837 1.98638E+01 3.11973E-01 9.40333E-04 2.13249E-01-1.78831E-13 3.52459E-13
 -1      3838 1.99532E+01 1.85059E-01-8.97025E-04 1.35862E-01-7.34791E-14 2.93486E-13
 -1      3839 1.99464E+01 2.10303E-01 4.66909E-04 1.60020E-01-1.07182E-13 2.37816E-13
 -1      3840 1.99088E+01 2.47713E-01 7.25988E-04 1.59654E-01-7.47475E-14 2.46555E-13
 -1      3841 1.99730E+01 1.41947E-01-6.99336E-04 9.78131E-02-2.34084E-13 2.96590E-13
 -1      3842 1.99685E+01 1.62846E-01 3.92224E-04 1.16684E-01-1.45305E-13 2.54565E-13
 -1      3843 1.99418E+01 1.92993E-01 5.46957E-04 1.17235E-01-8.43589E-14 1.92000E-13
 -1      3844 1.99866E+01 1.06843E-01-5.35172E-04 6.85458E-02-2.53612E-13 1.37233E-13
 -1      3845 1.99839E+01 1.23757E-01 3.24529E-04 8.30405E-02-1.93979E-13 1.59980E-13
 -1      3846 1.99655E+01 1.47598E-01 4.01999E-04 8.41708E-02-9.74877E-14 3.65281E-14
 -1      3847 1.99957E+01 7.88553E-02-4.01850E-04 4.64107E-02 1.46826E-13-3.31891E-13
 -1      3848 1.99942E+01 9.22668E-02 2.64286E-04 5.73519E-02-8.53547E-14-1.53021E-13
 -1      3849 1.99820E+01 1.10784E-01 2.88159E-04 5.88000E-02-1.10760E-14-2.84400E-13
 -1      3850 2.00013E+01 5.69661E-02-2.95879E-04 2.99699E-02 2.48141E-13-2.84993E-13
 -1      3851 2.00007E+01 6.74020E-02 2.11645E-04 3.80764E-02 1.76231E-13-2.65507E-13
 -1      3852 1.99929E+01 8.15269E-02 2.00890E-04 3.96523E-02 2.05393E-13-4.43031E-13
 -1      3853 2.00044E+01 4.01526E-02-2.13107E-04 1.80018E-02 1.28991E-13-5.59196E-14
 -1      3854 2.00044E+01 4.81302E-02 1.66596E-04 2.38846E-02 1.72624E-13-1.71256E-13
 -1      3855 1.99999E+01 5.87075E-02 1.35405E-04 2.54589E-02 6.51464E-14-2.84150E-13
 -1      3856 2.00058E+01 2.74502E-02-1.50465E-04 9.49003E-03 7.62036E-14 2.24942E-13
 -1      3857 2.00062E+01 3.34518E-02 1.28861E-04 1.36567E-02 1.60347E-13 8.76342E-14
 -1      3858 2.00038E+01 4.12205E-02 8.77570E-05 1.51505E-02 7.82036E-14-1.08989E-13
 -1      3859 2.00061E+01 1.79843E-02-1.02261E-04 3.61308E-03-6.70243E-14 4.56706E-13
 -1      3860 2.00067E+01 2.24402E-02 9.81253E-05 6.47070E-03-3.48615E-14 4.17137E-13
 -1      3861 2.00058E+01 2.80214E-02 5.03265E-05 7.83207E-03-1.18070E-13 3.88048E-13
 -1      3862 2.00056E+01 1.09727E-02-6.60209E-05-2.80029E-04 1.17299E-13 3.85500E-13
 -1      3863 2.00063E+01 1.42631E-02 7.04160E-05 1.58415E-03 9.02712E-14 3.33037E-13
 -1      3864 2.00063E+01 1.82057E-02 3.06709E-05 2.79656E-03 2.90716E-14 5.35300E-13
 -1      3865 1.77776E+01-1.04577E+00 3.06660E-02-3.41553E+00-1.05230E-13-2.63252E-13
 -1      3866 1.94318E+01-1.97480E+00-3.03927E-02-3.43878E+00-1.70272E-13-1.65003E-13
 -1      3867 1.91489E+01 6.65029E-02 9.82342E-04 1.82311E+00-5.61274E-14-1.02865E-13
 -1      3868 1.92852E+01-1.80851E-01 1.39574E-02 1.97987E+00-2.17258E-13-1.96222E-13
 -1      3869 1.86932E+01 2.82787E-01-4.67893E-03 1.74425E+00-1.15530E-13-2.48762E-14
 -1      3870 2.41314E+01-3.54191E+00-1.27347E-02 1.27989E+00-1.08294E-13-3.16654E-13
 -1      3871 1.72506E+01-2.39903E+00 5.19482E-02 4.59288E+00-3.88915E-13-1.18620E-14
 -1      3872 1.57022E+01-1.49002E+00 7.92611E-03 4.13677E+00-4.10505E-13 1.37529E-13
 -1      3873 1.87179E+01-2.50685E+00 3.61722E-02 4.02562E+00-2.91489E-13-1.20414E-13
 -1      3874 2.48449E+01-3.04670E+00 3.37704E-02 2.15586E-01-2.15973E-14-2.80327E-13
 -1      3875 1.92800E+01 1.83402E+00-3.97643E-03 6.34923E-01-3.68099E-14-3.25560E-13
 -1      3876 1.87079E+01 2.66043E+00-4.06098E-03-7.52292E-03 1.12599E-13-4.03771E-13
 -1      3877 1.87445E+01 2.64100E+00-2.22035E-03 5.70493E-02 7.58091E-14-3.96139E-13
 -1      3878 1.87480E+01 2.50907E+00 6.73333E-03 1.18192E-01 6.79701E-14-3.77977E-13
 -1      3879 1.86679E+01 2.47328E+00 8.14817E-03-7.47783E-02 1.17518E-13-3.81512E-13
 -1      3880 2.20528E+01-3.12461E+00 5.05178E-03 2.51256E+00-2.07404E-13-3.58222E-13
 -1      3881 2.15111E+01-3.42404E+00-2.90467E-03 3.20642E+00-1.95928E-13-4.95378E-13
 -1      3882 2.05802E+01-2.95119E+00 3.54701E-02 3.43665E+00-2.51687E-13-3.59328E-13
 -1      3883 2.12505E+01-2.48532E+00 3.67218E-02 2.62898E+00-2.44273E-13-3.61733E-13
 -1      3884 1.41665E+01 3.30688E-01-3.88339E-02 2.28071E+00 1.82120E-13-3.50147E-13
 -1      3885 1.32774E+01 8.91620E-01 8.50890E-02 1.11031E+00 1.13054E-13-3.81854E-13
 -1      3886 2.02542E+01 1.32881E+00-2.35178E-04-4.85305E-01 2.57400E-13-1.32083E-13
 -1      3887 2.01303E+01 1.24665E+00 2.04569E-03-6.81853E-01 2.36914E-13-1.57487E-13
 -1      3888 1.91007E+01 1.52031E+00-2.98760E-03 9.27400E-01-3.01275E-14-2.87063E-13
 -1      3889 1.90094E+01 1.34961E+00 1.47850E-03 1.11898E+00-2.35616E-14-2.69912E-13
 -1      3890 1.86052E+01 1.44186E+00 5.96592E-03 1.09319E+00 3.51455E-15-3.03461E-13
 -1      3891 1.94770E+01 2.03516E+00-1.01865E-03-3.90023E-01 2.21023E-13-2.73387E-13
 -1      3892 1.92498E+01 2.20431E+00-5.38738E-03-3.71686E-01 1.93989E-13-2.89835E-13
 -1      3893 1.91258E+01 2.08876E+00 5.86797E-03-4.72659E-01 1.70309E-13-2.72959E-13
 -1      3894 2.00039E+01 2.79101E-03 3.77918E-08-3.69606E-03 1.79019E-13 3.26467E-13
 -1      3895 1.27470E+01 5.99786E-01 2.91254E-02 1.40816E+00-5.23049E-14 1.95489E-13
 -1      3896 1.15014E+01 6.64198E-01 1.00586E-01 8.86824E-01-1.22681E-13 2.93890E-13
 -1      3897 1.18078E+01 7.09558E-01 2.69954E-02-9.94748E-02-1.23444E-13 2.52312E-13
 -1      3898 1.47447E+01-6.33065E-01 7.28564E-02 3.61335E+00-4.09246E-13 3.04531E-13
 -1      3899 1.38784E+01 3.72707E-03-7.57032E-03 2.69394E+00-2.50803E-13 2.55400E-13
 -1      3900 1.61850E+01-9.81001E-01 3.58878E-02 3.57489E+00-3.45782E-13 1.66108E-13
 -1      3901 1.26499E+01 7.96865E-01-2.72386E-02-2.10261E-01 6.95390E-14-4.31627E-13
 -1      3902 1.27889E+01 6.30972E-01 6.80224E-02-1.62456E+00 8.82194E-15-4.42871E-13
 -1      3903 1.43004E+01 4.82341E-01 5.10109E-02-2.03776E+00-7.27066E-15-4.04178E-13
 -1      3904 1.85515E+01-2.32747E+00 6.74301E-02-4.02091E+00 1.54043E-13 5.51226E-14
 -1      3905 2.00053E+01 5.95137E-03 2.51128E-05 2.10826E-03 3.92787E-13-1.92489E-13
 -1      3906 1.96794E+01-5.45995E-01 1.73896E-02-2.33823E+00-9.96244E-15-1.68630E-13
 -1      3907 1.94678E+01-1.63695E-01 4.73858E-03-2.16277E+00 2.45852E-14-1.65499E-13
 -1      3908 1.89651E+01-6.58312E-01-3.06002E-02-2.65095E+00-1.74802E-14-1.47345E-13
 -1      3909 1.95948E+01 1.73602E+00 4.56068E-03-5.80245E-01 2.01451E-13-2.48182E-13
 -1      3910 1.94781E+01 6.75217E-01 5.74149E-03-1.52348E+00 4.88206E-14-1.99275E-13
 -1      3911 1.94660E+01 8.91753E-01-1.62258E-03-1.33986E+00 8.77186E-14-2.17970E-13
 -1      3912 1.90329E+01 7.18942E-01-2.27469E-03-1.61779E+00 4.10706E-14-2.34853E-13
 -1      3913 2.00047E+01 4.99427E-03 1.37168E-05-2.91159E-03 2.67239E-13 3.73902E-13
 -1      3914 1.89789E+01 2.13306E+00-6.52687E-05 4.29607E-01-1.93926E-14-3.52958E-13
 -1      3915 1.90958E+01 1.76031E+00 3.67024E-03 7.23537E-01-2.70872E-14-3.21303E-13
 -1      3916 1.87714E+01 1.81050E+00-5.81833E-03 7.02776E-01 1.07282E-16-3.35105E-13
 -1      3917 1.87933E+01 2.24367E+00-9.07400E-03 3.44182E-01 6.21682E-15-3.79016E-13
 -1      3918 1.69012E+01-1.63853E+00 1.31877E-02-4.00885E+00 1.46017E-13 2.53759E-13
 -1      3919 1.98764E+01 1.32909E+00-2.25676E-03-7.78431E-01 1.91055E-13-1.99893E-13
 -1      3920 1.56555E+01 2.25385E-01 2.43612E-02 2.45606E+00 1.73073E-13-3.08112E-13
 -1      3921 1.72729E+01-7.54762E-02-4.00672E-03 2.77921E+00 1.60694E-13-2.60084E-13
 -1      3922 1.89211E+01 1.55085E-01-7.98341E-03-2.09345E+00 1.48362E-15-2.20235E-13
 -1      3923 1.95955E+01 1.52652E+00 5.09179E-06-7.35900E-01 1.74517E-13-2.46367E-13
 -1      3924 1.93261E+01 1.71321E+00-4.54820E-03-6.97325E-01 1.69250E-13-2.65865E-13
 -1      3925 1.96237E+01 1.32957E+00 6.42298E-04-9.01895E-01 1.41231E-13-2.23837E-13
 -1      3926 2.00051E+01 6.28592E-03-9.89357E-06 2.31345E-03 4.70441E-13-1.95357E-13
 -1      3927 1.95678E+01 1.17413E+00 9.02735E-04-1.06440E+00 1.26394E-13-2.23277E-13
 -1      3928 2.06215E+01-1.94342E+00-2.04221E-04 2.52520E+00-2.32175E-13-2.56802E-13
 -1      3929 2.03257E+01-2.17039E+00-1.46461E-02 2.89304E+00-2.51354E-13-3.56726E-13
 -1      3930 2.01754E+01-1.35759E+00 3.18930E-02 2.45964E+00-1.73274E-13-2.66944E-13
 -1      3931 1.87198E+01 2.10997E+00-7.48583E-04-4.35418E-01 1.41166E-13-3.00092E-13
 -1      3932 1.85783E+01 2.19488E+00-5.73845E-03-3.22043E-01 1.32873E-13-3.42766E-13
 -1      3933 1.84270E+01 2.08456E+00 8.09867E-03-2.81893E-01 1.01128E-13-3.09065E-13
 -1      3934 1.84909E+01 2.26006E+00-4.32777E-03-1.41573E-01 1.11159E-13-3.56706E-13
 -1      3935 1.65062E+01-6.06993E-01-1.46716E-02-3.30438E+00-9.82220E-14-3.19396E-13
 -1      3936 1.81296E+01-5.58790E-01 3.91632E-02-2.90394E+00-5.31519E-14-2.34394E-13
 -1      3937 2.00047E+01 5.81334E-03-2.22403E-05-2.66776E-03 1.89558E-13 3.73911E-13
 -1      3938 2.00054E+01 8.20448E-03 4.59116E-05-1.56702E-03 2.17202E-13 4.48649E-13
 -1      3939 2.00056E+01 8.80617E-03-3.93277E-08 1.34677E-03 5.23975E-13-4.62127E-14
 -1      3940 2.00060E+01 1.06520E-02-3.17322E-05 1.25727E-04 2.69513E-13 1.78518E-13
 -1      3941 2.00060E+01 1.06604E-02-3.07189E-05-1.79606E-04 1.95084E-13-1.63737E-13
 -1      3942 1.86532E+01-2.30719E-01-2.32408E-02 2.19376E+00-2.35349E-13-3.46364E-14
 -1      3943 1.93131E+01-4.99890E-01 4.69094E-03 2.20100E+00-2.80251E-13-1.82411E-13
 -1      3944 1.95552E+01-9.02846E-01 3.61051E-03 2.35904E+00-1.99900E-13-1.84508E-13
 -1      3945 1.92286E+01 1.24215E+00 2.40261E-03-1.11918E+00 1.16528E-13-2.51697E-13
 -1      3946 1.20124E+01 4.01643E-01 2.18706E-02-1.71321E+00-5.01751E-14 4.85209E-13
 -1      3947 1.25283E+01 6.70456E-02 1.34474E-01-2.81292E+00-7.19529E-14 5.60336E-13
 -1      3948 1.84977E+01 2.31152E+00-1.83871E-03-2.40135E-02 7.78293E-14-3.47912E-13
 -1      3949 1.47853E+01 2.27532E-01 1.80245E-04 2.36045E+00-1.55000E-13 1.04621E-13
 -1      3950 1.38484E+01 5.77500E-01 6.92538E-02 1.93619E+00-9.51058E-14 1.06632E-13
 -1      3951 2.00060E+01 1.03850E-02-4.25301E-05-3.25143E-04 8.94058E-14-4.36408E-13
 -1      3952 2.00059E+01 1.00696E-02-1.94717E-05-6.54784E-04-1.95771E-14-4.41228E-13
 -1      3953 2.00063E+01 1.37696E-02 9.23152E-05-7.23301E-05 1.02054E-13-2.02890E-13
 -1      3954 2.00059E+01 9.26470E-03-4.01974E-05-8.98870E-04 2.46854E-14-2.93624E-13
 -1      3955 2.00057E+01 8.70971E-03 4.12760E-06-1.29954E-03 1.59897E-13 2.94635E-14
 -1      3956 2.00062E+01 1.26049E-02 4.21408E-05-2.76548E-04-8.68434E-14-4.10501E-13
 -1      3957 1.59156E+01-1.01337E-01 8.59892E-04-2.84455E+00-4.26962E-14-3.28761E-13
 -1      3958 1.38170E+01-5.53899E-01 4.93025E-02-3.35874E+00 5.45856E-14 5.54411E-13
 -1      3959 1.36214E+01 7.43695E-01-3.82642E-03 1.20391E+00 1.60254E-14 7.78232E-14
 -1      3960 1.39356E+01 9.80736E-01 4.31151E-02 2.25102E-01 6.78038E-14-3.82284E-13
 -1      3961 2.00060E+01 1.00217E-02-3.06202E-05 6.34824E-04 4.68596E-13-9.67910E-14
 -1      3962 2.00060E+01 1.03438E-02-4.90376E-05 2.57665E-04 3.59325E-13 2.11567E-13
 -1      3963 2.00063E+01 1.37437E-02 8.20173E-05-1.69511E-05 1.68880E-13 2.32507E-13
 -1      3964 2.00060E+01 1.01325E-02-2.49789E-05 6.38760E-04 6.01345E-13-4.31917E-13
 -1      3965 2.00059E+01 1.09291E-02 1.78947E-05-5.11058E-04 1.07564E-13 3.44635E-13
 -1      3966 2.00054E+01 6.78173E-03-2.35522E-05-1.95801E-03 3.38699E-13 3.74362E-13
 -1      3967 1.91074E+01 1.85960E+00 3.18235E-04-6.24675E-01 1.62594E-13-2.70872E-13
 -1      3968 1.88850E+01 2.00018E+00-5.76316E-03-5.46883E-01 1.50917E-13-2.67739E-13
 -1      3969 1.87110E+01 1.90842E+00 7.58049E-03-5.91950E-01 1.42986E-13-2.81575E-13
 -1      3970 1.90962E+01 1.66666E+00 1.30868E-03-7.83980E-01 1.49470E-13-2.65103E-13
 -1      3971 1.72445E+01 9.75695E-01-2.14385E-02 1.53649E+00 7.51213E-14-2.83781E-13
 -1      3972 1.69922E+01 7.62035E-01-4.54676E-03 1.82819E+00 1.07624E-13-2.66586E-13
 -1      3973 1.82577E+01 1.90545E+00-9.69603E-04-4.40457E-01 8.96299E-14-2.83647E-13
 -1      3974 1.81494E+01 1.96417E+00-5.69050E-03-2.41281E-01 5.13402E-14-2.87000E-13
 -1      3975 1.62436E+01 5.38056E-02 1.03659E-02-2.50156E+00 8.23282E-14 3.16905E-13
 -1      3976 1.64245E+01 3.86892E-01-1.51807E-02-2.11870E+00 9.37878E-15 3.24076E-13
 -1      3977 1.69438E+01 5.91092E-01 1.09686E-02-1.80542E+00-3.04818E-14 2.45339E-13
 -1      3978 1.71316E+01 7.34869E-01-1.77507E-02-1.55511E+00 5.80662E-14 1.62251E-13
 -1      3979 1.60676E+01 7.68595E-01 2.20446E-02-1.65024E+00-3.34086E-14 3.59849E-13
 -1      3980 1.75311E+01 8.51416E-01 4.29420E-03-1.36069E+00 5.43503E-14 1.79315E-14
 -1      3981 1.77184E+01 9.18839E-01-1.27371E-02-1.18944E+00 2.86493E-14-6.93795E-14
 -1      3982 1.69317E+01 9.88725E-01 1.48072E-02-1.19930E+00-9.13714E-14 1.84763E-13
 -1      3983 1.80288E+01 9.66006E-01 1.51910E-03-1.05698E+00 7.16401E-14-2.39730E-13
 -1      3984 1.82005E+01 9.79852E-01-9.01623E-03-9.34347E-01 1.51382E-13-2.79180E-13
 -1      3985 1.76009E+01 1.07935E+00 1.11670E-02-9.10133E-01-2.46801E-14-7.02138E-14
 -1      3986 1.84447E+01 9.81071E-01 1.96259E-04-8.40894E-01 2.24047E-13-4.10630E-13
 -1      3987 1.85937E+01 9.61499E-01-6.46560E-03-7.48313E-01 1.55266E-13-3.26164E-13
 -1      3988 1.81280E+01 1.08025E+00 8.52063E-03-7.11823E-01 1.02448E-13-3.95398E-13
 -1      3989 1.87869E+01 9.34494E-01-3.65889E-04-6.78110E-01 1.05883E-15-3.27219E-13
 -1      3990 1.89121E+01 8.94898E-01-4.80837E-03-6.04522E-01 1.97756E-14-2.31413E-13
 -1      3991 1.85462E+01 1.02455E+00 6.58899E-03-5.69872E-01 1.13795E-13-4.47547E-13
 -1      3992 1.90660E+01 8.51650E-01-5.11082E-04-5.48848E-01 6.39773E-14-2.37956E-13
 -1      3993 1.91685E+01 8.01330E-01-3.73152E-03-4.88232E-01 4.28286E-14-2.10978E-13
 -1      3994 1.88798E+01 9.34835E-01 5.18233E-03-4.60615E-01 5.25009E-14-3.00145E-13
 -1      3995 1.92912E+01 7.50335E-01-4.78485E-04-4.42769E-01 5.41174E-14-2.39782E-13
 -1      3996 1.93735E+01 6.96222E-01-2.94669E-03-3.91983E-01-6.31038E-15-1.26597E-13
 -1      3997 1.91462E+01 8.26585E-01 4.05786E-03-3.72294E-01 4.08599E-14-3.12578E-13
 -1      3998 1.94706E+01 6.43254E-01-3.82477E-04-3.54084E-01-5.62665E-14-2.65182E-14
 -1      3999 1.95356E+01 5.89496E-01-2.35653E-03-3.11418E-01-2.14210E-14 6.58057E-14
 -1      4000 1.93580E+01 7.12089E-01 3.23295E-03-2.99273E-01 4.67369E-14-2.04695E-13
 -1      4001 1.96115E+01 5.38575E-01-2.52658E-04-2.80158E-01-1.22567E-13 1.07913E-13
 -1      4002 1.96618E+01 4.88364E-01-1.89402E-03-2.44375E-01-1.58585E-13 1.81645E-13
 -1      4003 1.95249E+01 5.99408E-01 2.61724E-03-2.37916E-01-4.37401E-14-3.79750E-14
 -1      4004 1.97207E+01 4.41678E-01-1.51798E-04-2.18557E-01-2.47840E-13 2.11664E-13
 -1      4005 1.97589E+01 3.96754E-01-1.53281E-03-1.88949E-01-3.57346E-13 2.43481E-13
 -1      4006 1.96544E+01 4.94584E-01 2.10379E-03-1.86794E-01-1.21473E-13 3.93801E-14
 -1      4007 1.98039E+01 3.55595E-01-8.24390E-05-1.67735E-01-4.10072E-13 2.85467E-13
 -1      4008 1.98325E+01 3.16526E-01-1.23762E-03-1.43526E-01-2.47258E-13 2.13450E-13
 -1      4009 1.97539E+01 4.00400E-01 1.56983E-03-1.44498E-01-3.53284E-13 1.59890E-13
 -1      4010 1.98665E+01 2.81159E-01-2.53828E-05-1.26465E-01-1.99899E-13 2.59753E-13
 -1      4011 1.98874E+01 2.48051E-01-9.80194E-04-1.07018E-01-2.03285E-13 1.12311E-13
 -1      4012 1.98295E+01 3.18470E-01 1.21971E-03-1.09616E-01-2.40111E-13 2.59492E-13
 -1      4013 1.99126E+01 2.18450E-01 7.78255E-06-9.35361E-02-2.45805E-13 4.30025E-14
 -1      4014 1.99276E+01 1.91062E-01-7.63359E-04-7.81606E-02-1.51057E-13 1.86420E-15
 -1      4015 1.98857E+01 2.48850E-01 9.20577E-04-8.16816E-02-3.14214E-13 1.84927E-13
 -1      4016 1.99458E+01 1.66823E-01 3.11122E-05-6.76552E-02-5.87226E-14-1.87505E-13
 -1      4017 1.99562E+01 1.44621E-01-5.85346E-04-5.56956E-02-1.40046E-16-1.70538E-13
 -1      4018 1.99267E+01 1.91153E-01 6.83555E-04-5.95870E-02-2.34468E-13-1.39591E-13
 -1      4019 1.99691E+01 1.25155E-01 4.37361E-05-4.76435E-02 6.38069E-14-2.18641E-13
 -1      4020 1.99761E+01 1.07490E-01-4.41545E-04-3.84975E-02-7.01882E-14-1.55511E-13
 -1      4021 1.99559E+01 1.44292E-01 4.99190E-04-4.23804E-02 9.74679E-15-3.85244E-13
 -1      4022 1.99850E+01 9.21381E-02 4.82974E-05-3.24351E-02-1.33980E-13-1.03799E-13
 -1      4023 1.99894E+01 7.83285E-02-3.27092E-04-2.55650E-02-5.11905E-15-5.39071E-14
 -1      4024 1.99762E+01 1.06931E-01 3.57421E-04-2.92098E-02-7.00987E-14-3.53944E-13
 -1      4025 1.99952E+01 6.64285E-02 4.76519E-05-2.10876E-02-6.23530E-15-3.59884E-14
 -1      4026 1.99979E+01 5.58123E-02-2.37617E-04-1.60269E-02 8.31241E-14-7.06319E-14
 -1      4027 1.99896E+01 7.76659E-02 2.49912E-04-1.93113E-02 1.34029E-14 1.14747E-13
 -1      4028 2.00015E+01 4.67369E-02 4.43866E-05-1.27906E-02 1.42300E-13-8.57007E-14
 -1      4029 2.00028E+01 3.86978E-02-1.71387E-04-9.14371E-03 1.23899E-13 3.07581E-14
 -1      4030 1.99982E+01 5.51194E-02 1.68844E-04-1.20169E-02 8.00901E-14 1.04081E-13
 -1      4031 2.00049E+01 3.19146E-02 4.89461E-05-6.87788E-03 9.17828E-14 1.13288E-13
 -1      4032 2.00053E+01 2.58910E-02-1.20557E-04-4.29301E-03 1.02456E-13-1.75055E-14
 -1      4033 2.00031E+01 3.80012E-02 1.04865E-04-6.77895E-03 1.45764E-13 2.32619E-13
 -1      4034 2.00063E+01 2.08304E-02 4.77758E-05-2.76092E-03 7.30486E-14-1.00173E-13
 -1      4035 2.00062E+01 1.64039E-02-7.48253E-05-1.03881E-03 2.26417E-13-1.97307E-13
 -1      4036 2.00055E+01 2.51700E-02 3.83233E-05-3.09926E-03 8.65126E-14 5.41781E-14
 -1      4037 1.92536E+01 7.32121E-01-3.79751E-03 6.05806E-01-1.82763E-13 7.44260E-14
 -1      4038 1.91785E+01 7.65293E-01 8.78103E-04 6.80983E-01-1.27925E-13 9.32011E-14
 -1      4039 1.90461E+01 7.86566E-01-4.69157E-03 7.59950E-01-1.46093E-13-1.23328E-14
 -1      4040 1.89629E+01 8.00854E-01 1.72768E-03 8.51848E-01-1.37382E-13-9.41355E-14
 -1      4041 1.89684E+01 8.52008E-01 3.88320E-03 6.28291E-01-2.29673E-13 2.09030E-13
 -1      4042 1.45818E+01 1.03042E+00-2.77554E-02 7.13778E-01 8.43006E-14-3.16972E-13
 -1      4043 1.43991E+01 1.11829E+00 3.02790E-02-4.81298E-01 3.67796E-14-3.94974E-13
 -1      4044 1.85344E+01 7.30923E-01-7.50572E-03 1.20199E+00 3.67646E-14-7.52822E-14
 -1      4045 1.84593E+01 6.64029E-01 5.52095E-03 1.34923E+00-1.73616E-14-4.20583E-14
 -1      4046 1.79777E+01-1.32184E-01 3.55206E-03-2.56504E+00-3.53647E-14-2.31337E-13
 -1      4047 1.94274E+01 6.53110E-01-3.06734E-03 4.80798E-01-1.35733E-13 1.46213E-13
 -1      4048 1.93631E+01 6.95918E-01 4.61803E-04 5.42925E-01-1.81167E-13 1.33796E-13
 -1      4049 1.91998E+01 7.76240E-01 3.23541E-03 4.96354E-01-2.03646E-13 3.00405E-13
 -1      4050 1.95693E+01 5.64297E-01-2.44260E-03 3.78636E-01-6.30125E-14 1.91741E-13
 -1      4051 1.95163E+01 6.10241E-01 2.82329E-04 4.30254E-01-9.68586E-14 1.52409E-13
 -1      4052 1.93902E+01 6.83275E-01 2.88134E-03 3.91611E-01-1.32409E-13 1.86209E-13
 -1      4053 1.96828E+01 4.74520E-01-1.98055E-03 2.94932E-01-7.38251E-14 1.34127E-13
 -1      4054 1.96405E+01 5.19859E-01 2.49634E-04 3.37577E-01-6.24200E-14 1.13856E-13
 -1      4055 1.95435E+01 5.84491E-01 2.39114E-03 3.06592E-01-3.64305E-14 3.57277E-14
 -1      4056 1.97717E+01 3.89898E-01-1.64525E-03 2.26722E-01-9.24429E-14 6.52007E-14
 -1      4057 1.97388E+01 4.31988E-01 1.84739E-04 2.61690E-01-9.64852E-14 5.04088E-14
 -1      4058 1.96647E+01 4.87915E-01 1.82958E-03 2.37653E-01-6.40189E-14 4.04302E-15
 -1      4059 1.98402E+01 3.13921E-01-1.33980E-03 1.71706E-01-1.52722E-13 1.28475E-14
 -1      4060 1.98152E+01 3.51250E-01 1.48729E-04 2.00060E-01-1.55666E-13 8.41211E-14
 -1      4061 1.97593E+01 3.98894E-01 1.42254E-03 1.82056E-01-1.03701E-13-1.34671E-13
 -1      4062 1.98919E+01 2.47942E-01-1.06720E-03 1.27807E-01-8.82770E-14-2.56956E-14
 -1      4063 1.98734E+01 2.80092E-01 1.45275E-04 1.50475E-01-1.23644E-13-1.00381E-14
 -1      4064 1.98320E+01 3.19849E-01 1.12909E-03 1.37324E-01-8.03682E-14-3.02719E-13
 -1      4065 1.99300E+01 1.92253E-01-8.35554E-04 9.32961E-02-8.03562E-15 1.16622E-13
 -1      4066 1.99167E+01 2.19192E-01 1.35327E-04 1.11155E-01 4.77091E-14 1.49944E-13
 -1      4067 1.98866E+01 2.51671E-01 8.67294E-04 1.01875E-01-4.98356E-14-1.18637E-13
 -1      4068 1.99575E+01 1.46376E-01-6.43537E-04 6.65452E-02-5.51118E-14-3.88355E-14
 -1      4069 1.99481E+01 1.68432E-01 1.25242E-04 8.04036E-02-5.58422E-14 7.63623E-14
 -1      4070 1.99268E+01 1.94479E-01 6.51181E-04 7.41286E-02 1.05185E-14 7.23306E-14
 -1      4071 1.99766E+01 1.09381E-01-4.87351E-04 4.61214E-02 1.34136E-13-2.67442E-13
 -1      4072 1.99704E+01 1.27069E-01 1.13590E-04 5.67057E-02 2.34248E-14-8.38822E-14
 -1      4073 1.99556E+01 1.47593E-01 4.79377E-04 5.26915E-02 4.89598E-14 2.30496E-13
 -1      4074 1.99896E+01 8.01230E-02-3.62344E-04 3.07830E-02 5.84948E-14-2.54253E-14
 -1      4075 1.99856E+01 9.40402E-02 1.00307E-04 3.87305E-02 6.64461E-14-1.73524E-13
 -1      4076 1.99757E+01 1.09935E-01 3.45480E-04 3.63708E-02 5.34448E-14 1.16228E-13
 -1      4077 1.99978E+01 5.74002E-02-2.64324E-04 1.94697E-02-2.33733E-14 1.57268E-13
 -1      4078 1.99955E+01 6.81579E-02 8.63616E-05 2.53272E-02 1.45759E-14 9.60698E-14
 -1      4079 1.99892E+01 8.02534E-02 2.42947E-04 2.41449E-02 7.22104E-15 3.58259E-13
 -1      4080 2.00027E+01 4.00456E-02-1.90356E-04 1.12977E-02 1.10586E-15 1.61845E-13
 -1      4081 2.00015E+01 4.82262E-02 7.31279E-05 1.55231E-02 3.18505E-14 4.85986E-14
 -1      4082 1.99978E+01 5.72651E-02 1.65136E-04 1.51468E-02 2.14393E-14 4.88702E-13
 -1      4083 2.00052E+01 2.70065E-02-1.39129E-04 5.53235E-03-2.40156E-13 3.52691E-13
 -1      4084 2.00048E+01 3.31556E-02 6.85498E-05 8.52512E-03-1.39776E-13 1.95405E-13
 -1      4085 2.00029E+01 3.97497E-02 1.11703E-04 8.68344E-03-8.40568E-14 3.86921E-13
 -1      4086 2.00061E+01 1.73140E-02-7.15207E-05 1.58797E-03 2.35180E-13 1.71464E-13
 -1      4087 2.00062E+01 2.18610E-02 5.82088E-05 3.64100E-03 8.02571E-14 2.37198E-13
 -1      4088 2.00054E+01 2.66184E-02 5.55537E-05 4.13513E-03 1.79242E-15 2.25976E-15
 -1      4089 2.00058E+01 9.74149E-03-1.81464E-05-1.09165E-03 4.50358E-14 8.12342E-14
 -1      4090 2.00062E+01 1.29576E-02 1.68559E-05 2.10033E-04 9.00887E-14 6.49660E-14
 -1      4091 2.00063E+01 1.36298E-02 5.43238E-05-1.36591E-04 4.00518E-13-1.50694E-13
 -1      4092 2.00059E+01 1.74098E-02-5.04816E-05 2.14902E-04 1.36766E-13 1.89504E-13
 -1      4093 2.00060E+01 1.71217E-02-4.18322E-05 2.74677E-04 1.75683E-14-2.08161E-13
 -1      4094 1.93267E+01-2.46507E+00-7.44825E-04 3.68927E+00-2.72907E-13-1.46334E-13
 -1      4095 1.79966E+01-1.70522E+00 1.51735E-02 3.67478E+00-3.17659E-13-3.99784E-14
 -1      4096 1.98631E+01-2.26093E+00 1.53130E-02 3.23926E+00-2.80487E-13-2.81754E-13
 -1      4097 1.24998E+01 7.94875E-01 8.18187E-02-8.46185E-01-8.94252E-14 3.27710E-13
 -1      4098 1.33447E+01 6.16599E-01 5.13342E-03-1.51988E+00-7.57510E-14 5.11376E-13
 -1      4099 1.31347E+01 8.86193E-01 9.92613E-03-9.66326E-02-9.12838E-14 2.67883E-13
 -1      4100 1.84078E+01 2.15369E+00 8.86753E-03 8.49647E-02 4.02588E-14-3.04906E-13
 -1      4101 1.85501E+01 2.31280E+00-7.02184E-03 1.34137E-01 6.55922E-14-3.38240E-13
 -1      4102 1.86557E+01 2.30755E+00 4.48924E-04 2.26741E-01 2.62775E-14-3.51700E-13
 -1      4103 1.89571E+01 1.38163E+00-3.50838E-03-1.04298E+00 9.89171E-14-2.59619E-13
 -1      4104 1.59712E+01-4.06508E-02 4.03681E-02 2.73398E+00-2.86004E-13 1.21897E-13
 -1      4105 1.55353E+01 3.66737E-01-1.88059E-02 2.08533E+00-1.79520E-13-1.35924E-14
 -1      4106 1.51549E+01 4.08670E-01 2.15668E-03-2.28275E+00-5.97103E-15-3.60446E-13
 -1      4107 1.62323E+01 4.22872E-01 2.93345E-02-2.20768E+00-3.19180E-14-3.17920E-13
 -1      4108 1.45718E+01 8.61253E-01-1.02828E-02-1.33446E+00 2.95006E-14-3.71722E-13
 -1      4109 1.84402E+01 1.64706E+00-1.63608E-03 8.12914E-01 2.13300E-14-3.30590E-13
 -1      4110 1.82390E+01 1.48490E+00-9.91255E-04 9.79949E-01 3.74199E-14-3.16509E-13
 -1      4111 1.83873E+01 2.73420E-01 1.41279E-02-2.10846E+00-5.87377E-15-2.59154E-13
 -1      4112 1.83805E+01 5.64077E-01-6.12856E-03-1.85685E+00 5.80569E-15-2.73210E-13
 -1      4113 1.45592E+01 8.88666E-01-2.29279E-03 1.04170E+00-2.01953E-14 5.28232E-14
 -1      4114 1.37638E+01 1.00895E+00 4.74533E-02 5.82323E-01-3.81500E-14 2.39104E-13
 -1      4115 1.40679E+01 9.73296E-01-1.44447E-02-8.55796E-02-6.74460E-14 3.47576E-13
 -1      4116 1.59137E+01 6.06444E-01 1.24729E-03 2.00322E+00 1.27592E-13-3.02596E-13
 -1      4117 1.82470E+01 5.55853E-01-9.12179E-03 1.53248E+00-9.88217E-14-6.55226E-14
 -1      4118 1.82387E+01 4.08119E-01 9.29110E-03 1.71954E+00-1.35882E-13-1.02473E-13
 -1      4119 1.79915E+01 7.68462E-01 7.23561E-03 1.32319E+00-6.34566E-14-1.65296E-13
 -1      4120 1.88048E+01 7.95871E-01-5.89095E-03 9.53220E-01-1.62313E-14-1.56588E-13
 -1      4121 1.87198E+01 7.78497E-01 3.34619E-03 1.06796E+00 3.23562E-14-5.89444E-14
 -1      4122 1.86908E+01 8.92917E-01 4.52017E-03 7.96715E-01-1.26250E-13-6.07380E-14
 -1      4123 1.73322E+01-1.19499E+00 2.21287E-02 3.53024E+00-3.53252E-13 6.52377E-14
 -1      4124 1.62599E+01-5.11536E-01-3.14295E-03 3.08248E+00-3.76541E-13 1.44969E-13
 -1      4125 1.69331E+01-2.97131E-01-1.13980E-02 2.71627E+00-3.51108E-13 4.91577E-14
 -1      4126 1.80266E+01-1.21852E+00-4.17144E-03 3.21968E+00-3.32389E-13 1.85182E-15
 -1      4127 1.79182E+01 1.32751E+00-1.18189E-02 1.12720E+00 3.16303E-14-2.95446E-13
 -1      4128 1.76908E+01 1.16934E+00 2.49405E-03 1.33530E+00 4.85325E-14-2.88691E-13
 -1      4129 1.71137E+01 1.29572E+00 2.15239E-02 1.15268E+00 7.66177E-14-2.64549E-13
 -1      4130 1.78239E+01 1.56523E+00 8.07821E-03 8.35639E-01 5.01405E-14-3.22190E-13
 -1      4131 1.86060E+01 8.14091E-01 8.17557E-03-1.59796E+00 1.63984E-14-2.63467E-13
 -1      4132 1.86736E+01 1.03365E+00-2.43748E-03-1.38726E+00 5.77474E-14-2.41358E-13
 -1      4133 1.80438E+01 9.08676E-01 9.74710E-03-1.60464E+00 3.02903E-14-2.92167E-13
 -1      4134 1.73718E+01 2.84300E-01-6.98485E-03-2.32212E+00-4.11773E-14-2.84919E-13
 -1      4135 1.56638E+01 1.00442E+00 3.34066E-02 1.42081E+00 1.02309E-13-2.70730E-13
 -1      4136 1.62918E+01 5.17442E-01 6.11090E-03 1.85753E+00-1.47930E-13-8.58688E-15
 -1      4137 1.54505E+01 8.33788E-01 5.03372E-02 1.49595E+00-1.09244E-13-4.03491E-14
 -1      4138 1.84107E+01 1.80499E+00-9.83058E-03-6.33849E-01 1.13451E-13-2.90176E-13
 -1      4139 1.81735E+01 1.74307E+00 8.30920E-03-6.09368E-01 8.45350E-14-2.51804E-13
 -1      4140 1.86104E+01 1.72122E+00 2.58897E-03-7.55016E-01 1.30954E-13-2.81017E-13
 -1      4141 1.79581E+01 1.86721E+00 9.80816E-03-1.20263E-01 4.83297E-14-2.89187E-13
 -1      4142 1.81200E+01 1.98903E+00-5.56609E-03 3.50431E-02 5.47498E-14-3.05242E-13
 -1      4143 1.93603E+01-1.55744E+00 4.15786E-02 3.04598E+00-2.71432E-13-2.53981E-13
 -1      4144 1.44170E+01-1.68911E-01 4.74557E-03-2.92568E+00-1.00267E-14 4.55254E-13
 -1      4145 1.53615E+01-9.00904E-01 8.59396E-02-3.75368E+00 1.19978E-13 4.20240E-13
 -1      4146 2.00062E+01 1.64856E-02-2.53787E-05-6.81781E-04 2.13041E-13 9.08395E-14
 -1      4147 1.53005E+01 1.09870E+00 3.44085E-02-8.03981E-01 3.77521E-14-3.60774E-13
 -1      4148 1.86399E+01 2.10357E+00 7.11744E-03 3.82066E-01 3.26329E-15-3.36223E-13
 -1      4149 1.58176E+01 1.18634E+00-7.27390E-03 7.62774E-01 8.58402E-14-2.60169E-13
 -1      4150 1.91865E+01-1.03273E+00-2.09872E-02 2.60334E+00-2.15563E-13-1.40106E-13
 -1      4151 1.83635E+01 8.75381E-01 5.12209E-03 1.01894E+00 5.49693E-14-5.14063E-14
 -1      4152 2.00062E+01 1.62538E-02 1.47745E-05 8.58008E-04 1.56368E-13-2.81379E-13
 -1      4153 1.52390E+01 9.50267E-01-2.73462E-02 9.15692E-01-1.04214E-13 1.71295E-14
 -1      4154 2.00060E+01 1.73800E-02-5.71741E-05-2.89145E-04 1.71337E-13 2.47047E-13
 -1      4155 2.00057E+01 2.15520E-02 3.62470E-05 3.23869E-05 2.29901E-13 2.69837E-13
 -1      4156 2.00060E+01 1.71352E-02-3.32543E-05-3.52079E-04 2.73758E-13 2.65930E-13
 -1      4157 1.81983E+01 1.99785E+00-2.96448E-03 2.06247E-01 2.74602E-14-2.94527E-13
 -1      4158 1.66945E+01 7.64291E-01-1.71469E-03-1.78573E+00-2.33129E-14-3.15985E-13
 -1      4159 1.84779E+01 1.86224E+00 2.36041E-03 5.94189E-01 1.16004E-14-3.48874E-13
 -1      4160 2.00061E+01 1.70615E-02-2.74732E-05 9.07772E-04 9.44980E-14-4.51731E-13
 -1      4161 2.00060E+01 2.15095E-02 7.65325E-05 1.46510E-03 1.61048E-13-2.86597E-13
 -1      4162 1.72360E+01 4.25232E-01 4.09154E-03 1.92988E+00-1.28202E-13-5.45367E-14
 -1      4163 1.77101E+01 1.03590E-01 5.24443E-04 2.16636E+00-1.72649E-13-3.87576E-14
 -1      4164 1.45421E+01 7.37255E-01-6.55111E-03-1.42266E+00-9.24443E-14 4.04917E-13
 -1      4165 1.45122E+01 5.06067E-01 6.51123E-02-2.11562E+00-2.87726E-15 4.74410E-13
 -1      4166 1.86933E+01 1.31652E+00 3.13677E-03-1.11522E+00 9.40469E-14-2.66629E-13
 -1      4167 1.82599E+01 1.36785E+00-1.01651E-02-1.08340E+00 7.44215E-14-2.72108E-13
 -1      4168 1.77240E+01-2.16737E-01 1.39047E-02 2.46237E+00-2.55461E-13 3.69004E-14
 -1      4169 1.79952E+01 1.53796E+00 6.68315E-03-8.50193E-01 8.68995E-14-2.48458E-13
 -1      4170 1.77758E+01 1.60647E+00-1.00001E-02-6.54223E-01 7.00952E-14-2.41917E-13
 -1      4171 1.78915E+01 1.27290E+00-5.03604E-03-1.15930E+00 5.54641E-14-2.54448E-13
 -1      4172 1.76214E+01 1.72338E+00-1.78955E-04-2.96814E-01 7.08359E-14-2.85246E-13
 -1      4173 1.75769E+01 1.74304E+00-6.41515E-03 2.92878E-03 5.81680E-14-2.98428E-13
 -1      4174 1.74411E+01 1.54800E+00 1.38402E-02-5.59189E-01 7.90664E-14-2.57324E-13
 -1      4175 1.86562E+01-1.15500E+00 7.61542E-03 2.93810E+00-2.81250E-13-7.23401E-14
 -1      4176 1.55343E+01 4.90848E-02-8.81899E-03-2.63086E+00 5.71557E-14 3.47644E-13
 -1      4177 2.00060E+01 2.07702E-02 6.40108E-05-1.19763E-03 1.97887E-13 1.01447E-13
 -1      4178 1.64124E+01 1.04404E+00-6.04679E-03-8.82824E-01-1.48201E-13 2.67476E-13
 -1      4179 1.67866E+01 1.09241E+00-2.02570E-02-7.48061E-01-1.68900E-13 2.07280E-13
 -1      4180 1.72252E+01 1.13182E+00-4.88718E-03-6.61145E-01-1.71942E-13 1.34419E-13
 -1      4181 1.75239E+01 1.13400E+00-1.21592E-02-5.68911E-01-9.78895E-14-3.63341E-14
 -1      4182 1.68704E+01 1.26336E+00 3.36587E-02-3.51776E-01-2.35247E-13 2.67080E-13
 -1      4183 1.78471E+01 1.12518E+00-5.18912E-03-5.17913E-01-2.49506E-14-6.89889E-14
 -1      4184 1.80850E+01 1.10123E+00-8.43851E-03-4.54473E-01 6.93636E-14-1.94980E-13
 -1      4185 1.75997E+01 1.22699E+00 2.44135E-02-2.79015E-01-1.46187E-13 1.42303E-13
 -1      4186 1.83315E+01 1.06998E+00-3.90810E-03-4.17043E-01 7.84794E-14-2.99212E-13
 -1      4187 1.85204E+01 1.02762E+00-5.96524E-03-3.69446E-01 2.28824E-14-3.21034E-13
 -1      4188 1.81437E+01 1.15713E+00 1.78264E-02-2.31785E-01-1.69331E-14-6.80272E-14
 -1      4189 1.87129E+01 9.80901E-01-3.00151E-03-3.40048E-01 7.52137E-14-3.18464E-13
 -1      4190 1.88636E+01 9.27438E-01-4.40189E-03-3.01680E-01 1.19116E-13-2.15084E-13
 -1      4191 1.85670E+01 1.05942E+00 1.33624E-02-1.94374E-01 8.25566E-14-1.29464E-13
 -1      4192 1.90154E+01 8.72377E-01-2.30116E-03-2.77544E-01 4.32747E-14-1.89071E-13
 -1      4193 1.91357E+01 8.13645E-01-3.30213E-03-2.45157E-01 6.32154E-14-9.83880E-14
 -1      4194 1.89003E+01 9.43751E-01 9.94767E-03-1.63196E-01 9.00513E-14-1.93232E-13
 -1      4195 1.92559E+01 7.55938E-01-1.68505E-03-2.24809E-01 7.35984E-14-4.30331E-14
 -1      4196 1.93530E+01 6.97229E-01-1.82345E-03-1.96210E-01 4.07726E-14-5.62277E-14
 -1      4197 1.91619E+01 8.17389E-01 5.76715E-03-1.37038E-01 1.25469E-13 1.06775E-14
 -1      4198 1.94461E+01 6.38694E-01-1.30371E-03-1.82005E-01 6.44036E-14-5.47895E-14
 -1      4199 1.95200E+01 5.83406E-01-1.86757E-03-1.58081E-01 2.78504E-14-4.71976E-14
 -1      4200 1.93756E+01 6.90186E-01 3.52442E-03-1.14013E-01 6.77761E-14-1.46587E-13
 -1      4201 1.95945E+01 5.30183E-01-6.99636E-04-1.44000E-01-1.42243E-13-8.92092E-15
 -1      4202 1.96504E+01 4.78592E-01-1.86808E-03-1.24360E-01-2.34157E-13-5.11705E-14
 -1      4203 1.95378E+01 5.78046E-01 3.11729E-03-9.04303E-02 1.22111E-14-4.54176E-14
 -1      4204 1.97080E+01 4.31620E-01-7.07103E-04-1.11994E-01-2.43430E-13-8.14729E-14
 -1      4205 1.97517E+01 3.86496E-01-1.26156E-03-9.51767E-02-3.17480E-13-6.76507E-14
 -1      4206 1.96639E+01 4.76040E-01 3.15290E-03-6.98428E-02-2.54965E-13-3.71944E-13
 -1      4207 1.97952E+01 3.44614E-01-6.28145E-04-8.57889E-02-2.86821E-13-2.77208E-14
 -1      4208 1.98282E+01 3.05909E-01-9.91795E-04-7.20632E-02-1.89154E-13 2.02149E-14
 -1      4209 1.97635E+01 3.82298E-01 2.82391E-03-5.42756E-02-2.41591E-13-2.36336E-13
 -1      4210 1.98607E+01 2.70535E-01-4.54543E-04-6.45655E-02-2.78798E-13 1.20493E-13
 -1      4211 1.98850E+01 2.38111E-01-7.60144E-04-5.34956E-02-3.33857E-13 5.08804E-14
 -1      4212 1.98373E+01 3.01733E-01 2.18365E-03-4.14865E-02-1.99951E-13-9.72328E-14
 -1      4213 1.99088E+01 2.08791E-01-3.24003E-04-4.75904E-02-3.84165E-13 1.45762E-13
 -1      4214 1.99263E+01 1.82194E-01-5.73705E-04-3.87911E-02-2.07394E-13-1.22502E-14
 -1      4215 1.98918E+01 2.34126E-01 1.63893E-03-3.09559E-02-3.21909E-13 6.87004E-14
 -1      4216 1.99435E+01 1.58365E-01-2.27010E-04-3.42370E-02-2.19688E-13-1.27348E-13
 -1      4217 1.99558E+01 1.36966E-01-4.25551E-04-2.73610E-02-2.21351E-13-2.88791E-13
 -1      4218 1.99314E+01 1.78560E-01 1.20379E-03-2.25189E-02-3.01538E-13 1.85277E-13
 -1      4219 1.99678E+01 1.17956E-01-1.55401E-04-2.39207E-02 9.19462E-14-3.07906E-13
 -1      4220 1.99761E+01 1.01050E-01-3.09526E-04-1.86429E-02 5.85247E-14-2.02700E-13
 -1      4221 1.99595E+01 1.33766E-01 8.64944E-04-1.59143E-02-5.92685E-14-1.40190E-13
 -1      4222 1.99842E+01 8.61507E-02-1.03116E-04-1.60985E-02 1.91654E-14-1.09976E-13
 -1      4223 1.99897E+01 7.30236E-02-2.20178E-04-1.21218E-02 1.03633E-13 9.40526E-15
 -1      4224 1.99788E+01 9.83101E-02 6.05781E-04-1.08539E-02 3.91281E-14-1.35398E-13
 -1      4225 1.99949E+01 6.15444E-02-6.51295E-05-1.02810E-02 3.27809E-14-4.58728E-14
 -1      4226 1.99982E+01 5.15154E-02-1.50620E-04-7.34293E-03 8.50768E-14-4.48070E-14
 -1      4227 1.99915E+01 7.07232E-02 4.08265E-04-7.06139E-03-3.96701E-15-2.29716E-13
 -1      4228 2.00014E+01 4.28113E-02-3.55427E-05-6.02913E-03 2.14854E-13-1.72800E-14
 -1      4229 2.00032E+01 3.52746E-02-1.03261E-04-3.95297E-03 2.32484E-13 2.51181E-14
 -1      4230 1.99993E+01 4.95781E-02 2.42011E-04-4.28890E-03 1.80890E-13-1.92060E-13
 -1      4231 2.00046E+01 3.03702E-02 2.92526E-05-3.17657E-03 1.22194E-13-2.39953E-14
 -1      4232 2.00053E+01 2.45686E-02-5.34258E-05-1.78822E-03 1.62970E-13-3.97922E-14
 -1      4233 2.00052E+01 2.54556E-02 1.57393E-05-1.10212E-03 2.82836E-13 3.06370E-13
 -1      4234 2.00034E+01 3.52361E-02 1.40526E-04-2.34344E-03 2.37930E-13 9.98566E-14
 -1      4235 1.93607E+01 6.84022E-01-2.78605E-03 2.87274E-01-4.58473E-14-3.43547E-14
 -1      4236 1.92747E+01 7.36830E-01-1.06886E-03 3.27927E-01-9.25992E-14-1.43278E-15
 -1      4237 1.76250E+01 1.05166E+00-1.29581E-02-1.39794E+00 2.56618E-14-2.79761E-13
 -1      4238 1.95228E+01 5.79786E-01-2.16492E-03 2.23311E-01-3.56050E-14-9.74411E-14
 -1      4239 1.94547E+01 6.32909E-01-4.66177E-04 2.57392E-01-1.91920E-14-4.82901E-14
 -1      4240 1.93672E+01 6.94999E-01 4.41976E-03 1.99489E-01 1.19962E-14-2.37550E-13
 -1      4241 1.96492E+01 4.81123E-01-2.03996E-03 1.72454E-01-1.00143E-14-1.06416E-13
 -1      4242 1.95978E+01 5.30860E-01 3.83174E-06 2.00824E-01 1.11936E-14 2.08910E-14
 -1      4243 1.95295E+01 5.82339E-01 2.70176E-03 1.52460E-01-7.86981E-14-1.83691E-13
 -1      4244 1.97486E+01 3.90627E-01-1.72316E-03 1.30753E-01 1.83556E-14-2.21231E-13
 -1      4245 1.97085E+01 4.35224E-01-2.26761E-04 1.53312E-01-5.47609E-14-1.62921E-13
 -1      4246 1.96548E+01 4.83182E-01 2.67109E-03 1.17425E-01 4.36377E-14-2.92541E-13
 -1      4247 1.98247E+01 3.11281E-01-1.37098E-03 9.78694E-02-1.03501E-13-3.00151E-13
 -1      4248 1.97943E+01 3.50179E-01-1.90196E-04 1.15905E-01-2.00565E-14-3.33311E-13
 -1      4249 1.97556E+01 3.92155E-01 3.03236E-03 8.94883E-02 3.48857E-14-3.05227E-13
 -1      4250 1.98817E+01 2.43666E-01-1.06837E-03 7.20815E-02-1.37991E-13-1.46134E-13
 -1      4251 1.98592E+01 2.76608E-01-1.16812E-04 8.63846E-02-2.11157E-13-2.56748E-13
 -1      4252 1.98309E+01 3.11408E-01 2.47156E-03 6.69541E-02-1.82373E-13-2.24310E-13
 -1      4253 1.99235E+01 1.87397E-01-8.20246E-04 5.20253E-02-2.49893E-14-1.26341E-14
 -1      4254 1.99073E+01 2.14643E-01-5.96261E-05 6.32425E-02-3.84098E-14-5.93170E-14
 -1      4255 1.98867E+01 2.42852E-01 1.88575E-03 4.91803E-02-1.74423E-13-1.83740E-13
 -1      4256 1.99535E+01 1.41551E-01-6.20334E-04 3.66300E-02-9.76279E-15 2.14000E-13
 -1      4257 1.99421E+01 1.63621E-01-2.06778E-05 4.53085E-02-5.17873E-14 9.86324E-14
 -1      4258 1.99275E+01 1.86072E-01 1.39685E-03 3.53803E-02-1.40787E-13-1.97963E-13
 -1      4259 1.99744E+01 1.04923E-01-4.61412E-04 2.49881E-02-6.56746E-14 2.18077E-13
 -1      4260 1.99666E+01 1.22459E-01 4.61406E-06 3.16017E-02-6.40893E-14 2.10127E-13
 -1      4261 1.99566E+01 1.40020E-01 1.01030E-03 2.48231E-02-5.00780E-14 5.22941E-14
 -1      4262 1.99884E+01 7.61921E-02-3.36970E-04 1.63282E-02 6.52002E-14 3.45036E-13
 -1      4263 1.99834E+01 8.98765E-02 1.97919E-05 2.12862E-02 8.89049E-15 2.75776E-13
 -1      4264 1.99767E+01 1.03378E-01 7.12620E-04 1.68682E-02-1.23022E-13 1.74935E-13
 -1      4265 1.99973E+01 5.40481E-02-2.37175E-04 1.00012E-02 4.26313E-14 4.03263E-13
 -1      4266 1.99943E+01 6.45462E-02 2.79528E-05 1.36523E-02 1.43430E-13 4.33053E-13
 -1      4267 1.99901E+01 7.47428E-02 4.87199E-04 1.09734E-02-2.46031E-14 2.11881E-13
 -1      4268 2.00026E+01 3.72320E-02-1.78895E-04 5.49130E-03 1.73247E-14 1.31453E-13
 -1      4269 2.00010E+01 4.51494E-02 2.47440E-05 8.08197E-03 4.11666E-14 3.73855E-13
 -1      4270 1.99985E+01 5.27411E-02 3.07426E-04 6.67495E-03 9.66916E-14 2.34805E-13
 -1      4271 2.00050E+01 2.57413E-02-1.01588E-04 2.33973E-03 2.78498E-13-3.23514E-13
 -1      4272 2.00044E+01 3.18070E-02 7.15169E-05 4.08015E-03 1.97029E-13-3.48250E-15
 -1      4273 2.00029E+01 3.72193E-02 1.67868E-04 3.38926E-03 3.33331E-13-3.78415E-15
 -1      4274 2.00051E+01 2.61620E-02 4.64996E-05 1.26794E-03 3.68606E-13-1.10367E-13
 -1      4275 1.56656E+01 1.25974E+00-1.19285E-02-3.76214E-01 6.11716E-14-3.29097E-13
 -1      4276 1.58884E+01 1.07397E+00-1.04193E-02-1.17124E+00 2.24963E-14-3.28268E-13
 -1      4277 1.60112E+01-8.60368E-01 5.37510E-02-3.55475E+00 9.14494E-14 3.95937E-13
 -1      4278 1.82088E+01 9.67388E-01-1.07748E-02 7.74213E-01-1.16660E-14 1.12724E-13
 -1      4279 1.80431E+01 9.62214E-01 1.29047E-03 8.87051E-01-4.88958E-14 3.72998E-14
 -1      4280 1.68995E+01 7.49597E-01-2.45863E-02 1.44713E+00-7.76091E-14-5.92339E-14
 -1      4281 1.82784E+01 1.91194E+00-5.88037E-03 4.57214E-01 2.80580E-14-3.10095E-13
 -1      4282 1.46201E+01 1.06512E+00 4.56987E-02-7.32122E-01-8.07672E-14 3.65690E-13
 -1      4283 1.53878E+01 8.57405E-01-1.87431E-03-1.29431E+00-6.17227E-14 3.57772E-13
 -1      4284 1.58746E+01 9.77413E-01-2.16383E-02-1.04256E+00-6.26673E-14 3.19614E-13
 -1      4285 1.50206E+01 1.08439E+00 1.05399E-02-1.35228E-01-6.82484E-14 3.14593E-13
 -1      4286 1.80175E+01 1.79859E+00 6.36319E-03 4.29298E-01 4.82482E-14-3.04474E-13
 -1      4287 1.75896E+01 1.72148E+00-2.50287E-03 2.84247E-01 6.92164E-14-2.89580E-13
 -1      4288 1.76550E+01 1.63522E+00-9.97052E-03 5.56712E-01 5.95941E-14-3.05724E-13
 -1      4289 1.73305E+01 1.50403E+00-5.66509E-03 6.89853E-01 5.09928E-14-2.87035E-13
 -1      4290 1.72527E+01 1.62235E+00 9.28809E-03 1.15207E-01 6.70609E-14-3.01460E-13
 -1      4291 1.77383E+01 9.19319E-01-1.71112E-02 1.01383E+00-2.13767E-14-9.47638E-14
 -1      4292 1.75790E+01 8.84226E-01 7.18994E-03 1.16946E+00-8.12176E-14-7.66201E-14
 -1      4293 1.76924E+01 1.10235E+00 2.62362E-02 7.60187E-01-1.73225E-13 9.62743E-14
 -1      4294 1.85905E+01 9.44745E-01-7.74229E-03 6.00396E-01-1.73489E-13 1.95857E-13
 -1      4295 1.84464E+01 9.68076E-01 2.94841E-04 6.83930E-01-1.17433E-14 1.67036E-13
 -1      4296 1.81900E+01 1.08485E+00 2.02692E-02 5.71714E-01-1.19984E-13 2.21639E-13
 -1      4297 1.81537E+01-5.66602E-01 3.76323E-02 2.74112E+00-3.18513E-13 2.85631E-14
 -1      4298 1.70346E+01 1.03503E+00 1.33569E-02-1.35936E+00 3.44863E-15-3.05032E-13
 -1      4299 1.91545E+01 7.87349E-01-4.29514E-03 3.68033E-01-9.75497E-14 9.52494E-14
 -1      4300 1.90525E+01 8.37819E-01-4.55131E-04 4.19429E-01-1.05336E-13 1.78520E-13
 -1      4301 1.91584E+01 8.16259E-01 8.07104E-03 2.61785E-01-2.50744E-14-1.76428E-13
 -1      4302 1.60731E+01 1.10192E+00-5.16001E-03 4.19920E-01-1.75130E-13 1.04925E-13
 -1      4303 1.55532E+01 1.20348E+00 2.64051E-02-5.51188E-03-1.27978E-13 2.20601E-13
 -1      4304 1.89015E+01 8.78431E-01-5.81262E-03 4.69652E-01-2.48367E-13 1.74993E-13
 -1      4305 1.87794E+01 9.19375E-01-2.47133E-04 5.34092E-01-2.59386E-13 1.61215E-13
 -1      4306 1.89049E+01 9.25797E-01 1.16008E-02 3.37650E-01-1.49625E-13-1.77933E-14
 -1      4307 1.67806E+01 1.00956E+00 2.44536E-02 1.08599E+00-7.42026E-14-6.69517E-15
 -1      4308 1.69910E+01 1.39200E+00 1.13844E-02-8.45546E-01 6.58337E-14-2.58065E-13
 -1      4309 2.00050E+01 2.54653E-02-8.25953E-05-3.62083E-04 2.41092E-13 2.10803E-13
 -1      4310 2.00041E+01 3.06120E-02-2.03200E-05 3.24321E-04 3.78080E-13 1.09068E-13
 -1      4311 1.85863E+01 1.01984E+00 1.53008E-02 4.36969E-01-1.87425E-13 2.24812E-13
 -1      4312 1.67325E+01 1.13110E+00-2.64158E-02 2.78899E-01-2.07513E-13 1.53799E-13
 -1      4313 1.65092E+01 1.29867E+00-1.21413E-02 7.48856E-01 8.57329E-14-2.65660E-13
 -1      4314 1.58661E+01 1.38903E+00 2.38308E-02 1.04353E-01 8.10864E-14-2.98759E-13
 -1      4315 1.64317E+01 1.40969E+00 8.85870E-03-2.48143E-01 6.86955E-14-2.90438E-13
 -1      4316 1.69475E+01 1.43255E+00-1.63363E-02 5.88881E-01 5.82169E-14-2.67817E-13
 -1      4317 1.93762E+01 6.73660E-01-1.66750E-03 1.05696E-01-1.88843E-14-3.38710E-13
 -1      4318 1.92799E+01 7.39487E-01 1.38545E-03 1.26216E-01 1.06069E-13-3.92836E-13
 -1      4319 1.67656E+01 1.47711E+00-7.99897E-03-4.34444E-01 6.68179E-14-2.92699E-13
 -1      4320 1.71670E+01 1.14250E+00-1.82121E-02 2.82906E-01-1.97044E-13 2.15675E-13
 -1      4321 1.59214E+01 1.15432E+00 6.52117E-03-5.67207E-01-1.64072E-13 3.17458E-13
 -1      4322 1.74710E+01 1.13717E+00-2.18574E-02 1.93098E-01-2.26520E-13 2.48625E-13
 -1      4323 1.78008E+01 1.12899E+00-1.36332E-02 1.95221E-01-1.55113E-13 1.42375E-13
 -1      4324 1.80407E+01 1.09857E+00-1.61313E-02 1.34631E-01-1.53281E-13 1.66116E-13
 -1      4325 1.82940E+01 1.06857E+00-1.00754E-02 1.38205E-01-9.09688E-14 7.21629E-14
 -1      4326 1.84847E+01 1.02208E+00-1.18593E-02 9.45994E-02-3.65993E-14-6.11667E-14
 -1      4327 1.86828E+01 9.77080E-01-7.47336E-03 9.88130E-02-1.28151E-14-1.36549E-13
 -1      4328 1.88356E+01 9.21230E-01-8.70726E-03 6.67273E-02-1.15778E-14-2.19866E-13
 -1      4329 1.89925E+01 8.67849E-01-5.21736E-03 7.13807E-02 1.31045E-15-2.74822E-13
 -1      4330 1.92830E+01 7.30144E-01-1.96437E-03-4.81488E-02 1.32482E-13-3.06443E-13
 -1      4331 1.93797E+01 6.71341E-01-2.20367E-03-3.93207E-02 7.98895E-14-2.08190E-13
 -1      4332 1.94879E+01 6.02468E-01-7.57960E-04-2.82975E-02 4.16128E-14-4.08986E-13
 -1      4333 1.95578E+01 5.51467E-01-6.59696E-05-2.28167E-02-1.29925E-13-5.39134E-13
 -1      4334 1.96419E+01 4.76849E-01-2.07923E-03 1.66713E-02-1.16542E-13-4.88745E-13
 -1      4335 1.96992E+01 4.28238E-01-1.66153E-03 2.01202E-02-1.24397E-13-4.44604E-13
 -1      4336 1.97438E+01 3.82763E-01-2.34446E-03 1.07742E-02-1.36983E-13-3.56618E-13
 -1      4337 1.97878E+01 3.41784E-01-1.45832E-03 1.45935E-02-1.39790E-13-2.86965E-13
 -1      4338 1.98218E+01 3.02839E-01-1.90487E-03 7.13674E-03-1.77291E-13-2.35561E-13
 -1      4339 1.98550E+01 2.68146E-01-1.12153E-03 1.05870E-02-1.99677E-13-1.75026E-13
 -1      4340 1.98802E+01 2.35569E-01-1.45978E-03 4.69446E-03-2.26608E-13-6.16939E-14
 -1      4341 1.99046E+01 2.06773E-01-8.24996E-04 7.60326E-03-3.07931E-13-2.22961E-14
 -1      4342 1.99230E+01 1.80092E-01-1.08965E-03 3.02050E-03-2.47878E-13-9.49081E-15
 -1      4343 1.99406E+01 1.56665E-01-5.89737E-04 5.38569E-03-1.10722E-13-4.26097E-14
 -1      4344 1.99535E+01 1.35235E-01-7.96355E-04 1.87171E-03-9.65332E-14-2.63017E-16
 -1      4345 1.99658E+01 1.16534E-01-4.09547E-04 3.74377E-03-5.10206E-14 3.86190E-15
 -1      4346 1.99747E+01 9.96359E-02-5.68888E-04 1.08896E-03-1.12611E-13 4.77281E-14
 -1      4347 1.99830E+01 8.49708E-02-2.73956E-04 2.53496E-03-9.55980E-14-3.62593E-14
 -1      4348 1.99888E+01 7.18800E-02-3.93304E-04 5.65203E-04-7.80316E-14-5.40575E-14
 -1      4349 1.99942E+01 6.05739E-02-1.69110E-04 1.65595E-03-2.23606E-14-3.90286E-14
 -1      4350 1.99978E+01 5.06288E-02-2.44855E-04 2.33801E-04 1.55503E-13 7.83063E-15
 -1      4351 2.00010E+01 4.20715E-02-6.91571E-05 9.70190E-04 3.51136E-13-2.63880E-14
 -1      4352 2.00026E+01 3.55955E-02-1.55128E-04-3.06230E-04 4.61231E-13-4.80988E-14
 -1      4353 1.95528E+01 5.50490E-01-1.75319E-03 8.58257E-02-5.96574E-15-6.11231E-13
 -1      4354 1.94823E+01 6.04343E-01-1.30816E-03 1.03100E-01-1.56313E-13-4.81460E-13
 -1      4355 1.91155E+01 8.10505E-01-5.06906E-03 4.82249E-02 1.02217E-13-2.68789E-13
 -1      4356 1.68740E+01 1.53352E+00-9.63071E-03-2.70173E-03 7.25570E-14-2.92656E-13
 -1      4357 1.92376E+01 7.52840E-01-3.21046E-03 4.97250E-02 1.75890E-13-2.97049E-13
 -1      4358 1.69067E+01 1.53395E+00 8.98213E-03 2.88342E-01 6.33228E-14-2.87984E-13
 -1      4359 1.94239E+01 6.50020E-01 1.71839E-03 3.43698E-02 1.75405E-14-4.85578E-13
 -1      4360 1.95839E+01 5.28335E-01-1.23838E-03 2.61573E-02-5.14364E-14-4.78422E-13
 -1      4361 1.64925E+01-5.49116E-01 8.93922E-03-3.18499E+00 8.98812E-14 2.89165E-13
 -3
    1PSTEP                         3           1           1          
  100CL  101 1.000000000        4361                     0    1           1
 -4  TOSTRAIN    6    1
 -5  EXX         1    4    1    1
 -5  EYY         1    4    2    2
 -5  EZZ         1    4    3    3
 -5  EXY         1    4    1    2
 -5  EYZ         1    4    2    3
 -5  EZX         1    4    3    1
 -1         1 3.54893E-05-1.09111E-04 1.96415E-05-1.16651E-05-1.09453E-17-1.37532E-18
 -1         2 3.69492E-05-1.11507E-04 2.01011E-05-1.52723E-08 1.03639E-17-1.48019E-19
 -1         3 9.52379E-05-2.85703E-05-2.85724E-05 1.04085E-09-2.63534E-18-2.92983E-18
 -1         4 9.52379E-05-2.85704E-05-2.85724E-05-9.18258E-10 2.51789E-18-5.31949E-19
 -1         5 1.42364E-04-2.11075E-05-4.26954E-05 3.77801E-05-3.01385E-19 1.98687E-17
 -1         6 1.43973E-04 2.60247E-10-4.43039E-05-5.22794E-05-1.24006E-18 1.66346E-17
 -1         7 9.24031E-05-6.76033E-07-3.95727E-05-2.75133E-05-1.65595E-19 1.93290E-18
 -1         8 8.69465E-05 1.13924E-08-3.69951E-05-1.77327E-05-2.05353E-19-2.25889E-18
 -1         9 8.41703E-05 3.77130E-08-3.58739E-05-1.26483E-05-1.61836E-19-4.42545E-18
 -1        10 8.23563E-05 2.68117E-08-3.51277E-05-9.01034E-06-8.27445E-20-5.37209E-18
 -1        11 8.09838E-05 2.59306E-08-3.45759E-05-6.22344E-06-4.46413E-20-5.75973E-18
 -1        12 7.99518E-05 2.88859E-08-3.41669E-05-4.06497E-06-8.62253E-21-5.83029E-18
 -1        13 7.92309E-05 3.34822E-08-3.38835E-05-2.28229E-06 1.18915E-20-5.75595E-18
 -1        14 7.88705E-05 3.60385E-08-3.37417E-05-7.41683E-07 4.26742E-20-5.57210E-18
 -1        15 7.88874E-05 3.56380E-08-3.37475E-05 7.28355E-07 6.75823E-20-5.29933E-18
 -1        16 7.92768E-05 3.23683E-08-3.38990E-05 2.29766E-06 8.94679E-20-5.01334E-18
 -1        17 8.00146E-05 2.63882E-08-3.41875E-05 4.13375E-06 1.32435E-19-4.59115E-18
 -1        18 8.10456E-05 2.32638E-08-3.45952E-05 6.35645E-06 1.49515E-19-3.95774E-18
 -1        19 8.24050E-05 2.52143E-08-3.51428E-05 9.22251E-06 2.09402E-19-2.91128E-18
 -1        20 8.41869E-05 4.35834E-08-3.58836E-05 1.29381E-05 2.47598E-19-1.19180E-18
 -1        21 8.68875E-05 9.08082E-08-3.70228E-05 1.80125E-05 2.74465E-19 1.89600E-18
 -1        22 9.31869E-05-2.38528E-07-3.92388E-05 2.63369E-05 4.05517E-20 7.73268E-18
 -1        23 1.14428E-04-3.86400E-05-3.58567E-05-3.90855E-06-8.14316E-19 1.24559E-17
 -1        24 9.64703E-05-2.88130E-05-3.00672E-05 4.60898E-07-2.40091E-19 8.60497E-18
 -1        25 9.46983E-05-2.85364E-05-2.85966E-05 4.09988E-07-1.43445E-19 5.08169E-18
 -1        26 9.56126E-05-2.87754E-05-2.86861E-05 2.47733E-07 2.36268E-20 2.83089E-18
 -1        27 9.79772E-05-2.94532E-05-2.93901E-05 2.04068E-07-1.06342E-19 1.26477E-18
 -1        28 1.01262E-04-3.04114E-05-3.03873E-05 1.92445E-07-5.61482E-20 2.42860E-20
 -1        29 1.05157E-04-3.15604E-05-3.15546E-05 1.96348E-07 1.34294E-19-7.43960E-19
 -1        30 1.09328E-04-3.27955E-05-3.27854E-05 2.00652E-07-2.63467E-21-1.65035E-18
 -1        31 1.13268E-04-3.39642E-05-3.39232E-05 1.84871E-07-5.79241E-20-2.38769E-18
 -1        32 1.16211E-04-3.48383E-05-3.47354E-05 1.19105E-07-2.73970E-19-3.93597E-18
 -1        33 1.17122E-04-3.51116E-05-3.49249E-05-3.10217E-08 3.79860E-19-4.77409E-18
 -1        34 1.14923E-04-3.44628E-05-3.42099E-05-2.80870E-07-4.56207E-20-4.51536E-18
 -1        35 1.09057E-04-3.27191E-05-3.24925E-05-5.81278E-07 5.89730E-20-6.12476E-18
 -1        36 1.00302E-04-3.01017E-05-3.00540E-05-7.84911E-07 5.75060E-20-6.99480E-18
 -1        37 9.12502E-05-2.73818E-05-2.76241E-05-7.00358E-07-4.83815E-19-7.60506E-18
 -1        38 8.55893E-05-2.56741E-05-2.61429E-05-2.66710E-07-9.24556E-20-9.49926E-18
 -1        39 8.60457E-05-2.58117E-05-2.62697E-05 3.19069E-07-1.94043E-19-9.54108E-18
 -1        40 9.24987E-05-2.77575E-05-2.79766E-05 7.29575E-07 2.61076E-19-8.81597E-18
 -1        41 1.02074E-04-3.06337E-05-3.05677E-05 7.87473E-07-1.52653E-19-8.88125E-18
 -1        42 1.11124E-04-3.33383E-05-3.31075E-05 5.71665E-07-2.04463E-20-9.37353E-18
 -1        43 1.17207E-04-3.51468E-05-3.49021E-05 2.75154E-07-2.75006E-19-8.22309E-18
 -1        44 1.19692E-04-3.58814E-05-3.57083E-05 3.83787E-08 1.69097E-19-7.36177E-18
 -1        45 1.19210E-04-3.57361E-05-3.56487E-05-9.64021E-08-1.13411E-19-6.49079E-18
 -1        46 1.16847E-04-3.50338E-05-3.50094E-05-1.47086E-07 1.62413E-20-6.05652E-18
 -1        47 1.13597E-04-3.40685E-05-3.40784E-05-1.47473E-07 3.44988E-19-3.68879E-18
 -1        48 1.10166E-04-3.30478E-05-3.30708E-05-1.25137E-07 2.24391E-19-2.36447E-18
 -1        49 1.06964E-04-3.20935E-05-3.21177E-05-9.66809E-08 2.42539E-19-4.33078E-18
 -1        50 1.04185E-04-3.12637E-05-3.12841E-05-7.00936E-08-5.30617E-19-7.02602E-18
 -1        51 1.01888E-04-3.05762E-05-3.05914E-05-4.82742E-08 1.74485E-19-6.75368E-18
 -1        52 1.00053E-04-3.00262E-05-3.00367E-05-3.16142E-08 1.87769E-19-4.98396E-18
 -1        53 9.86294E-05-2.95983E-05-2.96051E-05-1.94858E-08-1.07293E-19-5.55607E-18
 -1        54 9.75501E-05-2.92734E-05-2.92775E-05-1.09794E-08 2.74024E-19-6.83005E-18
 -1        55 9.67506E-05-2.90323E-05-2.90345E-05-5.21856E-09-4.67483E-19-7.59892E-18
 -1        56 9.61720E-05-2.88575E-05-2.88584E-05-1.46760E-09 6.46284E-19-6.88210E-18
 -1        57 9.57641E-05-2.87340E-05-2.87341E-05 8.51541E-10 2.12213E-19-4.16073E-18
 -1        58 9.54853E-05-2.86493E-05-2.86490E-05 2.17605E-09 4.80959E-21-4.46540E-18
 -1        59 9.53024E-05-2.85936E-05-2.85930E-05 2.82854E-09 2.88499E-19-4.54486E-18
 -1        60 9.51893E-05-2.85590E-05-2.85583E-05 3.04301E-09-1.81740E-19-3.75019E-18
 -1        61 9.51257E-05-2.85393E-05-2.85386E-05 2.98661E-09 5.60062E-19-2.26184E-18
 -1        62 9.50965E-05-2.85301E-05-2.85295E-05 2.77685E-09-3.60615E-19-1.32019E-18
 -1        63 9.50904E-05-2.85280E-05-2.85274E-05 2.49456E-09-2.07278E-19-1.26144E-18
 -1        64 9.50991E-05-2.85303E-05-2.85298E-05 2.19372E-09-3.33840E-19-4.05830E-18
 -1        65 9.51168E-05-2.85354E-05-2.85350E-05 1.90846E-09-6.50450E-19-3.20846E-18
 -1        66 9.51395E-05-2.85421E-05-2.85418E-05 1.65758E-09 6.60445E-19-2.99749E-18
 -1        67 9.51640E-05-2.85493E-05-2.85491E-05 1.44601E-09 2.95259E-19-1.09731E-18
 -1        68 9.51883E-05-2.85565E-05-2.85563E-05 1.26089E-09 4.00701E-19-1.54824E-19
 -1        69 9.52102E-05-2.85630E-05-2.85627E-05 1.05102E-09 7.92286E-20-9.85938E-19
 -1        70 9.52273E-05-2.85682E-05-2.85677E-05 6.20980E-10-9.17520E-20-1.04219E-18
 -1        71 9.52369E-05-2.85713E-05-2.85707E-05-9.06760E-11-3.47842E-19-2.67919E-18
 -1        72 1.03738E-04-3.10421E-05-3.46506E-05-2.07571E-06 1.85368E-19 1.86195E-17
 -1        73 9.61937E-05-2.86169E-05-2.99674E-05-3.71179E-07 1.77520E-19 1.49336E-17
 -1        74 9.45505E-05-2.83436E-05-2.85992E-05-1.43381E-07 1.03343E-19 1.18716E-17
 -1        75 9.53870E-05-2.86441E-05-2.86516E-05-1.13746E-07 3.70660E-21 9.94995E-18
 -1        76 9.75667E-05-2.92910E-05-2.92801E-05-1.08353E-07 4.32309E-20 8.66003E-18
 -1        77 1.00555E-04-3.01733E-05-3.01764E-05-1.18100E-07 6.03250E-20 7.97832E-18
 -1        78 1.04005E-04-3.11969E-05-3.12022E-05-1.38965E-07-9.86537E-20 7.62690E-18
 -1        79 1.07547E-04-3.22518E-05-3.22388E-05-1.64252E-07 1.26153E-19 6.70541E-18
 -1        80 1.10673E-04-3.31875E-05-3.31304E-05-1.80874E-07-3.05590E-19 6.15199E-18
 -1        81 1.12682E-04-3.37977E-05-3.36686E-05-1.65532E-07 1.32003E-19 6.53201E-18
 -1        82 1.12730E-04-3.38319E-05-3.36160E-05-8.62750E-08 1.53949E-19 6.37842E-18
 -1        83 1.10058E-04-3.30589E-05-3.27832E-05 8.16711E-08-9.67801E-21 5.72422E-18
 -1        84 1.04459E-04-3.14007E-05-3.11587E-05 3.21065E-07-8.94985E-20 5.89974E-18
 -1        85 9.68287E-05-2.91040E-05-2.90380E-05 5.40404E-07 1.92541E-19 5.15396E-18
 -1        86 8.93679E-05-2.68188E-05-2.70330E-05 5.96857E-07 1.42967E-19 3.13670E-18
 -1        87 8.49057E-05-2.54176E-05-2.58681E-05 3.99122E-07-5.42397E-19 3.79141E-18
 -1        88 8.54207E-05-2.55380E-05-2.60211E-05 1.62840E-08-1.56031E-19 5.21268E-18
 -1        89 9.07839E-05-2.71621E-05-2.74565E-05-3.53613E-07 4.15683E-19 2.79357E-18
 -1        90 9.88456E-05-2.96263E-05-2.96434E-05-5.37150E-07-3.88145E-19 9.69270E-19
 -1        91 1.06781E-04-3.20475E-05-3.18594E-05-5.06107E-07 3.02220E-19 2.38985E-18
 -1        92 1.12546E-04-3.37948E-05-3.35355E-05-3.50855E-07-1.59717E-19 2.52150E-18
 -1        93 1.15419E-04-3.46558E-05-3.44282E-05-1.74925E-07 1.71280E-19 2.25026E-18
 -1        94 1.15717E-04-3.47356E-05-3.45836E-05-3.82341E-08-3.23155E-20 4.77452E-19
 -1        95 1.14224E-04-3.42776E-05-3.42002E-05 4.42301E-08-9.31542E-20 8.96161E-19
 -1        96 1.11751E-04-3.35292E-05-3.35058E-05 8.19445E-08 1.51833E-19 2.76888E-18
 -1        97 1.08932E-04-3.26799E-05-3.26883E-05 9.07644E-08-1.71989E-19 3.88946E-18
 -1        98 1.06173E-04-3.18512E-05-3.18743E-05 8.41528E-08 2.77751E-19 3.00620E-18
 -1        99 1.03697E-04-3.11085E-05-3.11359E-05 7.10363E-08-1.15698E-19 1.62726E-18
 -1       100 1.01597E-04-3.04788E-05-3.05051E-05 5.64862E-08 1.87507E-19 2.12875E-18
 -1       101 9.98859E-05-2.99660E-05-2.99888E-05 4.29987E-08 1.76074E-19 1.87481E-18
 -1       102 9.85366E-05-2.95616E-05-2.95801E-05 3.15670E-08 1.41349E-19 8.48308E-19
 -1       103 9.75011E-05-2.92511E-05-2.92656E-05 2.23942E-08-1.53589E-19 2.50782E-18
 -1       104 9.67263E-05-2.90188E-05-2.90297E-05 1.53140E-08 3.45355E-20 4.78530E-18
 -1       105 9.61612E-05-2.88492E-05-2.88573E-05 1.00171E-08 3.69298E-19 3.19693E-18
 -1       106 9.57603E-05-2.87289E-05-2.87347E-05 6.16474E-09-7.14154E-19 1.65028E-18
 -1       107 9.54850E-05-2.86462E-05-2.86502E-05 3.44197E-09 3.37817E-19-2.66742E-19
 -1       108 9.53036E-05-2.85917E-05-2.85944E-05 1.57808E-09-4.58289E-19-1.54331E-18
 -1       109 9.51910E-05-2.85578E-05-2.85595E-05 3.51116E-10-1.02200E-19-1.41333E-19
 -1       110 9.51274E-05-2.85386E-05-2.85397E-05-4.15550E-10 2.93914E-19-1.50011E-18
 -1       111 9.50981E-05-2.85298E-05-2.85303E-05-8.59508E-10 3.64760E-20-5.99390E-19
 -1       112 9.50918E-05-2.85278E-05-2.85281E-05-1.08613E-09-6.42938E-19-1.07491E-18
 -1       113 9.51003E-05-2.85303E-05-2.85304E-05-1.17496E-09 9.38530E-19-2.01621E-18
 -1       114 9.51179E-05-2.85355E-05-2.85355E-05-1.18534E-09-5.36931E-19-2.34925E-18
 -1       115 9.51404E-05-2.85422E-05-2.85421E-05-1.16081E-09 4.24682E-20-2.27048E-19
 -1       116 9.51648E-05-2.85495E-05-2.85493E-05-1.13134E-09 1.99053E-19 1.44155E-19
 -1       117 9.51890E-05-2.85567E-05-2.85565E-05-1.11144E-09 5.43544E-19-5.51683E-18
 -1       118 9.52108E-05-2.85632E-05-2.85629E-05-1.08717E-09-2.16770E-19-7.59518E-18
 -1       119 9.52278E-05-2.85684E-05-2.85678E-05-9.25622E-10 4.79344E-19-1.00982E-17
 -1       120 9.52369E-05-2.85714E-05-2.85707E-05-1.74551E-10 1.01737E-18-8.77444E-18
 -1       121 9.52373E-05-2.85720E-05-2.85707E-05 2.58500E-11-7.17957E-18-1.05484E-18
 -1       122 9.52401E-05-2.85809E-05-2.85678E-05-7.02770E-10-2.23455E-18 6.02550E-19
 -1       123 9.52447E-05-2.85964E-05-2.85634E-05-9.60663E-10-9.51296E-19-5.43869E-19
 -1       124 9.52500E-05-2.86139E-05-2.85584E-05-9.23317E-10-2.00060E-18 6.45803E-19
 -1       125 9.52549E-05-2.86305E-05-2.85535E-05-7.56007E-10-1.53092E-19 3.10045E-19
 -1       126 9.52590E-05-2.86441E-05-2.85495E-05-5.55552E-10-3.13990E-18-2.06850E-19
 -1       127 9.52618E-05-2.86538E-05-2.85466E-05-3.33216E-10-5.31483E-18 8.50305E-19
 -1       128 9.52633E-05-2.86587E-05-2.85452E-05-1.10309E-10-6.14602E-18-6.18040E-19
 -1       129 9.52633E-05-2.86587E-05-2.85452E-05 1.11751E-10-3.64565E-18 1.04495E-18
 -1       130 9.52618E-05-2.86537E-05-2.85467E-05 3.34599E-10-2.52691E-18-1.56129E-18
 -1       131 9.52589E-05-2.86440E-05-2.85495E-05 5.64759E-10-3.74649E-18 5.04217E-19
 -1       132 9.52549E-05-2.86304E-05-2.85536E-05 7.61347E-10-4.68174E-18 1.66589E-18
 -1       133 9.52499E-05-2.86137E-05-2.85584E-05 9.26015E-10-1.91606E-18-6.20011E-19
 -1       134 9.52447E-05-2.85961E-05-2.85635E-05 1.02306E-09-9.72578E-19 9.05212E-20
 -1       135 9.52401E-05-2.85809E-05-2.85679E-05 9.79820E-10 1.44990E-18 4.83562E-19
 -1       136 9.52377E-05-2.85723E-05-2.85707E-05-3.42795E-10 1.46547E-18 5.87862E-20
 -1       137 2.52717E-05-8.69889E-05 1.57050E-05-2.41904E-05 1.85189E-17 4.78177E-18
 -1       138 7.74965E-06-3.12639E-05 2.38120E-06-1.51153E-05 2.18484E-17 9.87196E-18
 -1       139 1.39469E-05 1.80785E-05-1.69199E-05 2.87504E-05 1.89676E-17 1.43365E-17
 -1       140 6.84479E-05 2.48669E-05-3.79686E-05 8.42965E-05 1.23620E-17 1.52360E-17
 -1       141 1.61300E-04-1.07413E-05-5.75813E-05 1.13313E-04 6.10012E-18 1.11529E-17
 -1       142 2.56152E-04-6.32932E-05-7.18330E-05 8.92625E-05 1.47834E-18 3.54356E-18
 -1       143 3.08256E-04-9.52543E-05-7.86121E-05 1.48725E-05 2.84815E-19-7.30095E-18
 -1       144 2.86306E-04-8.14284E-05-7.59043E-05-6.41303E-05 2.90683E-18-1.63801E-17
 -1       145 2.05825E-04-3.37219E-05-6.48079E-05-1.10865E-04 8.91026E-18-2.18056E-17
 -1       146 1.06026E-04 1.43093E-05-4.72014E-05-1.03626E-04 1.58141E-17-2.33912E-17
 -1       147 3.12859E-05 2.74470E-05-2.60768E-05-5.41576E-05 1.86788E-17-1.78419E-17
 -1       148 4.94310E-06-3.83767E-06-6.22802E-06-6.79200E-07 1.68204E-17-1.03499E-17
 -1       149 1.50969E-05-5.93804E-05 9.55218E-06 2.47787E-05 1.03296E-17-3.79619E-18
 -1       150 3.28417E-05-1.03807E-04 1.88317E-05 1.65298E-05 5.12031E-19-3.14779E-19
 -1       151 1.83063E-05-6.91593E-05 1.16891E-05-2.71590E-05-1.89104E-17-5.73780E-18
 -1       152 4.77134E-06-1.26654E-05-3.25118E-06-6.66315E-06-2.15883E-17-1.20042E-17
 -1       153 2.56054E-05 2.32986E-05-2.27849E-05 4.44794E-05-1.99968E-17-1.80011E-17
 -1       154 9.07944E-05 1.82584E-05-4.35141E-05 9.54986E-05-1.53110E-17-2.04931E-17
 -1       155 1.94773E-04-2.67799E-05-6.32470E-05 1.12708E-04-7.12334E-18-1.51924E-17
 -1       156 2.86428E-04-8.08610E-05-7.60761E-05 6.66737E-05-5.79913E-19-2.88097E-18
 -1       157 3.10201E-04-9.57154E-05-7.90541E-05-1.43357E-05-4.72724E-19 8.24025E-18
 -1       158 2.57947E-04-6.38609E-05-7.21687E-05-8.86788E-05-5.44171E-18 1.79173E-17
 -1       159 1.57163E-04-8.70833E-06-5.68409E-05-1.13490E-04-1.26922E-17 2.39105E-17
 -1       160 6.37979E-05 2.56006E-05-3.67366E-05-8.15551E-05-1.82726E-17 2.17039E-17
 -1       161 1.12064E-05 1.39490E-05-1.45840E-05-2.22252E-05-1.72930E-17 1.35949E-17
 -1       162 8.72360E-06-3.58072E-05 3.52792E-06 1.74707E-05-1.02978E-17 5.16817E-18
 -1       163 2.59604E-05-8.88768E-05 1.60827E-05 2.42073E-05 3.28649E-19 1.20805E-18
 -1       164 9.74537E-05-1.33081E-05-3.62465E-05-1.98053E-05-2.61140E-18-1.95850E-19
 -1       165 9.12913E-05-8.98766E-06-3.54228E-05-1.44706E-05-2.20537E-18-2.65565E-18
 -1       166 8.75617E-05-6.51921E-06-3.48381E-05-1.05187E-05-1.61267E-18-3.98203E-18
 -1       167 8.49997E-05-5.00744E-06-3.43602E-05-7.46213E-06-1.04315E-18-4.66288E-18
 -1       168 8.31129E-05-3.97680E-06-3.39763E-05-5.08105E-06-5.42634E-19-4.84976E-18
 -1       169 8.17370E-05-3.26520E-06-3.36826E-05-3.13481E-06-1.24320E-19-4.86408E-18
 -1       170 8.09123E-05-2.85493E-06-3.35002E-05-1.50057E-06 3.36292E-19-4.71786E-18
 -1       171 8.06581E-05-2.73547E-06-3.34410E-05-1.41436E-08 7.35144E-19-4.57677E-18
 -1       172 8.09781E-05-2.90207E-06-3.35085E-05 1.48739E-06 1.12731E-18-4.28824E-18
 -1       173 8.18539E-05-3.35179E-06-3.36962E-05 3.16405E-06 1.51194E-18-4.04655E-18
 -1       174 8.32273E-05-4.07504E-06-3.39845E-05 5.13381E-06 1.84511E-18-3.53721E-18
 -1       175 8.51443E-05-5.13678E-06-3.43680E-05 7.61881E-06 2.30947E-18-2.73649E-18
 -1       176 8.77045E-05-6.67052E-06-3.48389E-05 1.07681E-05 2.71176E-18-1.50962E-18
 -1       177 9.14221E-05-9.14512E-06-3.54175E-05 1.47772E-05 2.89692E-18 5.73005E-19
 -1       178 9.82612E-05-1.45096E-05-3.60882E-05 1.94904E-05 2.55711E-18 4.13651E-18
 -1       179 1.07898E-04-2.69944E-05-3.58398E-05 1.68981E-05 1.72827E-18 8.79178E-18
 -1       180 1.06300E-04-2.82930E-05-3.34256E-05-1.02126E-05-2.35660E-18 3.12412E-18
 -1       181 1.01235E-04-2.95308E-05-3.07592E-05-2.81084E-06-2.01991E-18 2.12719E-18
 -1       182 9.90933E-05-2.92456E-05-2.98828E-05 3.05638E-07-1.47607E-18 1.16910E-18
 -1       183 9.92393E-05-2.94811E-05-2.98584E-05 1.97899E-06-9.85771E-19 3.54053E-19
 -1       184 1.00615E-04-2.99803E-05-3.02522E-05 3.04532E-06-7.41109E-19-1.04453E-19
 -1       185 1.02794E-04-3.07085E-05-3.08861E-05 3.74334E-06-5.27438E-19-2.83945E-19
 -1       186 1.05458E-04-3.16108E-05-3.16494E-05 4.07321E-06-5.71261E-19-6.51704E-19
 -1       187 1.08282E-04-3.26211E-05-3.24340E-05 3.89821E-06-3.23450E-19-6.46538E-19
 -1       188 1.10861E-04-3.36364E-05-3.31096E-05 2.99123E-06-6.33475E-19-3.77125E-19
 -1       189 1.12665E-04-3.44808E-05-3.35233E-05 1.12393E-06-6.48635E-19-1.57492E-19
 -1       190 1.13077E-04-3.48739E-05-3.35287E-05-1.73740E-06-5.20548E-19-1.61430E-18
 -1       191 1.11560E-04-3.44545E-05-3.30495E-05-5.12708E-06-7.26400E-19-2.17561E-18
 -1       192 1.08010E-04-3.29579E-05-3.21610E-05-7.84162E-06-4.88220E-19-2.44106E-18
 -1       193 1.03222E-04-3.05888E-05-3.11231E-05-8.20347E-06-8.24259E-19-3.03507E-18
 -1       194 9.90275E-05-2.83070E-05-3.03099E-05-5.15767E-06-1.22246E-18-3.03513E-18
 -1       195 9.75222E-05-2.74252E-05-3.00464E-05 4.41212E-07-7.05532E-19-4.43084E-18
 -1       196 9.96057E-05-2.85450E-05-3.04544E-05 5.92613E-06-2.29572E-19-5.43845E-18
 -1       197 1.04244E-04-3.09740E-05-3.13955E-05 8.72214E-06 1.63850E-19-6.28968E-18
 -1       198 1.09320E-04-3.33940E-05-3.25360E-05 8.15025E-06-2.47755E-19-5.75170E-18
 -1       199 1.13076E-04-3.49060E-05-3.35066E-05 5.36713E-06 5.45625E-19-6.00945E-18
 -1       200 1.14804E-04-3.53589E-05-3.40614E-05 2.03844E-06 6.79526E-19-5.02447E-18
 -1       201 1.14658E-04-3.50372E-05-3.41393E-05-6.99027E-07 4.06913E-19-4.21886E-18
 -1       202 1.13180E-04-3.42968E-05-3.38209E-05-2.44361E-06 1.33845E-18-2.18965E-18
 -1       203 1.10956E-04-3.34027E-05-3.32463E-05-3.27286E-06 8.45954E-19-1.11719E-18
 -1       204 1.08457E-04-3.25110E-05-3.25521E-05-3.44705E-06 3.36389E-19-1.78322E-18
 -1       205 1.05997E-04-3.16998E-05-3.18415E-05-3.23039E-06-7.95995E-19-1.77974E-18
 -1       206 1.03758E-04-3.10000E-05-3.11793E-05-2.82288E-06-1.61567E-18-2.13085E-18
 -1       207 1.01823E-04-3.04179E-05-3.05984E-05-2.35353E-06 2.62210E-19-2.73940E-18
 -1       208 1.00214E-04-2.99466E-05-3.01104E-05-1.89573E-06 1.60157E-19-2.97387E-18
 -1       209 9.89147E-05-2.95735E-05-2.97135E-05-1.48568E-06-1.91882E-19-3.69663E-18
 -1       210 9.78909E-05-2.92842E-05-2.93992E-05-1.13713E-06-2.65893E-19-2.06257E-18
 -1       211 9.71017E-05-2.90641E-05-2.91558E-05-8.51331E-07-1.06271E-18-2.67162E-18
 -1       212 9.65060E-05-2.88999E-05-2.89714E-05-6.23307E-07 6.00701E-20-3.41242E-18
 -1       213 9.60658E-05-2.87800E-05-2.88347E-05-4.45428E-07 1.34222E-18-3.84044E-18
 -1       214 9.57478E-05-2.86946E-05-2.87355E-05-3.09428E-07 3.57741E-19-3.50353E-18
 -1       215 9.55242E-05-2.86353E-05-2.86654E-05-2.07430E-07-7.81862E-19-2.52971E-18
 -1       216 9.53718E-05-2.85958E-05-2.86174E-05-1.32419E-07 1.01047E-19-4.03718E-18
 -1       217 9.52725E-05-2.85707E-05-2.85858E-05-7.84043E-08 7.36708E-19-2.44462E-18
 -1       218 9.52118E-05-2.85559E-05-2.85663E-05-4.04196E-08 1.52656E-19-3.07082E-18
 -1       219 9.51785E-05-2.85485E-05-2.85553E-05-1.44498E-08-2.07979E-19-2.78563E-18
 -1       220 9.51643E-05-2.85461E-05-2.85504E-05 2.67752E-09-6.33402E-19-1.82956E-18
 -1       221 9.51628E-05-2.85470E-05-2.85495E-05 1.34048E-08 1.45435E-18-8.58299E-19
 -1       222 9.51694E-05-2.85499E-05-2.85511E-05 1.95483E-08 7.29148E-19 2.76245E-18
 -1       223 9.51808E-05-2.85540E-05-2.85543E-05 2.23820E-08 1.29957E-18 2.64230E-18
 -1       224 9.51944E-05-2.85586E-05-2.85582E-05 2.26960E-08 1.20378E-19 1.58367E-18
 -1       225 9.52083E-05-2.85634E-05-2.85621E-05 2.08262E-08-1.54917E-18 1.33510E-19
 -1       226 9.52208E-05-2.85678E-05-2.85656E-05 1.66780E-08 2.64404E-19-1.38837E-18
 -1       227 9.52309E-05-2.85718E-05-2.85682E-05 1.00397E-08-4.79655E-19 3.64476E-19
 -1       228 1.02836E-04-2.96002E-05-3.15559E-05 5.62122E-06 1.94516E-18 7.44804E-18
 -1       229 9.91158E-05-2.91874E-05-2.99356E-05 1.16825E-06 1.49092E-18 6.07159E-18
 -1       230 9.83187E-05-2.92196E-05-2.95684E-05-7.98044E-07 1.00803E-18 4.91290E-18
 -1       231 9.90949E-05-2.95592E-05-2.97751E-05-1.90143E-06 6.71252E-19 3.92693E-18
 -1       232 1.00824E-04-3.01404E-05-3.02815E-05-2.57785E-06 3.20834E-19 3.56429E-18
 -1       233 1.03110E-04-3.08911E-05-3.09477E-05-2.93090E-06 1.88994E-19 3.22957E-18
 -1       234 1.05612E-04-3.17316E-05-3.16636E-05-2.92166E-06 5.34863E-19 3.04169E-18
 -1       235 1.07946E-04-3.25608E-05-3.23095E-05-2.43079E-06 9.29652E-20 2.92679E-18
 -1       236 1.09644E-04-3.32370E-05-3.27450E-05-1.31460E-06-1.58223E-20 2.55517E-18
 -1       237 1.10173E-04-3.35658E-05-3.28250E-05 4.93885E-07 1.03474E-19 2.84798E-18
 -1       238 1.09050E-04-3.33180E-05-3.24437E-05 2.81900E-06 1.67630E-19 3.22038E-18
 -1       239 1.06092E-04-3.23163E-05-3.16047E-05 5.06825E-06 3.18509E-19 3.10719E-18
 -1       240 1.01743E-04-3.06163E-05-3.04803E-05 6.24421E-06 8.59666E-19 2.21303E-18
 -1       241 9.72552E-05-2.86845E-05-2.94050E-05 5.38020E-06 2.69846E-19 1.90029E-18
 -1       242 9.43712E-05-2.73404E-05-2.87599E-05 2.31022E-06-3.30429E-19 1.99108E-18
 -1       243 9.44408E-05-2.73013E-05-2.88014E-05-1.85127E-06-1.79402E-19 1.46279E-18
 -1       244 9.75165E-05-2.86185E-05-2.95336E-05-5.27270E-06 1.60898E-18 9.36779E-19
 -1       245 1.02325E-04-3.06478E-05-3.07043E-05-6.61862E-06 3.92919E-19 2.87713E-19
 -1       246 1.07097E-04-3.25273E-05-3.19377E-05-5.81459E-06-7.77207E-19 2.96839E-19
 -1       247 1.10539E-04-3.37340E-05-3.29023E-05-3.74315E-06-2.34228E-19 7.10783E-19
 -1       248 1.12172E-04-3.41762E-05-3.34229E-05-1.43145E-06 3.15493E-19 3.95245E-19
 -1       249 1.12155E-04-3.40186E-05-3.34907E-05 4.52866E-07 5.39816E-19 5.33426E-19
 -1       250 1.10949E-04-3.34934E-05-3.32022E-05 1.67488E-06-1.89198E-19-2.01491E-19
 -1       251 1.09057E-04-3.27969E-05-3.26895E-05 2.28330E-06-9.82282E-19 1.16203E-18
 -1       252 1.06890E-04-3.20625E-05-3.20736E-05 2.44074E-06-1.12188E-19 1.95736E-18
 -1       253 1.04732E-04-3.13685E-05-3.14441E-05 2.31762E-06 4.17421E-19 1.77344E-18
 -1       254 1.02752E-04-3.07541E-05-3.08569E-05 2.04826E-06 4.28796E-19 1.82332E-18
 -1       255 1.01032E-04-3.02339E-05-3.03414E-05 1.72348E-06 3.48082E-20 1.45133E-18
 -1       256 9.95966E-05-2.98079E-05-2.99080E-05 1.39795E-06-2.06719E-19 1.46358E-18
 -1       257 9.84359E-05-2.94686E-05-2.95557E-05 1.10072E-06 2.51614E-19 1.34071E-18
 -1       258 9.75221E-05-2.92046E-05-2.92771E-05 8.44494E-07-8.53685E-19 1.50788E-18
 -1       259 9.68197E-05-2.90038E-05-2.90623E-05 6.32263E-07 1.77607E-19 1.43248E-18
 -1       260 9.62923E-05-2.88546E-05-2.89004E-05 4.61767E-07 1.34788E-18 3.73313E-19
 -1       261 9.59055E-05-2.87462E-05-2.87813E-05 3.28228E-07-1.18145E-19 1.15134E-18
 -1       262 9.56292E-05-2.86696E-05-2.86959E-05 2.25971E-07 9.85431E-19 6.57852E-19
 -1       263 9.54377E-05-2.86172E-05-2.86365E-05 1.49338E-07 2.16977E-19 2.45420E-19
 -1       264 9.53102E-05-2.85829E-05-2.85968E-05 9.31446E-08-3.30828E-19-3.92116E-19
 -1       265 9.52297E-05-2.85618E-05-2.85715E-05 5.28883E-08 8.87213E-20 2.74938E-19
 -1       266 9.51831E-05-2.85501E-05-2.85566E-05 2.47965E-08-1.17303E-19 1.62929E-18
 -1       267 9.51605E-05-2.85450E-05-2.85492E-05 5.80120E-09 2.89724E-19 1.47086E-18
 -1       268 9.51540E-05-2.85442E-05-2.85469E-05-6.52389E-09 2.91894E-19 1.31377E-18
 -1       269 9.51582E-05-2.85464E-05-2.85478E-05-1.40392E-08-3.23725E-19 3.08324E-18
 -1       270 9.51689E-05-2.85502E-05-2.85508E-05-1.81107E-08 3.06726E-20 1.35967E-18
 -1       271 9.51831E-05-2.85549E-05-2.85549E-05-1.96661E-08 8.50950E-19-3.73630E-19
 -1       272 9.51984E-05-2.85598E-05-2.85594E-05-1.92269E-08 1.91919E-18-9.46500E-19
 -1       273 9.52130E-05-2.85647E-05-2.85635E-05-1.69238E-08 4.75643E-19-5.47340E-19
 -1       274 9.52252E-05-2.85689E-05-2.85669E-05-1.25056E-08 1.20256E-18 2.78921E-19
 -1       275 9.52338E-05-2.85721E-05-2.85693E-05-5.86189E-09-1.58859E-18-1.37684E-18
 -1       276 9.52369E-05-2.85779E-05-2.85682E-05-1.00234E-08-6.76959E-20 3.37807E-18
 -1       277 9.52409E-05-2.85874E-05-2.85658E-05-1.53435E-08-5.72974E-19-2.73263E-20
 -1       278 9.52453E-05-2.85986E-05-2.85629E-05-1.72485E-08-7.58393E-19 3.90197E-19
 -1       279 9.52493E-05-2.86098E-05-2.85598E-05-1.63321E-08-6.84602E-20 1.72234E-19
 -1       280 9.52527E-05-2.86196E-05-2.85570E-05-1.35564E-08-1.98608E-18-1.42897E-18
 -1       281 9.52552E-05-2.86273E-05-2.85548E-05-9.56326E-09-1.10056E-18-1.81437E-18
 -1       282 9.52568E-05-2.86321E-05-2.85534E-05-4.91445E-09-6.08155E-20 2.49792E-20
 -1       283 9.52573E-05-2.86337E-05-2.85529E-05 1.79498E-11-6.06681E-19-8.74309E-20
 -1       284 9.52568E-05-2.86321E-05-2.85534E-05 4.95310E-09-1.88060E-18-3.06768E-19
 -1       285 9.52552E-05-2.86272E-05-2.85548E-05 9.61058E-09-1.13431E-18-2.20208E-19
 -1       286 9.52527E-05-2.86196E-05-2.85570E-05 1.35554E-08-1.59549E-18-1.77501E-18
 -1       287 9.52493E-05-2.86097E-05-2.85598E-05 1.63791E-08-7.41636E-19 2.09477E-18
 -1       288 9.52453E-05-2.85984E-05-2.85629E-05 1.72808E-08 3.53966E-19 1.07847E-18
 -1       289 9.52408E-05-2.85872E-05-2.85658E-05 1.51065E-08 2.54221E-20 1.17710E-18
 -1       290 9.52362E-05-2.85790E-05-2.85674E-05 1.45742E-08-3.70814E-19 7.56887E-21
 -1       291 1.26288E-05-4.89558E-05 1.20951E-05 7.02266E-06 5.24176E-18 4.72401E-18
 -1       292 2.97335E-05-4.04158E-05 2.77247E-06 2.77706E-05 5.18299E-18 3.94394E-18
 -1       293 5.64543E-05-3.64709E-05-1.01436E-05 3.58166E-05 7.78275E-18 4.22299E-18
 -1       294 9.37602E-05-2.97335E-05-2.76559E-05 4.51400E-05 7.67475E-18 4.93058E-18
 -1       295 1.41041E-04-3.31620E-05-4.51205E-05 4.17532E-05 5.75887E-18 2.46677E-18
 -1       296 1.79990E-04-3.31074E-05-6.02708E-05 3.71642E-05 4.94088E-18 8.89385E-19
 -1       297 2.04229E-04-3.47523E-05-6.92367E-05 1.55326E-05 4.97494E-18-2.44941E-18
 -1       298 2.12306E-04-3.71892E-05-7.12476E-05-8.31995E-06 4.76700E-18-5.07468E-18
 -1       299 1.94370E-04-3.45586E-05-6.52479E-05-3.07111E-05 5.95909E-18-8.82142E-18
 -1       300 1.58570E-04-3.08580E-05-5.26874E-05-4.46381E-05 7.39672E-18-1.03082E-17
 -1       301 1.15859E-04-3.15894E-05-3.56568E-05-4.60631E-05 6.76483E-18-1.00572E-17
 -1       302 7.14194E-05-3.24262E-05-1.77751E-05-4.06647E-05 6.22357E-18-8.52179E-18
 -1       303 3.91610E-05-3.95400E-05-2.21071E-06-2.82409E-05 4.20637E-18-6.49190E-18
 -1       304 1.95010E-05-4.37313E-05 7.79793E-06-1.82526E-05 1.02660E-18-5.88593E-18
 -1       305 1.14322E-05-5.05888E-05 1.31616E-05-1.71045E-06-2.32010E-18-5.35770E-18
 -1       306 1.66091E-05-4.85700E-05 1.02254E-05 1.16906E-05-5.85363E-18-5.37135E-18
 -1       307 3.48203E-05-4.11294E-05 6.46821E-08 2.55415E-05-8.28229E-18-6.37789E-18
 -1       308 6.59330E-05-3.38275E-05-1.50628E-05 3.88209E-05-8.98829E-18-7.49328E-18
 -1       309 1.15783E-04-3.95314E-05-3.25218E-05 4.14584E-05-6.59203E-18-6.01902E-18
 -1       310 1.47281E-04-3.30809E-05-4.77786E-05 4.11856E-05-7.83294E-18-5.61922E-18
 -1       311 1.91264E-04-3.38672E-05-6.44809E-05 2.89861E-05-7.64235E-18-2.12478E-18
 -1       312 2.12822E-04-3.72208E-05-7.15059E-05 8.54692E-06-5.38078E-18 1.44123E-18
 -1       313 2.01418E-04-3.30633E-05-6.90685E-05-1.30951E-05-5.47268E-18 4.58605E-18
 -1       314 1.80573E-04-3.36558E-05-6.02256E-05-3.70645E-05-6.90086E-18 7.96846E-18
 -1       315 1.37898E-04-3.07283E-05-4.46575E-05-4.62781E-05-6.96282E-18 9.45585E-18
 -1       316 9.70106E-05-3.65803E-05-2.61951E-05-4.27917E-05-5.29459E-18 8.31575E-18
 -1       317 5.16966E-05-3.63329E-05-8.46698E-06-3.32847E-05-3.62509E-18 8.63370E-18
 -1       318 2.85730E-05-4.07250E-05 3.33888E-06-2.64933E-05 6.21934E-19 6.20446E-18
 -1       319 1.25010E-05-4.90592E-05 1.21908E-05-6.15761E-06 2.14575E-18 4.20679E-18
 -1       320 9.32646E-05-1.45642E-05-3.37927E-05-9.65510E-06-2.23986E-18-2.28944E-18
 -1       321 9.84387E-05-1.99425E-05-3.36993E-05-1.15725E-05-2.67231E-18-9.10084E-19
 -1       322 8.67118E-05-8.92091E-06-3.33864E-05-5.13541E-06-9.85744E-19-3.66661E-18
 -1       323 8.45771E-05-7.29160E-06-3.31614E-05-3.35733E-06-4.20592E-19-3.78737E-18
 -1       324 8.31547E-05-6.25535E-06-3.29904E-05-1.89664E-06 1.44897E-19-3.77807E-18
 -1       325 8.24646E-05-5.76943E-06-3.29004E-05-6.33768E-07 6.73733E-19-3.62860E-18
 -1       326 8.25219E-05-5.81947E-06-3.29037E-05 5.75101E-07 1.13024E-18-3.40377E-18
 -1       327 8.33154E-05-6.39779E-06-3.29989E-05 1.87745E-06 1.58131E-18-3.21911E-18
 -1       328 8.47784E-05-7.48165E-06-3.31673E-05 3.37981E-06 2.03998E-18-2.85085E-18
 -1       329 8.69321E-05-9.14568E-06-3.33867E-05 5.23254E-06 2.55212E-18-2.10472E-18
 -1       330 8.97959E-05-1.15202E-05-3.36106E-05 7.44498E-06 2.97160E-18-1.27520E-18
 -1       331 9.35911E-05-1.49787E-05-3.37690E-05 9.86739E-06 3.19971E-18-9.85470E-20
 -1       332 9.84970E-05-2.02887E-05-3.36207E-05 1.14603E-05 3.05163E-18 2.21697E-18
 -1       333 1.01890E-04-2.54584E-05-3.28360E-05 9.48226E-06 2.65845E-18 4.20299E-18
 -1       334 1.00382E-04-2.79466E-05-3.10109E-05 3.18107E-06 2.13770E-18 3.30962E-18
 -1       335 1.56483E-04-3.61351E-05-5.15086E-05 3.90224E-06-6.58579E-18 8.96478E-19
 -1       336 1.00217E-04-2.69441E-05-3.13561E-05-3.02501E-06-2.06384E-18-3.63200E-19
 -1       337 9.97027E-05-2.80971E-05-3.06597E-05 9.92982E-07-1.60184E-18-4.78502E-19
 -1       338 9.99609E-05-2.87902E-05-3.04844E-05 3.54768E-06-1.07424E-18-5.72341E-19
 -1       339 1.00929E-04-2.94787E-05-3.06131E-05 5.27449E-06-6.93627E-19-7.50173E-19
 -1       340 1.02491E-04-3.03403E-05-3.09195E-05 6.35773E-06-5.32403E-19-6.38792E-19
 -1       341 1.04531E-04-3.14801E-05-3.13116E-05 6.73962E-06-2.70773E-19-3.59795E-19
 -1       342 1.06932E-04-3.29620E-05-3.17127E-05 6.18721E-06-1.79699E-19-5.61580E-19
 -1       343 1.09518E-04-3.47502E-05-3.20622E-05 4.36540E-06-5.15451E-19-3.05196E-19
 -1       344 1.11956E-04-3.65687E-05-3.23324E-05 1.00297E-06-1.14222E-18-3.88858E-20
 -1       345 1.13636E-04-3.77327E-05-3.25529E-05-3.76199E-06-9.60067E-19 1.04714E-19
 -1       346 1.13700E-04-3.71736E-05-3.28095E-05-8.88191E-06-8.82827E-19 9.07144E-20
 -1       347 1.11515E-04-3.40598E-05-3.32020E-05-1.20903E-05-1.23437E-18-3.01504E-19
 -1       348 1.07732E-04-2.91344E-05-3.36964E-05-1.06725E-05-1.13820E-18-1.11273E-18
 -1       349 1.04747E-04-2.52958E-05-3.40702E-05-3.87289E-06-2.23513E-18-1.90421E-18
 -1       350 1.05003E-04-2.55089E-05-3.40873E-05 5.25898E-06-1.42131E-18-2.78299E-18
 -1       351 1.08368E-04-2.96118E-05-3.37621E-05 1.17133E-05-7.63848E-19-3.67553E-18
 -1       352 1.12309E-04-3.45272E-05-3.33422E-05 1.27262E-05 2.45512E-19-4.55540E-18
 -1       353 1.14535E-04-3.74893E-05-3.30349E-05 9.31729E-06 4.97561E-19-4.54543E-18
 -1       354 1.14535E-04-3.79313E-05-3.28532E-05 4.22008E-06 1.10710E-18-3.77901E-18
 -1       355 1.12989E-04-3.67479E-05-3.26977E-05-3.95309E-07 1.05648E-18-3.31275E-18
 -1       356 1.10734E-04-3.49936E-05-3.24782E-05-3.59437E-06 2.07101E-18-1.75266E-18
 -1       357 1.08332E-04-3.33148E-05-3.21611E-05-5.32130E-06 7.91690E-19-1.85951E-18
 -1       358 1.06060E-04-3.19603E-05-3.17615E-05-5.90688E-06 2.29865E-19-2.36687E-18
 -1       359 1.04027E-04-3.09530E-05-3.13174E-05-5.75171E-06-1.79123E-19-2.99196E-18
 -1       360 1.02262E-04-3.02315E-05-3.08678E-05-5.18785E-06-4.84985E-19-1.69878E-18
 -1       361 1.00764E-04-2.97213E-05-3.04432E-05-4.44745E-06-1.80728E-19 2.60899E-20
 -1       362 9.95155E-05-2.93608E-05-3.00621E-05-3.67488E-06-2.42879E-19-1.75821E-19
 -1       363 9.84929E-05-2.91054E-05-2.97336E-05-2.95046E-06-6.59855E-19-1.65158E-18
 -1       364 9.76700E-05-2.89241E-05-2.94590E-05-2.31245E-06 1.14573E-19-2.17338E-18
 -1       365 9.70190E-05-2.87958E-05-2.92356E-05-1.77358E-06-8.56994E-20-2.15479E-18
 -1       366 9.65130E-05-2.87058E-05-2.90578E-05-1.33226E-06-7.51992E-19-5.60274E-19
 -1       367 9.61266E-05-2.86438E-05-2.89193E-05-9.79572E-07-2.97760E-19-7.81225E-19
 -1       368 9.58370E-05-2.86021E-05-2.88135E-05-7.03584E-07 3.83076E-19-1.23833E-18
 -1       369 9.56245E-05-2.85751E-05-2.87343E-05-4.91726E-07-1.44707E-19-2.30095E-18
 -1       370 9.54721E-05-2.85588E-05-2.86763E-05-3.32106E-07-6.13536E-19-8.94543E-19
 -1       371 9.53658E-05-2.85498E-05-2.86348E-05-2.14116E-07 8.18814E-19-7.87795E-19
 -1       372 9.52944E-05-2.85459E-05-2.86060E-05-1.28661E-07 2.36379E-19-2.09321E-18
 -1       373 9.52487E-05-2.85454E-05-2.85868E-05-6.81721E-08 1.26751E-18-9.04661E-19
 -1       374 9.52217E-05-2.85471E-05-2.85746E-05-2.65091E-08-4.67132E-19 1.19940E-20
 -1       375 9.52078E-05-2.85501E-05-2.85675E-05 1.18839E-09 7.17506E-19 4.26822E-19
 -1       376 9.52031E-05-2.85537E-05-2.85639E-05 1.86591E-08 3.44328E-18 1.46944E-18
 -1       377 9.52042E-05-2.85578E-05-2.85627E-05 2.86715E-08 1.57960E-18 1.07575E-18
 -1       378 9.52091E-05-2.85621E-05-2.85630E-05 3.31559E-08-4.69512E-19 5.94064E-20
 -1       379 9.52159E-05-2.85665E-05-2.85640E-05 3.33117E-08-2.22360E-18 1.52458E-18
 -1       380 9.52234E-05-2.85711E-05-2.85653E-05 2.97866E-08-1.68892E-18 2.29188E-18
 -1       381 9.52297E-05-2.85751E-05-2.85663E-05 2.33962E-08 8.66052E-20 1.83358E-18
 -1       382 9.94932E-05-2.87181E-05-3.02924E-05-3.83402E-07 1.56087E-18 2.67062E-18
 -1       383 9.96357E-05-2.92002E-05-3.01633E-05-2.50112E-06 1.17314E-18 2.12654E-18
 -1       384 1.00639E-04-2.97694E-05-3.03622E-05-3.81843E-06 6.13087E-19 1.56931E-18
 -1       385 1.02238E-04-3.04968E-05-3.07439E-05-4.54781E-06 3.05008E-19 1.01185E-18
 -1       386 1.04197E-04-3.13935E-05-3.12055E-05-4.67719E-06 5.18033E-19 9.99178E-19
 -1       387 1.06269E-04-3.24313E-05-3.16544E-05-4.06128E-06 3.31327E-19 1.13264E-18
 -1       388 1.08150E-04-3.35159E-05-3.20010E-05-2.50565E-06-1.41183E-20 1.12580E-18
 -1       389 1.09453E-04-3.44304E-05-3.21697E-05 9.53684E-08-2.29291E-19 1.64451E-18
 -1       390 1.09708E-04-3.47896E-05-3.21231E-05 3.52996E-06 2.26806E-19 1.75928E-18
 -1       391 1.08492E-04-3.41064E-05-3.18883E-05 7.00152E-06 5.71491E-19 1.53421E-18
 -1       392 1.05758E-04-3.21139E-05-3.15609E-05 9.07016E-06 1.03696E-18 1.63477E-18
 -1       393 1.02253E-04-2.92716E-05-3.12733E-05 8.19937E-06 5.11006E-19 1.96495E-18
 -1       394 9.95496E-05-2.69154E-05-3.11223E-05 3.90742E-06 1.63395E-19 9.59510E-19
 -1       395 9.92251E-05-2.65272E-05-3.11426E-05-2.29688E-06 4.60922E-19 9.63789E-20
 -1       396 1.01544E-04-2.83695E-05-3.13420E-05-7.58744E-06 1.58772E-18-6.03934E-19
 -1       397 1.05287E-04-3.13240E-05-3.16834E-05-9.77976E-06 1.04210E-18-5.47766E-19
 -1       398 1.08691E-04-3.38024E-05-3.20937E-05-8.65521E-06-7.90058E-19-4.10371E-19
 -1       399 1.10707E-04-3.50212E-05-3.24503E-05-5.55381E-06-2.11616E-19-5.71196E-19
 -1       400 1.11173E-04-3.50576E-05-3.26405E-05-2.04078E-06 5.30289E-20-1.90075E-19
 -1       401 1.10432E-04-3.43717E-05-3.26161E-05 8.56895E-07 9.83786E-19 2.86340E-19
 -1       402 1.08950E-04-3.34044E-05-3.23909E-05 2.76567E-06-1.48246E-19-6.96704E-19
 -1       403 1.07118E-04-3.24285E-05-3.20181E-05 3.74144E-06-1.86198E-18-3.44992E-19
 -1       404 1.05205E-04-3.15667E-05-3.15626E-05 4.01709E-06-3.61759E-19 4.39766E-19
 -1       405 1.03379E-04-3.08533E-05-3.10821E-05 3.84514E-06 1.33975E-19 4.52841E-19
 -1       406 1.01732E-04-3.02822E-05-3.06188E-05 3.43036E-06 9.26658E-19 1.41431E-18
 -1       407 1.00306E-04-2.98339E-05-3.01987E-05 2.91541E-06 3.38409E-19 4.79014E-19
 -1       408 9.91096E-05-2.94870E-05-2.98346E-05 2.38922E-06-4.51409E-20 1.53332E-18
 -1       409 9.81330E-05-2.92217E-05-2.95299E-05 1.90125E-06 4.14561E-19 2.07497E-18
 -1       410 9.73539E-05-2.90217E-05-2.92822E-05 1.47485E-06-7.15889E-19 8.45035E-19
 -1       411 9.67458E-05-2.88730E-05-2.90857E-05 1.11728E-06 8.71804E-19 3.99344E-19
 -1       412 9.62809E-05-2.87645E-05-2.89334E-05 8.26674E-07 1.10872E-18 2.04984E-19
 -1       413 9.59329E-05-2.86870E-05-2.88180E-05 5.96482E-07 3.72260E-19 9.68445E-19
 -1       414 9.56783E-05-2.86330E-05-2.87324E-05 4.18216E-07 9.20154E-19 8.06209E-19
 -1       415 9.54967E-05-2.85966E-05-2.86705E-05 2.83050E-07 6.49851E-19 1.25800E-18
 -1       416 9.53712E-05-2.85733E-05-2.86269E-05 1.82691E-07-2.03116E-19 9.96428E-19
 -1       417 9.52877E-05-2.85593E-05-2.85974E-05 1.09789E-07 1.64932E-19 4.26064E-19
 -1       418 9.52353E-05-2.85519E-05-2.85782E-05 5.80936E-08-1.33452E-18-2.70631E-19
 -1       419 9.52053E-05-2.85491E-05-2.85666E-05 2.24533E-08-4.40398E-19 2.21508E-18
 -1       420 9.51909E-05-2.85494E-05-2.85605E-05-1.25576E-09 2.26848E-19 2.91402E-18
 -1       421 9.51873E-05-2.85515E-05-2.85581E-05-1.62356E-08 3.55092E-19 2.69974E-18
 -1       422 9.51906E-05-2.85549E-05-2.85581E-05-2.48767E-08 3.39553E-19 2.70669E-18
 -1       423 9.51980E-05-2.85588E-05-2.85596E-05-2.88564E-08 1.97384E-18 5.66341E-19
 -1       424 9.52075E-05-2.85631E-05-2.85619E-05-2.92177E-08 9.42555E-19-2.74638E-19
 -1       425 9.52175E-05-2.85676E-05-2.85643E-05-2.64335E-08 4.99811E-19 1.10541E-18
 -1       426 9.52269E-05-2.85721E-05-2.85664E-05-2.05846E-08-2.67995E-19 3.51782E-18
 -1       427 9.52324E-05-2.85752E-05-2.85674E-05-1.58456E-08 9.77710E-19 5.09995E-18
 -1       428 9.52456E-05-2.85955E-05-2.85643E-05-2.72333E-08-9.99524E-19 1.89750E-18
 -1       429 9.52402E-05-2.85874E-05-2.85655E-05-2.69968E-08-2.28625E-19-8.42644E-20
 -1       430 9.52360E-05-2.85813E-05-2.85663E-05-2.28014E-08-1.36493E-19-6.10366E-19
 -1       431 9.52496E-05-2.86025E-05-2.85631E-05-2.40637E-08-1.00242E-18-3.48031E-18
 -1       432 9.52526E-05-2.86080E-05-2.85619E-05-1.85352E-08-1.13592E-18 6.47865E-19
 -1       433 9.52544E-05-2.86119E-05-2.85610E-05-1.15925E-08 7.95797E-19 2.84287E-19
 -1       434 9.52553E-05-2.86138E-05-2.85606E-05-3.92246E-09-5.15458E-19-4.68231E-19
 -1       435 9.52553E-05-2.86138E-05-2.85606E-05 3.97239E-09-6.87853E-19-6.50641E-19
 -1       436 9.52544E-05-2.86119E-05-2.85611E-05 1.16534E-08-7.65568E-19-4.60678E-19
 -1       437 9.52526E-05-2.86081E-05-2.85619E-05 1.85026E-08-1.07906E-18-1.49684E-18
 -1       438 9.52497E-05-2.86025E-05-2.85630E-05 2.40725E-08 6.86279E-19 3.11864E-18
 -1       439 9.52455E-05-2.85955E-05-2.85643E-05 2.73111E-08 7.80613E-19 1.16520E-18
 -1       440 9.52402E-05-2.85874E-05-2.85655E-05 2.72821E-08-1.24019E-18-3.48596E-19
 -1       441 6.42315E-05-4.32372E-05-9.05566E-06 4.33402E-05 9.90605E-19 8.33533E-19
 -1       442 1.14727E-05-2.35322E-05 4.80288E-06 7.44826E-07 3.86221E-19 5.18236E-18
 -1       443 2.28094E-05-2.67648E-05 1.54494E-06 2.50050E-05-1.26526E-19 4.23728E-18
 -1       444 1.01713E-04-5.27676E-05-2.10765E-05 3.99413E-05 2.31769E-18 5.37231E-19
 -1       445 1.44355E-04-5.37820E-05-3.88330E-05 1.53389E-05-3.64248E-18 2.96356E-19
 -1       446 1.55565E-04-1.19159E-05-6.15696E-05 1.32334E-06-6.81639E-18 3.71212E-19
 -1       447 1.32646E-04-5.20510E-05-3.45664E-05 2.70021E-05 3.42561E-18-5.42842E-19
 -1       448 8.95429E-05-1.12227E-05-3.36335E-05-7.30712E-06-1.59972E-18-3.23725E-18
 -1       449 1.61877E-04-2.41575E-05-5.86738E-05 1.15414E-06 5.45860E-18-2.32278E-18
 -1       450 1.59568E-04-1.30412E-05-6.25029E-05-8.66311E-07 5.44886E-18-1.99577E-18
 -1       451 1.63963E-04-1.90494E-05-6.16492E-05-9.52298E-07 5.84114E-18-2.94985E-18
 -1       452 1.57288E-04-3.25647E-05-5.32789E-05-4.17555E-06 4.22505E-18-2.62083E-18
 -1       453 1.45826E-04-4.82936E-05-4.17250E-05-1.70728E-05 2.42360E-18-3.28278E-18
 -1       454 1.16776E-04-5.43663E-05-2.68251E-05-3.56656E-05 7.48459E-19-5.05859E-18
 -1       455 7.94070E-05-4.84348E-05-1.34634E-05-4.41132E-05-2.69992E-20-5.44446E-18
 -1       456 4.31422E-05-3.65335E-05-3.08871E-06-3.82261E-05-5.01655E-19-5.34240E-18
 -1       457 1.51354E-05-2.50896E-05 3.97200E-06-1.47968E-05-4.59304E-19-6.35836E-18
 -1       458 1.47999E-05-2.29656E-05 3.41484E-06 1.17538E-05-3.24228E-19-6.30150E-18
 -1       459 3.47861E-05-3.44613E-05-5.62644E-07 3.40419E-05-1.72382E-18-4.82692E-18
 -1       460 7.30912E-05-4.69363E-05-1.14027E-05 4.38450E-05-2.01721E-18-3.34663E-18
 -1       461 1.09604E-04-5.51872E-05-2.34444E-05 3.81006E-05-2.42018E-18-3.11549E-18
 -1       462 1.59130E-04-1.71869E-05-6.06828E-05-2.06351E-06-7.45145E-18 2.38757E-19
 -1       463 1.57896E-04-2.44432E-05-5.71966E-05 2.74542E-06-5.45606E-18 1.26970E-18
 -1       464 1.53168E-04-4.21353E-05-4.75796E-05-5.85483E-06-3.30036E-18 8.59421E-19
 -1       465 1.34290E-04-5.23799E-05-3.51431E-05-2.43703E-05-1.54456E-18 3.20051E-18
 -1       466 9.42034E-05-5.11147E-05-1.86745E-05-4.09034E-05 7.82553E-19 6.16524E-18
 -1       467 6.06878E-05-4.24248E-05-7.93419E-06-4.22912E-05 1.13354E-18 7.50990E-18
 -1       468 2.19523E-05-2.63710E-05 1.75719E-06-2.33812E-05 7.96105E-19 5.60746E-18
 -1       469 1.53159E-04-3.98476E-05-4.85233E-05 5.21493E-06 4.27048E-18-1.75886E-18
 -1       470 4.95335E-05-3.18402E-05-7.16465E-06 3.87215E-05-1.78364E-18 2.65614E-18
 -1       471 4.66442E-05-3.07406E-05-6.40933E-06-3.70100E-05 1.27907E-18 6.86240E-18
 -1       472 1.25266E-04-6.10566E-05-2.74953E-05-2.78055E-05 1.60465E-18 2.25523E-18
 -1       473 3.47076E-05-2.50312E-05-3.77747E-06-3.14124E-05-1.00919E-18-5.55452E-18
 -1       474 9.90543E-05-2.57618E-05-3.13962E-05 2.25167E-06 2.22348E-18 8.75346E-19
 -1       475 8.54894E-05-9.94694E-06-3.23898E-05-1.63746E-06-1.02648E-19-3.40575E-18
 -1       476 8.75715E-05-1.17205E-05-3.25248E-05-2.66972E-06-7.21784E-19-3.33734E-18
 -1       477 8.38703E-05-8.62871E-06-3.22587E-05-8.55310E-08 8.18212E-19-3.14709E-18
 -1       478 8.43941E-05-9.06605E-06-3.22964E-05 6.67062E-07 1.27706E-18-2.97600E-18
 -1       479 8.57372E-05-1.01889E-05-3.23927E-05 1.55650E-06 1.71329E-18-2.72740E-18
 -1       480 8.78698E-05-1.20271E-05-3.25220E-05 2.68746E-06 2.27643E-18-2.18883E-18
 -1       481 9.06926E-05-1.46018E-05-3.26318E-05 4.02412E-06 2.51985E-18-1.47271E-18
 -1       482 9.41967E-05-1.80769E-05-3.26425E-05 5.40317E-06 2.79364E-18-6.15498E-19
 -1       483 9.80810E-05-2.45141E-05-3.15156E-05-1.39568E-06-1.75289E-18-1.35888E-18
 -1       484 1.40601E-04-2.45265E-05-5.02915E-05-1.13982E-05-6.02600E-18 3.15271E-18
 -1       485 9.90980E-05-2.72851E-05-3.07578E-05-1.44947E-06 1.66595E-18 5.40342E-19
 -1       486 9.65815E-05-2.07853E-05-3.25041E-05-5.64791E-06-2.11230E-18-1.73858E-18
 -1       487 9.84413E-05-2.63021E-05-3.09083E-05 2.34954E-06-1.21692E-18-1.11754E-18
 -1       488 9.88751E-05-2.74240E-05-3.06170E-05 5.11734E-06-9.35988E-19-9.56045E-19
 -1       489 9.96790E-05-2.84589E-05-3.05207E-05 7.11892E-06-6.36389E-19-1.04369E-18
 -1       490 1.01000E-04-2.97476E-05-3.05372E-05 8.41146E-06-3.07347E-19-1.00991E-18
 -1       491 1.02983E-04-3.15636E-05-3.06117E-05 8.87122E-06-4.20688E-19-1.14990E-18
 -1       492 1.05782E-04-3.41051E-05-3.07264E-05 8.19686E-06-1.23873E-19-1.30200E-18
 -1       493 1.09465E-04-3.73369E-05-3.09240E-05 5.94293E-06-3.17812E-19-8.20128E-19
 -1       494 1.13734E-04-4.06517E-05-3.13350E-05 1.68171E-06-5.50352E-19 2.43213E-19
 -1       495 1.17544E-04-4.24899E-05-3.21849E-05-4.50455E-06-3.22288E-19 1.21845E-18
 -1       496 1.19073E-04-4.05343E-05-3.36824E-05-1.11047E-05-1.33192E-18 1.67845E-18
 -1       497 1.16678E-04-3.32907E-05-3.58135E-05-1.44158E-05-2.20359E-18 9.56461E-19
 -1       498 1.11956E-04-2.39664E-05-3.78483E-05-1.01965E-05-3.04470E-18-5.50928E-19
 -1       499 1.09623E-04-1.97432E-05-3.86780E-05 9.60380E-07-2.98452E-18-2.01305E-18
 -1       500 1.12397E-04-2.45779E-05-3.77640E-05 1.17301E-05-1.63569E-18-3.49775E-18
 -1       501 1.17231E-04-3.40411E-05-3.57186E-05 1.52928E-05-4.84127E-19-3.95489E-18
 -1       502 1.19383E-04-4.08666E-05-3.36801E-05 1.16075E-05 3.27823E-19-3.21287E-18
 -1       503 1.17734E-04-4.24970E-05-3.22619E-05 4.97791E-06 1.34138E-18-2.14771E-18
 -1       504 1.13908E-04-4.04796E-05-3.14819E-05-1.02764E-06 1.43634E-18-2.23629E-18
 -1       505 1.09743E-04-3.71864E-05-3.11055E-05-5.09218E-06 2.31512E-18-1.14003E-18
 -1       506 1.06177E-04-3.40833E-05-3.09044E-05-7.24548E-06 1.76225E-18-1.66802E-18
 -1       507 1.03447E-04-3.17309E-05-3.07389E-05-7.97470E-06 4.05331E-19-1.49258E-18
 -1       508 1.01445E-04-3.01573E-05-3.05525E-05-7.79411E-06-8.21331E-19-1.17359E-18
 -1       509 9.99790E-05-2.91942E-05-3.03356E-05-7.10215E-06 8.65117E-20-1.32690E-18
 -1       510 9.88864E-05-2.86501E-05-3.00997E-05-6.17331E-06 5.07499E-19-5.38861E-19
 -1       511 9.80515E-05-2.83708E-05-2.98613E-05-5.18245E-06-6.78084E-19-6.28589E-19
 -1       512 9.74003E-05-2.82488E-05-2.96345E-05-4.23235E-06-9.18416E-19-1.35548E-19
 -1       513 9.68863E-05-2.82152E-05-2.94288E-05-3.37695E-06-1.00260E-18-5.99279E-19
 -1       514 9.64794E-05-2.82282E-05-2.92491E-05-2.63893E-06-2.05256E-19-3.99725E-20
 -1       515 9.61586E-05-2.82633E-05-2.90969E-05-2.02198E-06 4.84231E-20-3.06444E-19
 -1       516 9.59081E-05-2.83066E-05-2.89712E-05-1.51912E-06-1.86036E-19 6.18460E-19
 -1       517 9.57148E-05-2.83507E-05-2.88697E-05-1.11792E-06-2.50280E-19 5.75217E-19
 -1       518 9.55682E-05-2.83917E-05-2.87894E-05-8.03949E-07-7.99979E-19-8.04774E-19
 -1       519 9.54588E-05-2.84280E-05-2.87271E-05-5.62690E-07 9.12871E-19-3.88831E-20
 -1       520 9.53790E-05-2.84590E-05-2.86797E-05-3.80636E-07-6.65374E-20-8.86236E-19
 -1       521 9.53222E-05-2.84849E-05-2.86443E-05-2.45805E-07-7.74203E-19-2.02859E-18
 -1       522 9.52829E-05-2.85059E-05-2.86186E-05-1.47944E-07 8.16678E-19-2.01236E-18
 -1       523 9.52569E-05-2.85228E-05-2.86002E-05-7.85178E-08 1.30215E-18-9.69612E-19
 -1       524 9.52407E-05-2.85363E-05-2.85875E-05-3.06048E-08 1.98306E-18 1.59740E-18
 -1       525 9.52315E-05-2.85469E-05-2.85791E-05 1.26724E-09 7.91040E-19 2.29120E-18
 -1       526 9.52272E-05-2.85553E-05-2.85736E-05 2.12963E-08 1.68916E-18 7.26066E-20
 -1       527 9.52264E-05-2.85622E-05-2.85703E-05 3.25841E-08-3.96939E-20-1.57526E-20
 -1       528 9.52278E-05-2.85683E-05-2.85684E-05 3.72906E-08-1.63272E-20 2.19961E-19
 -1       529 9.52308E-05-2.85741E-05-2.85672E-05 3.67957E-08-1.70788E-18-1.34216E-19
 -1       530 1.00336E-04-2.92070E-05-3.04801E-05-5.60255E-06 8.63173E-19 1.74620E-19
 -1       531 1.01677E-04-3.03062E-05-3.05883E-05-6.48198E-06 4.04007E-19-2.62713E-21
 -1       532 1.03493E-04-3.17295E-05-3.07607E-05-6.50996E-06 2.50718E-19 2.65824E-19
 -1       533 1.05739E-04-3.35311E-05-3.09553E-05-5.47268E-06-1.60665E-19 4.86978E-19
 -1       534 1.08265E-04-3.55789E-05-3.11643E-05-3.11692E-06-3.57263E-19 7.87465E-19
 -1       535 1.10694E-04-3.73966E-05-3.14264E-05 6.60744E-07 3.86455E-19 3.37333E-19
 -1       536 1.12287E-04-3.80424E-05-3.18304E-05 5.46569E-06 2.66628E-19 6.27780E-19
 -1       537 1.12087E-04-3.63519E-05-3.24666E-05 9.94304E-06 2.29404E-19 1.03081E-18
 -1       538 1.09698E-04-3.19826E-05-3.33156E-05 1.17193E-05 7.54353E-19 9.97218E-19
 -1       539 1.06118E-04-2.64382E-05-3.41749E-05 8.67607E-06 9.08532E-19 6.10561E-19
 -1       540 1.04022E-04-2.32999E-05-3.46191E-05 1.08148E-06 1.19004E-18 3.73637E-21
 -1       541 1.05271E-04-2.49864E-05-3.44217E-05-7.27638E-06 1.22229E-18-8.60734E-19
 -1       542 1.08773E-04-3.01104E-05-3.37197E-05-1.21463E-05 1.31451E-18-1.06805E-19
 -1       543 1.11984E-04-3.52778E-05-3.28756E-05-1.18068E-05 2.58292E-19-3.80549E-19
 -1       544 1.13027E-04-3.78745E-05-3.22225E-05-8.02929E-06-6.21070E-19-1.35601E-18
 -1       545 1.12096E-04-3.79413E-05-3.17969E-05-3.20698E-06 4.25245E-20-1.28831E-18
 -1       546 1.09997E-04-3.64544E-05-3.15331E-05 9.46873E-07-1.13903E-19-1.10590E-18
 -1       547 1.07565E-04-3.44856E-05-3.13310E-05 3.78106E-06 5.71205E-19 2.26001E-19
 -1       548 1.05272E-04-3.26729E-05-3.11206E-05 5.32118E-06-1.03097E-18 6.85770E-20
 -1       549 1.03291E-04-3.12549E-05-3.08757E-05 5.86128E-06-8.10705E-19-1.60112E-18
 -1       550 1.01643E-04-3.02435E-05-3.06000E-05 5.73592E-06-1.06370E-19-1.57547E-18
 -1       551 1.00289E-04-2.95630E-05-3.03100E-05 5.22487E-06 3.81426E-19-1.42923E-18
 -1       552 9.91844E-05-2.91231E-05-3.00241E-05 4.53096E-06 5.09846E-19-1.23414E-18
 -1       553 9.82863E-05-2.88475E-05-2.97571E-05 3.78741E-06-7.30531E-19-5.63207E-20
 -1       554 9.75612E-05-2.86800E-05-2.95181E-05 3.07396E-06-1.93832E-19-8.14869E-20
 -1       555 9.69812E-05-2.85820E-05-2.93118E-05 2.43287E-06 6.91903E-19 2.72307E-19
 -1       556 9.65227E-05-2.85281E-05-2.91387E-05 1.88197E-06 2.64474E-19-3.99937E-19
 -1       557 9.61654E-05-2.85017E-05-2.89972E-05 1.42414E-06 8.52119E-19 4.51741E-19
 -1       558 9.58911E-05-2.84919E-05-2.88842E-05 1.05376E-06 1.02941E-18 1.26126E-18
 -1       559 9.56842E-05-2.84921E-05-2.87957E-05 7.60947E-07-2.92954E-19 1.96483E-18
 -1       560 9.55312E-05-2.84978E-05-2.87279E-05 5.34270E-07 2.00042E-20 2.31143E-18
 -1       561 9.54204E-05-2.85062E-05-2.86770E-05 3.62281E-07 1.51917E-18 2.83609E-18
 -1       562 9.53424E-05-2.85156E-05-2.86397E-05 2.34399E-07 1.23756E-19 1.89888E-18
 -1       563 9.52893E-05-2.85250E-05-2.86130E-05 1.41318E-07 5.39157E-19 2.77085E-18
 -1       564 9.52547E-05-2.85338E-05-2.85945E-05 7.51503E-08-1.44049E-18 9.65151E-19
 -1       565 9.52336E-05-2.85418E-05-2.85821E-05 2.94155E-08 5.13552E-20 8.12758E-19
 -1       566 9.52223E-05-2.85488E-05-2.85743E-05-1.06036E-09-4.88938E-20-1.05699E-19
 -1       567 9.52177E-05-2.85550E-05-2.85697E-05-2.02774E-08 3.99347E-19 6.85865E-19
 -1       568 9.52175E-05-2.85605E-05-2.85673E-05-3.12044E-08 2.01729E-18 1.74391E-18
 -1       569 9.52203E-05-2.85656E-05-2.85663E-05-3.59179E-08 1.53264E-18 2.59685E-18
 -1       570 9.52248E-05-2.85707E-05-2.85661E-05-3.58207E-08 2.36129E-19 1.15470E-18
 -1       571 9.52303E-05-2.85760E-05-2.85662E-05-3.15851E-08-1.42172E-18 1.69903E-18
 -1       572 9.52515E-05-2.85934E-05-2.85677E-05-2.57029E-08 3.70409E-19-1.76218E-18
 -1       573 9.52541E-05-2.85957E-05-2.85678E-05-1.80121E-08 1.17163E-18 2.60783E-18
 -1       574 9.52411E-05-2.85847E-05-2.85670E-05-3.41141E-08 1.06691E-18 5.62611E-19
 -1       575 9.52472E-05-2.85897E-05-2.85675E-05-3.13950E-08-1.05533E-18-1.41180E-18
 -1       576 9.52554E-05-2.85971E-05-2.85678E-05-9.23545E-09 1.24558E-18-1.20191E-18
 -1       577 9.52558E-05-2.85975E-05-2.85678E-05 1.65135E-11 7.27061E-19-1.00534E-18
 -1       578 9.52554E-05-2.85971E-05-2.85678E-05 9.27901E-09 3.80674E-19-2.42867E-19
 -1       579 9.52541E-05-2.85958E-05-2.85678E-05 1.79431E-08 4.35994E-19-1.55136E-18
 -1       580 9.52516E-05-2.85935E-05-2.85677E-05 2.56919E-08 7.88364E-19 2.81791E-19
 -1       581 9.52474E-05-2.85897E-05-2.85675E-05 3.15172E-08-6.77724E-19 9.59369E-19
 -1       582 9.52410E-05-2.85845E-05-2.85671E-05 3.40206E-08-1.63576E-18 2.37757E-19
 -1       583 9.66606E-05-5.26330E-05-1.86468E-05 3.95308E-05-8.73503E-20 6.59230E-20
 -1       584 1.41641E-04-5.33718E-05-3.80876E-05 3.49011E-06 2.39573E-18-2.43453E-18
 -1       585 9.94837E-05-2.82840E-05-3.05045E-05-3.95733E-06 1.25886E-18 4.05481E-19
 -1       586 2.37820E-05-1.58716E-05-2.87305E-06 1.34698E-05-1.56619E-18 3.60264E-18
 -1       587 1.31400E-04-6.13927E-05-3.00205E-05 2.07124E-05-6.80088E-19 6.46577E-19
 -1       588 1.26610E-04-6.05411E-05-2.83192E-05 2.44045E-05 6.64656E-19-2.54512E-18
 -1       589 1.09861E-04-5.77520E-05-2.21793E-05-3.61516E-05-2.18445E-18-3.39379E-18
 -1       590 8.42383E-05-8.91957E-06-3.22923E-05-8.09288E-07 3.95531E-19-3.37981E-18
 -1       591 1.35724E-04-1.28558E-05-5.32254E-05-8.65483E-06 4.90464E-18-5.06526E-19
 -1       592 1.37349E-04-9.42445E-06-5.53161E-05 3.65491E-06 5.53864E-18-1.06409E-19
 -1       593 1.41921E-04-2.18426E-05-5.19187E-05 9.35796E-06 3.65818E-18 2.61204E-19
 -1       594 1.43125E-04-4.40848E-05-4.28526E-05 5.93850E-06 5.47779E-19 1.20157E-18
 -1       595 1.36321E-04-5.96002E-05-3.30036E-05-1.59750E-05-1.22370E-18-4.94667E-19
 -1       596 1.35317E-04-1.34357E-05-5.28116E-05 9.30131E-06-5.32201E-18-1.27081E-18
 -1       597 7.34580E-05-4.28168E-05-1.27195E-05-4.36587E-05-1.98624E-18-4.52114E-18
 -1       598 2.33214E-05-1.39890E-05-3.34775E-06-4.12499E-06 2.12149E-19-6.26307E-18
 -1       599 3.42207E-05-2.23011E-05-4.62852E-06 2.78622E-05 1.15043E-18-5.10157E-18
 -1       600 1.02157E-04-5.52599E-05-1.98701E-05 3.87126E-05 1.20009E-18-1.41135E-18
 -1       601 1.35531E-04-1.02424E-05-5.43000E-05-3.94436E-06-6.52544E-18 1.27001E-18
 -1       602 1.42149E-04-3.38638E-05-4.68972E-05 1.21459E-05-2.40552E-18-1.14201E-18
 -1       603 1.42473E-04-2.87921E-05-4.91814E-05-9.81768E-06 5.04810E-18-2.14887E-18
 -1       604 6.56948E-05-3.83714E-05-1.12782E-05 4.19297E-05 1.56135E-18-2.06480E-18
 -1       605 1.42944E-04-5.44729E-05-3.81529E-05-2.65043E-06 1.15929E-19-9.93728E-19
 -1       606 9.26942E-05-5.11929E-05-1.75149E-05-3.97375E-05 2.44607E-18 4.34578E-18
 -1       607 2.53989E-05-1.45977E-05-3.97369E-06-1.14744E-05-6.57774E-19 4.61305E-18
 -1       608 9.91167E-05-2.39241E-05-3.22284E-05 6.29304E-06 2.82111E-18 1.42962E-18
 -1       609 1.43499E-04-4.59716E-05-4.21691E-05-5.63461E-06-4.01269E-18 3.33705E-18
 -1       610 9.03695E-05-1.42191E-05-3.26583E-05-3.93906E-06-1.17556E-18-3.08525E-18
 -1       611 7.87209E-05-4.16950E-05-1.54474E-05 3.98547E-05-1.75489E-18 1.24141E-18
 -1       612 9.52333E-05-2.85781E-05-2.85665E-05 3.39143E-08-1.40285E-18 2.52975E-18
 -1       613 1.37705E-04-4.32177E-05-4.08691E-05-9.82375E-06 2.72991E-18-3.08619E-18
 -1       614 4.15385E-05-2.07804E-05-8.35043E-06 2.79068E-05-2.64460E-18 2.92671E-18
 -1       615 3.41287E-05-1.39191E-05-8.06830E-06 1.26828E-05 1.46541E-18-5.05552E-18
 -1       616 4.13837E-05-1.93396E-05-8.85188E-06-2.51650E-05-8.16857E-20 4.85477E-18
 -1       617 7.51387E-05-3.95687E-05-1.48238E-05-3.90866E-05 1.81874E-18 5.25256E-18
 -1       618 1.37246E-04-5.59546E-05-3.50351E-05 2.68615E-06-1.95053E-18 2.74562E-18
 -1       619 8.61649E-05-1.23226E-05-3.16509E-05 5.56935E-08 1.34601E-18-2.46401E-18
 -1       620 8.50684E-05-1.13686E-05-3.15893E-05-1.22854E-07 9.21765E-19-2.63105E-18
 -1       621 9.08022E-05-1.65324E-05-3.18347E-05 1.01108E-06 2.09061E-18-1.62181E-18
 -1       622 9.39478E-05-1.96838E-05-3.18342E-05 1.60799E-06 2.35164E-18-8.40053E-19
 -1       623 9.57452E-05-2.25106E-05-3.13831E-05 5.34305E-07-1.20994E-18-1.69489E-18
 -1       624 9.02031E-05-4.46255E-05-1.92265E-05 3.61918E-05 2.22981E-18-1.44333E-18
 -1       625 9.70552E-05-2.37783E-05-3.13949E-05 4.74586E-07 2.12028E-18-2.31522E-19
 -1       626 1.02587E-04-3.24508E-05-3.00611E-05-8.32509E-06-8.09984E-21-3.95514E-19
 -1       627 9.62830E-05-2.44328E-05-3.07914E-05 3.85415E-06-1.03452E-18-1.51850E-18
 -1       628 9.66979E-05-2.58226E-05-3.03742E-05 6.55874E-06-7.67630E-19-1.35753E-18
 -1       629 9.73609E-05-2.72204E-05-3.00598E-05 8.70066E-06-2.41066E-19-1.19553E-18
 -1       630 9.86036E-05-2.90691E-05-2.98009E-05 1.02776E-05-4.75370E-19-1.19760E-18
 -1       631 1.00823E-04-3.17947E-05-2.95851E-05 1.11564E-05-1.86367E-19-1.06291E-18
 -1       632 1.04487E-04-3.57388E-05-2.94669E-05 1.09854E-05 3.40669E-19-1.36063E-19
 -1       633 1.09963E-04-4.08630E-05-2.96196E-05 9.09465E-06 6.78245E-19 6.96395E-19
 -1       634 1.17035E-04-4.61241E-05-3.03955E-05 4.52298E-06 1.51566E-19 1.79560E-18
 -1       635 1.23925E-04-4.83134E-05-3.24106E-05-3.40590E-06-3.81006E-19 2.77411E-18
 -1       636 1.26866E-04-4.34985E-05-3.58847E-05-1.21375E-05-2.51185E-18 3.44553E-18
 -1       637 1.23340E-04-2.91003E-05-4.06999E-05-1.52741E-05-4.00808E-18 1.53740E-18
 -1       638 1.18079E-04-1.53551E-05-4.43949E-05-6.59634E-06-4.69746E-18-8.77738E-20
 -1       639 1.18372E-04-1.60257E-05-4.42879E-05 8.70267E-06-3.69060E-18-1.74139E-18
 -1       640 1.23932E-04-3.03992E-05-4.03987E-05 1.65671E-05-1.87136E-18-3.43770E-18
 -1       641 1.26826E-04-4.40085E-05-3.56121E-05 1.24423E-05 1.11646E-18-3.06774E-18
 -1       642 1.23338E-04-4.83700E-05-3.21663E-05 3.49569E-06 1.85144E-18-1.13805E-18
 -1       643 1.16345E-04-4.55576E-05-3.03366E-05-3.96825E-06 1.83696E-18-1.88941E-19
 -1       644 1.09419E-04-4.03223E-05-2.96103E-05-8.22978E-06 1.57642E-18-1.09762E-18
 -1       645 1.04074E-04-3.53634E-05-2.94495E-05-9.99499E-06 1.85630E-18-1.68786E-18
 -1       646 1.00505E-04-3.16913E-05-2.94924E-05-1.02217E-05 1.26020E-18-1.71116E-18
 -1       647 9.83167E-05-2.93300E-05-2.95658E-05-9.62512E-06-3.99153E-19-1.68854E-18
 -1       648 9.70471E-05-2.79807E-05-2.95995E-05-8.62697E-06-1.65007E-19-5.21692E-19
 -1       649 9.63363E-05-2.73179E-05-2.95787E-05-7.47027E-06 6.76921E-19-1.30856E-18
 -1       650 9.59439E-05-2.70808E-05-2.95121E-05-6.29690E-06 1.10770E-19-1.32683E-18
 -1       651 9.57241E-05-2.70862E-05-2.94157E-05-5.18881E-06-7.23377E-19-4.77094E-19
 -1       652 9.55945E-05-2.72160E-05-2.93046E-05-4.19018E-06-1.04652E-18 6.46277E-19
 -1       653 9.55112E-05-2.73985E-05-2.91907E-05-3.32076E-06-8.25399E-19-4.44807E-19
 -1       654 9.54522E-05-2.75928E-05-2.90822E-05-2.58449E-06 3.22603E-19-9.72944E-19
 -1       655 9.54068E-05-2.77771E-05-2.89839E-05-1.97539E-06-8.37869E-20-1.59000E-18
 -1       656 9.53703E-05-2.79409E-05-2.88981E-05-1.48171E-06-9.65371E-19-1.95062E-18
 -1       657 9.53404E-05-2.80807E-05-2.88254E-05-1.08902E-06-6.40107E-19-1.66399E-18
 -1       658 9.53159E-05-2.81965E-05-2.87653E-05-7.82159E-07-2.49727E-19-8.89096E-19
 -1       659 9.52961E-05-2.82901E-05-2.87168E-05-5.46546E-07-7.89873E-20-1.09746E-18
 -1       660 9.52804E-05-2.83643E-05-2.86782E-05-3.68818E-07-6.60558E-19-3.49505E-19
 -1       661 9.52681E-05-2.84220E-05-2.86483E-05-2.37220E-07 5.25233E-19-4.65460E-20
 -1       662 9.52588E-05-2.84662E-05-2.86254E-05-1.41732E-07 9.15400E-20-9.60331E-19
 -1       663 9.52518E-05-2.84994E-05-2.86082E-05-7.40352E-08 2.40767E-18-3.28831E-18
 -1       664 9.52468E-05-2.85240E-05-2.85955E-05-2.73994E-08 1.99360E-18-3.40179E-18
 -1       665 9.52433E-05-2.85421E-05-2.85862E-05 3.48450E-09 2.83610E-19-2.44888E-18
 -1       666 9.52411E-05-2.85555E-05-2.85795E-05 2.26673E-08 1.16711E-19-2.04938E-18
 -1       667 9.52399E-05-2.85657E-05-2.85747E-05 3.31590E-08-2.93083E-19-1.18095E-18
 -1       668 9.52398E-05-2.85742E-05-2.85710E-05 3.69877E-08-3.44193E-19-1.27487E-18
 -1       669 1.00421E-04-3.01538E-05-3.01153E-05-8.19508E-06 4.79851E-19-2.54372E-19
 -1       670 5.75106E-05-2.58393E-05-1.30705E-05 3.20657E-05 2.50963E-18-2.70828E-18
 -1       671 9.90019E-05-2.84452E-05-3.02381E-05-7.16681E-06 6.54195E-19-1.49961E-19
 -1       672 1.05669E-04-3.54454E-05-3.01012E-05-7.25805E-06-2.47994E-19-1.94962E-19
 -1       673 1.09631E-04-3.88789E-05-3.03302E-05-4.59009E-06 1.24775E-19-3.63020E-19
 -1       674 1.13957E-04-4.18167E-05-3.09231E-05-5.93810E-09-2.47066E-19 5.64928E-19
 -1       675 1.17265E-04-4.23280E-05-3.21272E-05 6.16628E-06-2.88102E-19 1.32155E-18
 -1       676 1.17687E-04-3.82482E-05-3.40541E-05 1.19995E-05 3.72521E-19 1.89767E-18
 -1       677 1.13549E-04-2.91722E-05-3.62805E-05 1.33996E-05 1.22671E-18 2.16903E-18
 -1       678 1.09089E-04-2.04385E-05-3.81628E-05 7.05849E-06 1.63915E-18 1.24063E-18
 -1       679 1.08232E-04-1.86593E-05-3.85914E-05-4.29903E-06 1.97035E-18-2.34860E-19
 -1       680 1.12647E-04-2.61018E-05-3.71777E-05-1.30544E-05 1.27420E-18-1.06805E-18
 -1       681 1.16661E-04-3.53267E-05-3.49777E-05-1.42722E-05 1.24937E-18-1.39647E-18
 -1       682 1.18032E-04-4.14994E-05-3.28031E-05-9.55572E-06 5.01539E-19-1.85014E-18
 -1       683 1.15496E-04-4.23239E-05-3.13732E-05-3.04971E-06-5.80586E-19-1.84285E-18
 -1       684 1.11323E-04-3.99661E-05-3.05902E-05 2.15088E-06-2.60356E-19-1.25954E-18
 -1       685 1.07159E-04-3.66162E-05-3.02381E-05 5.45300E-06-1.97162E-19-1.11528E-18
 -1       686 1.03750E-04-3.35406E-05-3.00932E-05 7.11421E-06 8.16175E-22 1.40625E-19
 -1       687 1.01237E-04-3.12065E-05-3.00150E-05 7.60703E-06-2.18153E-19-1.68151E-19
 -1       688 9.94830E-05-2.96377E-05-2.99342E-05 7.36401E-06-6.30057E-20-1.39780E-18
 -1       689 9.82816E-05-2.86812E-05-2.98285E-05 6.70533E-06-2.95911E-19-1.41243E-18
 -1       690 9.74557E-05-2.81579E-05-2.96984E-05 5.84940E-06 7.11160E-20-8.39826E-19
 -1       691 9.68769E-05-2.79160E-05-2.95538E-05 4.93812E-06-5.08645E-19-3.43701E-20
 -1       692 9.64601E-05-2.78447E-05-2.94058E-05 4.05824E-06-3.15795E-19-1.86276E-19
 -1       693 9.61522E-05-2.78689E-05-2.92635E-05 3.25821E-06-4.07257E-19 1.11692E-19
 -1       694 9.59200E-05-2.79410E-05-2.91332E-05 2.56071E-06 3.56872E-19 2.41622E-19
 -1       695 9.57428E-05-2.80323E-05-2.90183E-05 1.97188E-06 6.50480E-19 1.52664E-19
 -1       696 9.56071E-05-2.81260E-05-2.89201E-05 1.48773E-06 2.48090E-19-7.87624E-20
 -1       697 9.55034E-05-2.82132E-05-2.88383E-05 1.09856E-06-5.30589E-19 9.40476E-19
 -1       698 9.54248E-05-2.82900E-05-2.87718E-05 7.92072E-07 9.77780E-20 1.26262E-18
 -1       699 9.53659E-05-2.83548E-05-2.87188E-05 5.55342E-07 1.12920E-18 1.41233E-19
 -1       700 9.53225E-05-2.84081E-05-2.86775E-05 3.75954E-07 7.72018E-19 8.24085E-19
 -1       701 9.52912E-05-2.84507E-05-2.86458E-05 2.42656E-07-6.23969E-19 1.80846E-18
 -1       702 9.52692E-05-2.84842E-05-2.86221E-05 1.45660E-07-3.81748E-19 3.30884E-18
 -1       703 9.52542E-05-2.85099E-05-2.86046E-05 7.67284E-08 5.86764E-19 2.66428E-18
 -1       704 9.52444E-05-2.85295E-05-2.85921E-05 2.91249E-08 1.69098E-18 6.73606E-19
 -1       705 9.52385E-05-2.85442E-05-2.85833E-05-2.50217E-09 8.06252E-19-1.45843E-18
 -1       706 9.52355E-05-2.85554E-05-2.85772E-05-2.22716E-08-1.07643E-19-2.25646E-18
 -1       707 9.52344E-05-2.85642E-05-2.85730E-05-3.32221E-08 1.60034E-19 8.55149E-19
 -1       708 9.52350E-05-2.85716E-05-2.85701E-05-3.74963E-08 8.30591E-19 3.67373E-18
 -1       709 9.52382E-05-2.85779E-05-2.85687E-05-3.71228E-08-1.86097E-19 3.16670E-18
 -1       710 9.52568E-05-2.85816E-05-2.85751E-05-4.69230E-09 1.75526E-18-2.23955E-18
 -1       711 9.52541E-05-2.85819E-05-2.85738E-05-2.26033E-08 3.18755E-18 8.58872E-19
 -1       712 9.52568E-05-2.85817E-05-2.85751E-05 4.67902E-09 7.58735E-20-9.62096E-19
 -1       713 9.52560E-05-2.85818E-05-2.85746E-05-1.39136E-08 2.08482E-18 4.90713E-19
 -1       714 9.81197E-05-2.70565E-05-3.04532E-05-5.38580E-06 1.25369E-18-3.83617E-19
 -1       715 9.52561E-05-2.85819E-05-2.85747E-05 1.37842E-08 4.68648E-19-7.69288E-19
 -1       716 9.52542E-05-2.85820E-05-2.85738E-05 2.25605E-08 7.78995E-19-6.42718E-19
 -1       717 9.52504E-05-2.85815E-05-2.85724E-05 3.01751E-08 6.40583E-19 6.32791E-19
 -1       718 1.31916E-04-5.73574E-05-3.20295E-05 7.35123E-06-3.02715E-19-3.47411E-18
 -1       719 1.21450E-04-9.87444E-06-4.83973E-05-2.35984E-06 4.63454E-18 8.50216E-19
 -1       720 1.15011E-04-5.67519E-05-2.48814E-05 2.67896E-05-8.84408E-19-3.25791E-18
 -1       721 1.17183E-04-5.82971E-05-2.51174E-05-2.68994E-05 3.19593E-18 8.60464E-19
 -1       722 1.34169E-04-5.85691E-05-3.25351E-05-6.43012E-06 2.41896E-18-6.70427E-19
 -1       723 9.52401E-05-2.85794E-05-2.85689E-05 3.65431E-08 3.36920E-19 3.52171E-19
 -1       724 3.46884E-05-1.13751E-05-9.33789E-06 3.20395E-06-2.26775E-18 2.37746E-18
 -1       725 1.35855E-04-5.37635E-05-3.53530E-05 6.34639E-07-1.56784E-18 1.39242E-18
 -1       726 1.35891E-04-4.53492E-05-3.90782E-05 1.13915E-05 1.08778E-19-1.60899E-18
 -1       727 8.81324E-05-1.40655E-05-3.17477E-05 4.34808E-07 1.81427E-18-2.05013E-18
 -1       728 8.77326E-05-1.36690E-05-3.17469E-05-5.27427E-07-3.10851E-19-2.80402E-18
 -1       729 4.09846E-05-1.67760E-05-9.79382E-06-2.10873E-05-7.84829E-19-4.78637E-18
 -1       730 1.31308E-04-3.05287E-05-4.36201E-05 1.37891E-05 1.53400E-18 2.35189E-18
 -1       731 1.19327E-04-5.76974E-05-2.62348E-05 2.37328E-05 1.56624E-18 3.67612E-19
 -1       732 9.62463E-05-4.94370E-05-1.98168E-05-3.68659E-05-2.68922E-18-3.21820E-18
 -1       733 6.53593E-05-3.14501E-05-1.41043E-05-3.62287E-05-1.86069E-18-3.71424E-18
 -1       734 1.25383E-04-1.68067E-05-4.70966E-05 1.09033E-05 3.36219E-18 2.41854E-18
 -1       735 1.25400E-04-5.97882E-05-2.80568E-05-2.05570E-05-2.40712E-18-1.23376E-19
 -1       736 9.75549E-05-2.56488E-05-3.08123E-05-2.87174E-06 1.61416E-18-4.45635E-19
 -1       737 1.30610E-04-2.63783E-05-4.51097E-05 1.57986E-05-3.21674E-18-2.14940E-18
 -1       738 1.31974E-04-3.49221E-05-4.20546E-05-1.43348E-05-4.62803E-18 3.56626E-18
 -1       739 1.27453E-04-2.21333E-05-4.56580E-05-1.44781E-05 3.27987E-18-1.21075E-18
 -1       740 9.03642E-05-1.60671E-05-3.18497E-05-9.58087E-07-8.05741E-19-2.93570E-18
 -1       741 8.49669E-05-1.12720E-05-3.15872E-05-1.92783E-07 5.48177E-19-3.01438E-18
 -1       742 1.00682E-04-5.02208E-05-2.13970E-05-3.23107E-05 3.22952E-18 1.70314E-18
 -1       743 1.00071E-04-4.89790E-05-2.16660E-05 3.18432E-05-1.78020E-18-1.71296E-18
 -1       744 9.52462E-05-2.85812E-05-2.85707E-05-3.40923E-08 6.01050E-19-1.71607E-18
 -1       745 1.31754E-04-5.08629E-05-3.48272E-05-5.15145E-06 4.40490E-20-3.19908E-18
 -1       746 6.52400E-05-3.03371E-05-1.45547E-05 3.43133E-05-2.91218E-18 2.45110E-18
 -1       747 1.28800E-04-5.76436E-05-3.05928E-05 8.56894E-06 5.43200E-19 2.26427E-18
 -1       748 4.16391E-05-1.30216E-05-1.17822E-05-1.04496E-05-1.01995E-18 2.99839E-18
 -1       749 1.29963E-04-4.25706E-05-3.76670E-05 1.12735E-05-4.14027E-19 2.10380E-18
 -1       750 6.34416E-05-2.78852E-05-1.48582E-05-3.16434E-05 4.03505E-19 5.67856E-18
 -1       751 4.01606E-05-1.21068E-05-1.15499E-05-5.22571E-06 4.06698E-19-4.43369E-18
 -1       752 1.21607E-04-1.10801E-05-4.79067E-05 2.97242E-06-4.81676E-18-7.75933E-20
 -1       753 9.52510E-05-2.85821E-05-2.85724E-05-2.90652E-08 9.65575E-19-4.35909E-19
 -1       754 8.58791E-05-1.20473E-05-3.16460E-05-2.89583E-07 1.30362E-19-2.92465E-18
 -1       755 9.42471E-05-1.99733E-05-3.18348E-05-1.39684E-06-1.30797E-18-2.00945E-18
 -1       756 9.52462E-05-2.85778E-05-2.85722E-05 3.43340E-08 1.17199E-18 8.62657E-19
 -1       757 1.25166E-04-1.71941E-05-4.67867E-05-1.11064E-05-5.25415E-18 1.96508E-18
 -1       758 9.33234E-05-2.05684E-05-3.11780E-05-1.37072E-06 1.77235E-18-1.08388E-18
 -1       759 1.25654E-04-3.52198E-05-3.89516E-05-1.50519E-05 1.82005E-18-2.64673E-18
 -1       760 1.01169E-04-3.32996E-05-2.90882E-05-1.07599E-05-3.43675E-19-7.85740E-19
 -1       761 9.35853E-05-2.26291E-05-3.04111E-05 5.09599E-06-6.77274E-19-1.65712E-18
 -1       762 9.37454E-05-2.41199E-05-2.98387E-05 7.69640E-06-3.96706E-19-1.52153E-18
 -1       763 9.41019E-05-2.57658E-05-2.92865E-05 1.00256E-05-4.46397E-19-1.34562E-18
 -1       764 9.51121E-05-2.80803E-05-2.87276E-05 1.21479E-05-2.29858E-19-1.16839E-18
 -1       765 9.73987E-05-3.16423E-05-2.81804E-05 1.40189E-05 5.86207E-19-8.30511E-19
 -1       766 1.01822E-04-3.70271E-05-2.77651E-05 1.52975E-05 1.27237E-18-3.88484E-19
 -1       767 1.09330E-04-4.43987E-05-2.78203E-05 1.49316E-05 1.40107E-18 6.19496E-19
 -1       768 1.29972E-04-5.39641E-05-3.26276E-05 2.24244E-07 2.52322E-18-1.69778E-18
 -1       769 1.19140E-04-5.08832E-05-2.92455E-05-8.91807E-06 2.75700E-18-5.07551E-19
 -1       770 1.09131E-04-4.36736E-05-2.80376E-05-1.28229E-05 8.87694E-19-6.41831E-19
 -1       771 1.01835E-04-3.66900E-05-2.79192E-05-1.35455E-05 1.57995E-18-6.11977E-19
 -1       772 9.74612E-05-3.17064E-05-2.81791E-05-1.26778E-05 1.40426E-18-1.23677E-18
 -1       773 9.51117E-05-2.85740E-05-2.85156E-05-1.12781E-05 3.96278E-19-1.65090E-18
 -1       774 9.40339E-05-2.68337E-05-2.87995E-05-9.77521E-06 1.35452E-19-1.11911E-18
 -1       775 9.36791E-05-2.60254E-05-2.89939E-05-8.32166E-06-1.29149E-19-4.77357E-19
 -1       776 9.37001E-05-2.57950E-05-2.91017E-05-6.97431E-06 1.83283E-20-2.02234E-18
 -1       777 9.38902E-05-2.58950E-05-2.91404E-05-5.75681E-06 2.38482E-19-2.07569E-18
 -1       778 9.41351E-05-2.61633E-05-2.91304E-05-4.67924E-06-1.08275E-19-9.82025E-19
 -1       779 9.43765E-05-2.65001E-05-2.90897E-05-3.74406E-06-1.76004E-18-1.66448E-19
 -1       780 9.45890E-05-2.68470E-05-2.90321E-05-2.94806E-06-1.27925E-18-9.76185E-20
 -1       781 9.47642E-05-2.71721E-05-2.89679E-05-2.28331E-06-3.60492E-19-9.14610E-19
 -1       782 9.49024E-05-2.74601E-05-2.89037E-05-1.73820E-06-1.09296E-18-2.51712E-18
 -1       783 9.50078E-05-2.77056E-05-2.88437E-05-1.29890E-06-1.04856E-19-2.69077E-18
 -1       784 9.50862E-05-2.79092E-05-2.87901E-05-9.50875E-07-2.34879E-19-3.10137E-18
 -1       785 9.51430E-05-2.80740E-05-2.87438E-05-6.79815E-07 3.16794E-19-2.25390E-18
 -1       786 9.51830E-05-2.82049E-05-2.87049E-05-4.72291E-07-3.63684E-20-3.13915E-18
 -1       787 9.52102E-05-2.83068E-05-2.86729E-05-3.16185E-07-2.17749E-20-2.22822E-18
 -1       788 9.52280E-05-2.83848E-05-2.86471E-05-2.00935E-07-5.16360E-20-1.83229E-18
 -1       789 9.52390E-05-2.84433E-05-2.86267E-05-1.17595E-07 7.14767E-19-5.37906E-19
 -1       790 9.52450E-05-2.84866E-05-2.86108E-05-5.87773E-08 1.11185E-18-2.54002E-18
 -1       791 9.52478E-05-2.85181E-05-2.85985E-05-1.85266E-08 1.19242E-18-5.02150E-18
 -1       792 9.52485E-05-2.85408E-05-2.85890E-05 7.83846E-09 1.16909E-18-4.57074E-18
 -1       793 9.52480E-05-2.85574E-05-2.85817E-05 2.37515E-08 5.10812E-19-2.66739E-18
 -1       794 9.52470E-05-2.85686E-05-2.85765E-05 3.13853E-08-1.07018E-19-9.29769E-19
 -1       795 9.84624E-05-2.99782E-05-2.93508E-05-1.00876E-05 3.26885E-19-5.78653E-19
 -1       796 5.20378E-05-1.59822E-05-1.50870E-05 1.73419E-05 1.83827E-18-3.57392E-18
 -1       797 9.52569E-05-2.85649E-05-2.85823E-05 7.96825E-09 2.67694E-18-3.43385E-19
 -1       798 1.11426E-04-4.29494E-05-2.93523E-05-7.90357E-06-8.58361E-19-3.79802E-19
 -1       799 1.18506E-04-4.74513E-05-3.04691E-05-2.64049E-06-8.57019E-19 2.91991E-19
 -1       800 1.23910E-04-4.71471E-05-3.29601E-05 5.46062E-06-9.55506E-19 1.06056E-18
 -1       801 1.13499E-04-4.44213E-05-2.96000E-05 5.46819E-06-1.19166E-18-1.25778E-18
 -1       802 1.06969E-04-3.93101E-05-2.89954E-05 8.68636E-06-9.71319E-19-2.96842E-19
 -1       803 1.02061E-04-3.46617E-05-2.88859E-05 9.78676E-06-9.96157E-19 5.67621E-19
 -1       804 9.88164E-05-3.12143E-05-2.89729E-05 9.68108E-06-1.52382E-19 8.13472E-19
 -1       805 9.68567E-05-2.89647E-05-2.90969E-05 8.95351E-06 1.00932E-18 2.36330E-19
 -1       806 9.57662E-05-2.76522E-05-2.91915E-05 7.95174E-06 1.45307E-19 2.35183E-21
 -1       807 9.52164E-05-2.69954E-05-2.92372E-05 6.85756E-06-6.39478E-19-3.15969E-19
 -1       808 9.49805E-05-2.67616E-05-2.92364E-05 5.77475E-06-5.49178E-19-2.86777E-19
 -1       809 9.49138E-05-2.67798E-05-2.92000E-05 4.76239E-06-7.04801E-19 4.41003E-19
 -1       810 9.49298E-05-2.69340E-05-2.91408E-05 3.85249E-06 6.58846E-19 1.28262E-19
 -1       811 9.49799E-05-2.71496E-05-2.90699E-05 3.05938E-06 7.62286E-20-1.82614E-18
 -1       812 9.50384E-05-2.73816E-05-2.89956E-05 2.38572E-06-4.77119E-19-1.84649E-18
 -1       813 9.50930E-05-2.76040E-05-2.89237E-05 1.82650E-06 4.85012E-19 3.36339E-19
 -1       814 9.51387E-05-2.78037E-05-2.88578E-05 1.37173E-06-3.85760E-19 4.25355E-19
 -1       815 9.51744E-05-2.79751E-05-2.87996E-05 1.00885E-06-1.37564E-19-7.87239E-20
 -1       816 9.52009E-05-2.81177E-05-2.87499E-05 7.24553E-07-4.12958E-19 9.82877E-19
 -1       817 9.52197E-05-2.82331E-05-2.87085E-05 5.05815E-07-2.39839E-19 3.64067E-18
 -1       818 9.52323E-05-2.83245E-05-2.86747E-05 3.40572E-07-1.07479E-18 5.02658E-18
 -1       819 9.52402E-05-2.83953E-05-2.86478E-05 2.18108E-07-4.63113E-19 4.45028E-18
 -1       820 9.52446E-05-2.84491E-05-2.86266E-05 1.29225E-07 6.77056E-19 1.07147E-18
 -1       821 9.52467E-05-2.84893E-05-2.86103E-05 6.62490E-08 2.25147E-18-4.77608E-19
 -1       822 9.52471E-05-2.85188E-05-2.85978E-05 2.29487E-08 1.06071E-18 2.02671E-18
 -1       823 9.52466E-05-2.85403E-05-2.85884E-05-5.59437E-09 4.73804E-19 3.15863E-18
 -1       824 9.52456E-05-2.85560E-05-2.85813E-05-2.31448E-08-1.58318E-19 5.25525E-19
 -1       825 9.52447E-05-2.85679E-05-2.85758E-05-3.23516E-08-2.34825E-20-1.21886E-18
 -1       826 9.52455E-05-2.85744E-05-2.85733E-05-3.42638E-08-9.47821E-19-9.86428E-19
 -1       827 9.59976E-05-2.57655E-05-3.00991E-05-6.75162E-06 9.16496E-19-5.98811E-19
 -1       828 1.06260E-04-4.83245E-05-2.46934E-05 2.51438E-05 2.00828E-18-2.88124E-19
 -1       829 9.52571E-05-2.85641E-05-2.85827E-05-1.17186E-10 1.49866E-18-2.88989E-18
 -1       830 1.20926E-04-5.48322E-05-2.83274E-05 1.40155E-05-1.22741E-18-2.94735E-18
 -1       831 9.52535E-05-2.85692E-05-2.85790E-05 2.40143E-08 1.26655E-18 1.35864E-19
 -1       832 6.06529E-05-2.16778E-05-1.64076E-05-2.44012E-05-1.01551E-18-3.04106E-18
 -1       833 1.27338E-04-5.53600E-05-3.08526E-05-7.03529E-06-1.97612E-18 8.85070E-19
 -1       834 7.81985E-05-3.18163E-05-1.96602E-05 2.95117E-05 2.34571E-18-1.80267E-18
 -1       835 9.52561E-05-2.85669E-05-2.85811E-05 1.60349E-08 1.38965E-18-3.51349E-19
 -1       836 9.68829E-05-2.75949E-05-2.96950E-05-8.69444E-06 6.21160E-19-6.31085E-19
 -1       837 9.32368E-05-2.07797E-05-3.10534E-05 2.18567E-06-9.47041E-19-1.99729E-18
 -1       838 1.33896E-04-4.48436E-05-3.82863E-05-1.19117E-05-3.48411E-18 3.47366E-18
 -1       839 4.96721E-05-1.63711E-05-1.38662E-05 1.89171E-05-2.54221E-18 2.79889E-18
 -1       840 1.05439E-04-3.77528E-05-2.90124E-05-1.02777E-05-1.38191E-19-8.00835E-19
 -1       841 8.60494E-05-1.39581E-05-3.08970E-05-8.99451E-07 9.12459E-19-2.32255E-18
 -1       842 9.55776E-05-2.32294E-05-3.10064E-05-2.11341E-06 1.78906E-18-5.49584E-19
 -1       843 9.18991E-05-1.85428E-05-3.14396E-05 5.33375E-07-8.80052E-19-2.38946E-18
 -1       844 8.62419E-05-3.84424E-05-2.02812E-05-3.20930E-05-2.08231E-18-2.70634E-18
 -1       845 1.11509E-04-5.22256E-05-2.53284E-05-2.39434E-05-2.47115E-18-9.17406E-19
 -1       846 8.53309E-05-1.33337E-05-3.08569E-05-2.53638E-07 6.92703E-19-2.56271E-18
 -1       847 8.56938E-05-3.94113E-05-1.96814E-05-3.22000E-05 1.83671E-18 1.69726E-18
 -1       848 9.52510E-05-2.85690E-05-2.85780E-05 2.79710E-08 1.68375E-18 1.00675E-19
 -1       849 5.54818E-05-1.55802E-05-1.68572E-05-1.38728E-05-2.31781E-19-3.08998E-18
 -1       850 1.11313E-04-5.07900E-05-2.58537E-05 2.08141E-05-1.21081E-18-3.48531E-18
 -1       851 1.20449E-04-5.25370E-05-2.91494E-05 1.09665E-05 9.94188E-19 1.79560E-18
 -1       852 1.20228E-04-4.77008E-05-3.10777E-05-4.69710E-07-6.92342E-20-1.31861E-18
 -1       853 9.52559E-05-2.85668E-05-2.85811E-05-1.61901E-08 2.72319E-18 1.68714E-18
 -1       854 8.72912E-05-1.50020E-05-3.09821E-05 1.02961E-06-7.34383E-20-2.53355E-18
 -1       855 1.25316E-04-5.31167E-05-3.09516E-05 3.34263E-06-3.92285E-19-2.89223E-18
 -1       856 9.52568E-05-2.85648E-05-2.85823E-05-8.12761E-09 2.17728E-18-2.40481E-18
 -1       857 8.61884E-05-3.92793E-05-1.98802E-05 3.20309E-05-2.76449E-18 7.47110E-20
 -1       858 8.93637E-05-1.65136E-05-3.12229E-05 9.83632E-07-4.43755E-19-2.57961E-18
 -1       859 4.68103E-05-1.25767E-05-1.42872E-05 6.76537E-06-1.48039E-18 2.00114E-18
 -1       860 5.60480E-05-1.88577E-05-1.56364E-05-2.06710E-05-4.01785E-19 3.83057E-18
 -1       861 9.03271E-05-1.77433E-05-3.11079E-05-1.45166E-06 1.54039E-18-1.73015E-18
 -1       862 1.21873E-04-5.55837E-05-2.83779E-05-1.37352E-05 3.40564E-18-4.61653E-19
 -1       863 1.11683E-04-5.10830E-05-2.58225E-05-2.13170E-05 2.98166E-18-1.43963E-20
 -1       864 9.52540E-05-2.85695E-05-2.85791E-05-2.31024E-08 1.93480E-18 9.36893E-19
 -1       865 8.77929E-05-1.54779E-05-3.09931E-05-1.31652E-06 1.31613E-18-2.01163E-18
 -1       866 9.57970E-05-2.45768E-05-3.05233E-05-4.62588E-06 1.37685E-18-6.32889E-19
 -1       867 8.57559E-05-1.36884E-05-3.08881E-05 4.49716E-07 3.09513E-19-2.61541E-18
 -1       868 9.01015E-05-2.22796E-05-2.90657E-05 8.28177E-06-1.77679E-19-1.46589E-18
 -1       869 8.97588E-05-2.38942E-05-2.82272E-05 1.08760E-05 8.51769E-21-1.09932E-18
 -1       870 8.99571E-05-2.62846E-05-2.72861E-05 1.38109E-05 4.08462E-19-6.21906E-19
 -1       871 9.14102E-05-3.01496E-05-2.62464E-05 1.72832E-05 9.77796E-19-6.08403E-19
 -1       872 9.55104E-05-3.64774E-05-2.52662E-05 2.11912E-05 1.75154E-18-4.54132E-19
 -1       873 9.94804E-05-4.22518E-05-2.44345E-05-2.42317E-05-1.95369E-18-1.24901E-18
 -1       874 9.59624E-05-3.63952E-05-2.54920E-05-1.92315E-05 5.49761E-19-8.00426E-19
 -1       875 9.15765E-05-3.03455E-05-2.62366E-05-1.60642E-05 1.21003E-18-9.54413E-19
 -1       876 8.98932E-05-2.68248E-05-2.70278E-05-1.30256E-05 3.85609E-19-1.20886E-18
 -1       877 8.95614E-05-2.49783E-05-2.76782E-05-1.06219E-05 1.32028E-18-4.05114E-19
 -1       878 8.99276E-05-2.42071E-05-2.81657E-05-8.70406E-06 6.98204E-19 1.14893E-19
 -1       879 9.06037E-05-2.40941E-05-2.85040E-05-7.14484E-06-9.65082E-19 4.54853E-19
 -1       880 9.13717E-05-2.43566E-05-2.87206E-05-5.84871E-06-7.97623E-20-8.81203E-20
 -1       881 9.21163E-05-2.48100E-05-2.88455E-05-4.75438E-06 5.85138E-19-2.55358E-19
 -1       882 9.27825E-05-2.53378E-05-2.89048E-05-3.82539E-06-2.11300E-19-6.77625E-19
 -1       883 9.33500E-05-2.58703E-05-2.89198E-05-3.03934E-06-7.47560E-19 6.63359E-19
 -1       884 9.38170E-05-2.63680E-05-2.89067E-05-2.38090E-06-8.13157E-19 1.19828E-18
 -1       885 9.41908E-05-2.68104E-05-2.88773E-05-1.83660E-06-7.13929E-19-3.83015E-19
 -1       886 9.44832E-05-2.71899E-05-2.88400E-05-1.39299E-06-1.09531E-18-2.18396E-19
 -1       887 9.47076E-05-2.75068E-05-2.88003E-05-1.03698E-06-7.09232E-19-5.55267E-19
 -1       888 9.48763E-05-2.77655E-05-2.87618E-05-7.55919E-07 6.11864E-19 2.00399E-20
 -1       889 9.50006E-05-2.79725E-05-2.87263E-05-5.37695E-07-9.59813E-19-1.34124E-18
 -1       890 9.50901E-05-2.81350E-05-2.86950E-05-3.71094E-07 7.90080E-20-2.07666E-18
 -1       891 9.51527E-05-2.82603E-05-2.86682E-05-2.46130E-07 6.82949E-19-2.55082E-18
 -1       892 9.51952E-05-2.83552E-05-2.86457E-05-1.54166E-07 3.50576E-19-1.99063E-18
 -1       893 9.52226E-05-2.84258E-05-2.86272E-05-8.79286E-08 1.02690E-18-3.11572E-18
 -1       894 9.52392E-05-2.84773E-05-2.86122E-05-4.14296E-08 1.98777E-19-2.98467E-18
 -1       895 9.52482E-05-2.85145E-05-2.86002E-05-9.91547E-09 9.51050E-19-2.44721E-18
 -1       896 9.52522E-05-2.85415E-05-2.85904E-05 1.05648E-08 3.08984E-18-2.67596E-18
 -1       897 1.12107E-04-4.71129E-05-2.78034E-05-1.42403E-05-1.55375E-18-2.00598E-19
 -1       898 1.05384E-04-4.16545E-05-2.72937E-05 1.42110E-05-1.60015E-18-1.33031E-18
 -1       899 9.34290E-05-2.79390E-05-2.80683E-05 1.05846E-05 4.67306E-19-9.32348E-19
 -1       900 9.26242E-05-2.63530E-05-2.84015E-05 8.97681E-06 9.03818E-20 5.81580E-19
 -1       901 9.24681E-05-2.56134E-05-2.86517E-05 7.52146E-06-3.70603E-19 5.13141E-19
 -1       902 9.26548E-05-2.54145E-05-2.88171E-05 6.23514E-06-8.06220E-19 3.17506E-19
 -1       903 9.29969E-05-2.55373E-05-2.89112E-05 5.10924E-06-1.12118E-18 2.78691E-19
 -1       904 9.33859E-05-2.58327E-05-2.89513E-05 4.13346E-06-1.34441E-19-6.30339E-19
 -1       905 9.37621E-05-2.62034E-05-2.89537E-05 3.29776E-06 1.15248E-18 9.12032E-19
 -1       906 9.40973E-05-2.65895E-05-2.89319E-05 2.59176E-06-1.65987E-19 1.68963E-18
 -1       907 9.43805E-05-2.69563E-05-2.88961E-05 2.00479E-06-4.76711E-19-1.19819E-20
 -1       908 9.46107E-05-2.72849E-05-2.88539E-05 1.52475E-06-6.27124E-19 4.07414E-19
 -1       909 9.47920E-05-2.75676E-05-2.88105E-05 1.13837E-06-1.00691E-18 1.70524E-18
 -1       910 9.49312E-05-2.78035E-05-2.87690E-05 8.32438E-07-3.32909E-19 1.98511E-18
 -1       911 9.50353E-05-2.79955E-05-2.87313E-05 5.94245E-07-1.77708E-18 2.36784E-18
 -1       912 9.51111E-05-2.81483E-05-2.86984E-05 4.11928E-07-1.72290E-18 1.46286E-18
 -1       913 9.51647E-05-2.82673E-05-2.86703E-05 2.74825E-07 1.23763E-19-3.99839E-19
 -1       914 9.52012E-05-2.83583E-05-2.86470E-05 1.73658E-07 1.77463E-18-5.75255E-19
 -1       915 9.52250E-05-2.84265E-05-2.86279E-05 1.00572E-07 1.65941E-18 3.13913E-19
 -1       916 9.52394E-05-2.84767E-05-2.86126E-05 4.90736E-08 1.61471E-19 1.29481E-18
 -1       917 9.52473E-05-2.85131E-05-2.86004E-05 1.39319E-08 1.76951E-19 1.81581E-18
 -1       918 9.52507E-05-2.85393E-05-2.85906E-05-8.91331E-09 1.26017E-18 2.79409E-18
 -1       919 9.52514E-05-2.85582E-05-2.85828E-05-2.26171E-08 5.91901E-19 2.45612E-18
 -1       920 1.03765E-04-3.96770E-05-2.74721E-05-1.51527E-05-9.59374E-19-1.18760E-18
 -1       921 9.52549E-05-2.85431E-05-2.85908E-05 2.42108E-09 2.54310E-18 1.07455E-18
 -1       922 9.31891E-05-2.43757E-05-2.94927E-05-7.93177E-06 7.67773E-19-1.10028E-18
 -1       923 9.53601E-05-3.07847E-05-2.76774E-05 1.23104E-05-1.16642E-18-1.85805E-18
 -1       924 9.90694E-05-3.52632E-05-2.73249E-05 1.37995E-05-7.39617E-19-1.57947E-18
 -1       925 7.84021E-05-2.81231E-05-2.14641E-05-2.39285E-05-9.21604E-19-2.33958E-18
 -1       926 6.85140E-05-2.09638E-05-2.02661E-05 1.91912E-05 1.59301E-18-2.21422E-18
 -1       927 6.90401E-05-2.56018E-05-1.83948E-05 2.59369E-05-2.84255E-18 2.03059E-18
 -1       928 9.83629E-05-3.36497E-05-2.77341E-05-1.41751E-05-2.28068E-19-1.18273E-18
 -1       929 9.52506E-05-2.85726E-05-2.85763E-05-2.92504E-08 1.62408E-18-7.74927E-20
 -1       930 5.56639E-05-1.33824E-05-1.79419E-05 4.60966E-06 7.11759E-19-2.83886E-18
 -1       931 9.05003E-05-1.85514E-05-3.08337E-05 2.40758E-06-5.05935E-19-2.33327E-18
 -1       932 9.38693E-05-2.64900E-05-2.88758E-05-1.01907E-05 2.78438E-19-8.89249E-19
 -1       933 9.53657E-05-2.93989E-05-2.82717E-05-1.23080E-05 2.34238E-19-8.62104E-19
 -1       934 9.04733E-05-2.08728E-05-2.98281E-05 5.80000E-06-3.30246E-19-1.79967E-18
 -1       935 7.25146E-05-2.81364E-05-1.87022E-05-2.66027E-05 1.31267E-18 3.61262E-18
 -1       936 7.12086E-05-2.16378E-05-2.11334E-05-1.85640E-05-2.91771E-19-2.36625E-18
 -1       937 9.52519E-05-2.85566E-05-2.85836E-05 2.09234E-08 2.01083E-18-1.13836E-18
 -1       938 1.00557E-04-4.42161E-05-2.40523E-05 2.44149E-05-1.67486E-18-1.73074E-18
 -1       939 9.32385E-05-2.30620E-05-3.00749E-05-5.82895E-06 1.01633E-18-1.08348E-18
 -1       940 8.54067E-05-1.51822E-05-3.00961E-05-1.14902E-06 8.09635E-19-2.34305E-18
 -1       941 8.68695E-05-1.64079E-05-3.01984E-05-2.45927E-06 9.44563E-19-1.79713E-18
 -1       942 9.52548E-05-2.85430E-05-2.85908E-05-2.69314E-09 6.93731E-19-2.66563E-18
 -1       943 8.80355E-05-1.67080E-05-3.05661E-05 2.20457E-06-1.81543E-19-2.22972E-18
 -1       944 9.52544E-05-2.85559E-05-2.85850E-05 1.79798E-08 2.11504E-18 2.99556E-19
 -1       945 6.05167E-05-1.66314E-05-1.86514E-05 1.38138E-05-1.23288E-18 1.61687E-18
 -1       946 5.15160E-05-1.30608E-05-1.62046E-05-5.93393E-06-6.42898E-19 1.94546E-18
 -1       947 9.52550E-05-2.85460E-05-2.85896E-05-8.03567E-09 4.71533E-19-2.06529E-18
 -1       948 9.23207E-05-2.10708E-05-3.05366E-05-3.80262E-06 1.38334E-18-1.39742E-18
 -1       949 9.52547E-05-2.85511E-05-2.85873E-05-1.36094E-08 2.66143E-18 1.44065E-18
 -1       950 8.25902E-05-2.69442E-05-2.37698E-05 2.00637E-05 1.31643E-18-1.61829E-18
 -1       951 8.60960E-05-1.50721E-05-3.04399E-05 1.23368E-06 1.75117E-19-2.51189E-18
 -1       952 9.52553E-05-2.85462E-05-2.85896E-05 8.14346E-09 3.34057E-18-2.96834E-18
 -1       953 1.14937E-04-4.92551E-05-2.81363E-05 1.20171E-05-1.01766E-18-1.42505E-18
 -1       954 8.58179E-05-2.02559E-05-2.80984E-05 7.90579E-06 1.63639E-19-1.73428E-18
 -1       955 8.41436E-05-2.13831E-05-2.68975E-05 1.06628E-05 3.46356E-19-1.71095E-18
 -1       956 8.24497E-05-2.31341E-05-2.54256E-05 1.44788E-05 7.09893E-19-1.64446E-18
 -1       957 8.96061E-05-2.47878E-05-2.77770E-05-1.13979E-05 6.58637E-20-1.53474E-18
 -1       958 8.19995E-05-2.65598E-05-2.36982E-05-1.86031E-05 4.38646E-19 1.32148E-18
 -1       959 9.27603E-05-3.24647E-05-2.58140E-05-1.83663E-05-3.05036E-19-8.46734E-19
 -1       960 8.25482E-05-2.37685E-05-2.51910E-05-1.38831E-05 1.52297E-19 1.07534E-18
 -1       961 8.39293E-05-2.24380E-05-2.63543E-05-1.05317E-05 1.12668E-18-3.63198E-19
 -1       962 8.55310E-05-2.20488E-05-2.72074E-05-8.22494E-06 7.94125E-19-2.04242E-18
 -1       963 8.71283E-05-2.22309E-05-2.78136E-05-6.55252E-06 1.13521E-18-1.93890E-18
 -1       964 8.86044E-05-2.27359E-05-2.82296E-05-5.28365E-06-3.27437E-19-5.13705E-19
 -1       965 8.99100E-05-2.34025E-05-2.85034E-05-4.27564E-06 2.19553E-19-3.01610E-19
 -1       966 9.10313E-05-2.41267E-05-2.86735E-05-3.44870E-06 9.51131E-20 1.74598E-19
 -1       967 9.19712E-05-2.48414E-05-2.87701E-05-2.75893E-06-8.07798E-19 8.63131E-19
 -1       968 9.27441E-05-2.55081E-05-2.88155E-05-2.18213E-06-8.15453E-19 1.52637E-18
 -1       969 9.33672E-05-2.61038E-05-2.88272E-05-1.70292E-06-1.56215E-18 2.08136E-18
 -1       970 9.38603E-05-2.66184E-05-2.88180E-05-1.30871E-06-2.08464E-18 1.42298E-18
 -1       971 9.42445E-05-2.70522E-05-2.87967E-05-9.88280E-07-1.02957E-18 1.40531E-19
 -1       972 9.45390E-05-2.74102E-05-2.87695E-05-7.32108E-07-6.22629E-19-8.14401E-19
 -1       973 9.47603E-05-2.76995E-05-2.87404E-05-5.30677E-07-4.88261E-19-1.36603E-18
 -1       974 9.49234E-05-2.79288E-05-2.87120E-05-3.74819E-07 2.62611E-19-6.39940E-19
 -1       975 9.50409E-05-2.81075E-05-2.86858E-05-2.56245E-07-9.21639E-19-4.07248E-20
 -1       976 9.51233E-05-2.82441E-05-2.86625E-05-1.67651E-07 2.22682E-19-1.56664E-18
 -1       977 9.51791E-05-2.83468E-05-2.86424E-05-1.02759E-07 4.16478E-19-1.81575E-18
 -1       978 9.52153E-05-2.84226E-05-2.86254E-05-5.63102E-08 7.23158E-19-1.39703E-18
 -1       979 9.52372E-05-2.84776E-05-2.86113E-05-2.39270E-08 8.70925E-19-2.29364E-18
 -1       980 9.52492E-05-2.85170E-05-2.85995E-05-1.96035E-09 2.81315E-18-2.25832E-18
 -1       981 8.99425E-05-2.38823E-05-2.83117E-05 6.21611E-06-2.45429E-19-1.31044E-18
 -1       982 8.91640E-05-2.39417E-05-2.79521E-05 7.70823E-06 9.07032E-20-1.00045E-19
 -1       983 8.86179E-05-2.45669E-05-2.74511E-05 9.61506E-06-1.75711E-19 3.43839E-19
 -1       984 9.07890E-05-2.41618E-05-2.85548E-05 5.01193E-06-6.67769E-19-9.06606E-19
 -1       985 9.16076E-05-2.46234E-05-2.87077E-05 4.02351E-06-9.21629E-19-8.19541E-19
 -1       986 9.23481E-05-2.51618E-05-2.87943E-05 3.20541E-06-7.13832E-19 1.52227E-19
 -1       987 9.29880E-05-2.57089E-05-2.88339E-05 2.52654E-06-3.52748E-19 1.47076E-18
 -1       988 9.35238E-05-2.62265E-05-2.88417E-05 1.96613E-06-2.24263E-19 1.63378E-18
 -1       989 9.39602E-05-2.66915E-05-2.88295E-05 1.50834E-06-6.56587E-19 2.29698E-18
 -1       990 9.43070E-05-2.70934E-05-2.88059E-05 1.13860E-06-1.07182E-18 1.96012E-18
 -1       991 9.45769E-05-2.74313E-05-2.87767E-05 8.43848E-07-1.06309E-19 1.18069E-18
 -1       992 9.47825E-05-2.77086E-05-2.87460E-05 6.12469E-07-8.00765E-19 9.64001E-19
 -1       993 9.49356E-05-2.79310E-05-2.87163E-05 4.33623E-07-7.31835E-19-7.53388E-19
 -1       994 9.50469E-05-2.81059E-05-2.86890E-05 2.97593E-07 9.30274E-19-3.27426E-18
 -1       995 9.51256E-05-2.82408E-05-2.86649E-05 1.95898E-07 1.13345E-18-2.16044E-18
 -1       996 9.51794E-05-2.83428E-05-2.86442E-05 1.21313E-07 1.90234E-19-1.34968E-18
 -1       997 9.52145E-05-2.84186E-05-2.86268E-05 6.78032E-08 1.90057E-19 5.47026E-19
 -1       998 9.52360E-05-2.84739E-05-2.86123E-05 3.03990E-08-9.42519E-19 3.67584E-18
 -1       999 9.52479E-05-2.85137E-05-2.86004E-05 5.12840E-09 8.22494E-19 2.39687E-18
 -1      1000 8.87389E-05-2.61496E-05-2.68284E-05 1.20210E-05-1.11841E-18-6.22330E-19
 -1      1001 8.47719E-05-3.30734E-05-2.20601E-05 2.49711E-05-2.14830E-18 1.01799E-19
 -1      1002 8.52548E-05-1.47068E-05-3.02340E-05 1.94655E-07 6.10912E-19-2.33147E-18
 -1      1003 1.03878E-04-4.32494E-05-2.59365E-05 1.87173E-05-1.57075E-18-2.86360E-18
 -1      1004 6.68950E-05-1.62657E-05-2.16408E-05 9.25504E-06 7.39817E-19-2.01872E-18
 -1      1005 8.71172E-05-1.92127E-05-2.91084E-05 5.63868E-06-2.86143E-20-1.92233E-18
 -1      1006 8.93086E-05-1.84661E-05-3.03623E-05-3.35687E-06 1.14148E-18-1.65998E-18
 -1      1007 5.93061E-05-1.40786E-05-1.92727E-05 4.10287E-06-2.23426E-19 1.20068E-18
 -1      1008 7.24421E-05-2.28872E-05-2.11622E-05 1.91157E-05-1.88262E-18 1.57213E-18
 -1      1009 6.37397E-05-1.50859E-05-2.07685E-05-6.45732E-06 1.84284E-19-2.60285E-18
 -1      1010 9.03744E-05-2.78176E-05-2.68142E-05-1.45589E-05-3.12997E-20-1.09309E-18
 -1      1011 8.95925E-05-2.27112E-05-2.86620E-05-8.66854E-06 4.44378E-19-1.49740E-18
 -1      1012 8.65711E-05-1.71436E-05-2.97558E-05 3.10799E-06-5.37049E-20-2.22580E-18
 -1      1013 8.98900E-05-2.03796E-05-2.97898E-05-5.29324E-06 9.18585E-19-1.62541E-18
 -1      1014 9.66339E-05-3.56053E-05-2.61209E-05 1.69639E-05-1.32863E-18-1.70479E-18
 -1      1015 8.53234E-05-1.69283E-05-2.93132E-05-2.90797E-06 8.02578E-19-1.90419E-18
 -1      1016 8.42439E-05-1.60460E-05-2.92283E-05-5.41832E-07 4.09614E-19-1.94829E-18
 -1      1017 8.07726E-05-2.46363E-05-2.40301E-05-1.72341E-05-3.26925E-19-1.74409E-18
 -1      1018 9.52532E-05-2.85421E-05-2.85905E-05-1.08354E-08 1.31485E-18 2.47213E-18
 -1      1019 9.52480E-05-2.85146E-05-2.86000E-05-2.26297E-10 9.48006E-19 8.46409E-19
 -1      1020 8.98398E-05-2.91644E-05-2.60006E-05 1.51834E-05-1.74755E-18-6.35224E-20
 -1      1021 6.21541E-05-1.72950E-05-1.90596E-05-1.45866E-05-3.20573E-19 3.68225E-18
 -1      1022 6.85466E-05-1.75475E-05-2.18150E-05 1.03565E-05-2.46714E-19-3.12869E-19
 -1      1023 9.52490E-05-2.85173E-05-2.85993E-05-7.94493E-10-5.26736E-19-2.77610E-18
 -1      1024 9.52508E-05-2.85244E-05-2.85970E-05-2.75564E-09-2.67987E-19-1.59830E-18
 -1      1025 9.52490E-05-2.85171E-05-2.85994E-05 2.63603E-10 1.93216E-18 1.27024E-18
 -1      1026 8.72929E-05-1.83936E-05-2.95250E-05-4.35165E-06 8.97175E-19-1.64646E-18
 -1      1027 7.76680E-05-1.84323E-05-2.53836E-05 8.37849E-06 6.02119E-19-1.55854E-18
 -1      1028 8.30530E-05-1.70287E-05-2.82944E-05-2.51237E-06 3.55239E-19-1.62549E-18
 -1      1029 7.29015E-05-1.92405E-05-2.29776E-05-1.20717E-05-1.08419E-20 2.32585E-18
 -1      1030 7.72908E-05-1.92935E-05-2.48574E-05-8.53479E-06-4.15818E-19 1.92486E-18
 -1      1031 8.07264E-05-1.96874E-05-2.61621E-05-6.38874E-06-6.14112E-19 6.94008E-19
 -1      1032 8.35143E-05-2.03479E-05-2.70738E-05-4.92676E-06 1.95604E-19-1.49959E-18
 -1      1033 8.58148E-05-2.11746E-05-2.77044E-05-3.91396E-06 1.25496E-18-2.86701E-18
 -1      1034 8.77144E-05-2.20706E-05-2.81340E-05-3.15716E-06 1.09503E-19-2.65780E-18
 -1      1035 8.92890E-05-2.29802E-05-2.84187E-05-2.55583E-06 3.39557E-19-1.85012E-18
 -1      1036 9.05921E-05-2.38606E-05-2.85997E-05-2.06236E-06 5.24133E-19-1.72769E-18
 -1      1037 9.16570E-05-2.46750E-05-2.87069E-05-1.64734E-06 1.73097E-19-5.09758E-19
 -1      1038 9.25181E-05-2.54059E-05-2.87623E-05-1.30276E-06-5.44669E-19 2.89311E-20
 -1      1039 9.32061E-05-2.60446E-05-2.87836E-05-1.01556E-06-1.60122E-18 7.05120E-19
 -1      1040 9.37467E-05-2.65861E-05-2.87833E-05-7.76849E-07-2.16184E-18 1.45882E-18
 -1      1041 9.41678E-05-2.70393E-05-2.87695E-05-5.83875E-07-1.43769E-18 2.00607E-18
 -1      1042 9.44886E-05-2.74091E-05-2.87485E-05-4.30340E-07-2.18462E-18 4.18859E-19
 -1      1043 9.47287E-05-2.77054E-05-2.87244E-05-3.09851E-07-3.20903E-19-1.76905E-18
 -1      1044 9.49050E-05-2.79385E-05-2.87000E-05-2.16872E-07-8.03292E-20-2.49492E-18
 -1      1045 9.50313E-05-2.81186E-05-2.86769E-05-1.46396E-07-3.92044E-19-5.92427E-19
 -1      1046 9.51194E-05-2.82555E-05-2.86560E-05-9.39801E-08 2.90193E-19 9.97711E-19
 -1      1047 9.51787E-05-2.83576E-05-2.86377E-05-5.57878E-08 8.77150E-19 6.55942E-19
 -1      1048 9.52166E-05-2.84321E-05-2.86219E-05-2.88659E-08 6.83821E-19 1.06271E-18
 -1      1049 9.52393E-05-2.84862E-05-2.86085E-05-1.02828E-08 4.93266E-19-8.81454E-20
 -1      1050 8.97094E-05-2.33767E-05-2.84292E-05 3.44273E-06-1.23603E-18 1.82798E-18
 -1      1051 8.84031E-05-2.27151E-05-2.81531E-05 4.35574E-06-1.50927E-18 4.64442E-19
 -1      1052 6.98789E-05-1.55560E-05-2.32630E-05 2.02550E-07 3.91294E-19-2.06380E-18
 -1      1053 8.53171E-05-2.19531E-05-2.71582E-05 7.12192E-06 2.12100E-19-8.19223E-19
 -1      1054 9.08444E-05-2.40969E-05-2.86067E-05 2.71817E-06-1.06760E-18 1.53192E-18
 -1      1055 9.18018E-05-2.48049E-05-2.87131E-05 2.13854E-06-4.93490E-19 9.10883E-19
 -1      1056 9.25990E-05-2.54717E-05-2.87688E-05 1.66671E-06-3.52264E-19 2.56951E-19
 -1      1057 9.32472E-05-2.60705E-05-2.87902E-05 1.28361E-06-6.45515E-19-6.13251E-19
 -1      1058 9.37645E-05-2.65896E-05-2.87895E-05 9.75749E-07-5.59654E-19-1.32784E-18
 -1      1059 9.41720E-05-2.70300E-05-2.87754E-05 7.29645E-07-7.88397E-19-1.88025E-18
 -1      1060 9.44860E-05-2.73942E-05-2.87538E-05 5.35945E-07 2.39795E-19 3.36172E-19
 -1      1061 9.47231E-05-2.76889E-05-2.87291E-05 3.85338E-07 1.75977E-20 9.85784E-19
 -1      1062 9.48985E-05-2.79227E-05-2.87040E-05 2.69864E-07 5.62294E-19 1.00366E-18
 -1      1063 9.50252E-05-2.81046E-05-2.86803E-05 1.82698E-07 1.38784E-19 1.42855E-18
 -1      1064 9.51141E-05-2.82436E-05-2.86588E-05 1.18006E-07 2.02969E-19 3.16058E-18
 -1      1065 9.51745E-05-2.83480E-05-2.86400E-05 7.08969E-08-3.60915E-20 2.95967E-18
 -1      1066 9.52133E-05-2.84244E-05-2.86238E-05 3.75967E-08-9.81394E-19 1.34886E-18
 -1      1067 9.52371E-05-2.84802E-05-2.86101E-05 1.42196E-08 1.44495E-18-1.69117E-18
 -1      1068 9.52350E-05-2.84779E-05-2.86102E-05 3.83107E-09 1.08714E-18 4.87781E-19
 -1      1069 9.15264E-05-3.47883E-05-2.42752E-05 2.09175E-05-1.84021E-18-7.44287E-19
 -1      1070 6.36360E-05-1.50457E-05-2.07657E-05-4.77042E-06-6.03056E-19 2.34115E-18
 -1      1071 8.48710E-05-1.61691E-05-2.94427E-05 1.54037E-06 1.21828E-19-1.88029E-18
 -1      1072 7.89528E-05-2.31966E-05-2.38838E-05 1.49055E-05-1.43819E-18 1.01482E-19
 -1      1073 7.25870E-05-1.80186E-05-2.33713E-05-1.00444E-05 4.83109E-20-2.11165E-18
 -1      1074 8.38099E-05-1.77846E-05-2.82982E-05 4.29328E-06 2.93341E-19-2.04391E-18
 -1      1075 8.37864E-05-2.21748E-05-2.63993E-05-1.16789E-05-6.73875E-20-1.90618E-18
 -1      1076 6.79749E-05-1.57210E-05-2.23989E-05 3.02334E-06-3.07376E-19 1.34122E-18
 -1      1077 8.37136E-05-2.21455E-05-2.63903E-05 9.32387E-06-7.38457E-19-7.70101E-19
 -1      1078 8.69283E-05-2.21965E-05-2.77436E-05 5.53747E-06 2.71557E-19-3.14902E-19
 -1      1079 8.38484E-05-2.82633E-05-2.38118E-05 1.89217E-05-2.41247E-18 6.17255E-19
 -1      1080 8.11914E-05-1.82061E-05-2.69996E-05 6.04494E-06 2.74371E-19-1.80712E-18
 -1      1081 8.52436E-05-2.07335E-05-2.76522E-05-8.46509E-06 2.61080E-19-1.67854E-18
 -1      1082 7.51214E-05-1.86685E-05-2.41712E-05 8.19615E-06-6.73621E-19-2.51784E-19
 -1      1083 8.49478E-05-1.83705E-05-2.85331E-05-4.96435E-06 6.48278E-19-1.72955E-18
 -1      1084 8.26840E-05-1.67013E-05-2.82800E-05 1.03154E-06 3.11248E-19-1.83837E-18
 -1      1085 7.58104E-05-2.51816E-05-2.16860E-05-2.07895E-05 3.47343E-19 2.03819E-18
 -1      1086 9.52352E-05-2.84780E-05-2.86102E-05-3.92134E-09 1.66351E-18 2.02444E-18
 -1      1087 8.17471E-05-1.83394E-05-2.71739E-05-5.71547E-06 4.34582E-19-1.41073E-18
 -1      1088 7.97635E-05-1.68382E-05-2.69666E-05-1.07413E-06 4.58071E-19-1.82919E-18
 -1      1089 7.60916E-05-1.74790E-05-2.51130E-05-2.60267E-06-1.42729E-18 1.69526E-18
 -1      1090 8.01796E-05-1.87411E-05-2.63301E-05-1.90259E-06-1.35665E-18 1.47924E-18
 -1      1091 8.32948E-05-1.98855E-05-2.71779E-05-1.57408E-06-3.60565E-19 4.73160E-19
 -1      1092 8.57451E-05-2.09701E-05-2.77623E-05-1.31596E-06 2.05042E-19-9.39201E-19
 -1      1093 8.77238E-05-2.20190E-05-2.81603E-05-1.10457E-06 7.69935E-19-1.23338E-18
 -1      1094 8.93381E-05-2.30181E-05-2.84239E-05-9.24200E-07 4.64050E-19-9.64951E-19
 -1      1095 9.06920E-05-2.39649E-05-2.85941E-05-7.71676E-07 8.48014E-19-4.72159E-19
 -1      1096 9.17567E-05-2.48023E-05-2.86948E-05-6.29518E-07 7.09874E-19-5.34112E-19
 -1      1097 9.25763E-05-2.55063E-05-2.87435E-05-4.91905E-07-1.37774E-18-1.76190E-18
 -1      1098 9.32647E-05-2.61469E-05-2.87647E-05-3.78984E-07-1.54641E-18-2.11139E-18
 -1      1099 9.38009E-05-2.66833E-05-2.87648E-05-2.93005E-07-1.21173E-18-1.12954E-18
 -1      1100 9.42134E-05-2.71245E-05-2.87524E-05-2.20852E-07-1.51542E-18-2.39333E-19
 -1      1101 9.45264E-05-2.74818E-05-2.87334E-05-1.62397E-07-2.33058E-18 1.31894E-18
 -1      1102 9.47595E-05-2.77659E-05-2.87115E-05-1.16215E-07-1.66101E-18-1.01238E-19
 -1      1103 9.49295E-05-2.79879E-05-2.86892E-05-8.05192E-08 5.87902E-19-7.06371E-19
 -1      1104 9.50504E-05-2.81582E-05-2.86680E-05-5.35140E-08 7.70833E-20-1.29768E-18
 -1      1105 9.51338E-05-2.82867E-05-2.86488E-05-3.35484E-08 6.26417E-20-1.39880E-18
 -1      1106 9.51891E-05-2.83816E-05-2.86317E-05-1.93194E-08 2.17493E-18-6.88213E-19
 -1      1107 9.52169E-05-2.84360E-05-2.86203E-05-9.99219E-09 1.14771E-18 1.07853E-18
 -1      1108 9.06094E-05-2.39219E-05-2.85777E-05 1.40750E-06 3.40289E-19-1.78280E-18
 -1      1109 9.17097E-05-2.47685E-05-2.86886E-05 1.07168E-06-6.38969E-19-1.63777E-18
 -1      1110 9.25450E-05-2.54737E-05-2.87432E-05 8.26329E-07 4.05190E-19-1.52782E-18
 -1      1111 9.32096E-05-2.60909E-05-2.87654E-05 6.33803E-07 2.26034E-19-1.99935E-18
 -1      1112 9.37507E-05-2.66264E-05-2.87675E-05 4.77792E-07-3.33245E-19-1.95052E-18
 -1      1113 9.41712E-05-2.70731E-05-2.87562E-05 3.54313E-07-1.37863E-18-1.75807E-18
 -1      1114 9.44922E-05-2.74375E-05-2.87377E-05 2.57738E-07-8.82154E-19-9.88420E-19
 -1      1115 9.47327E-05-2.77291E-05-2.87158E-05 1.83304E-07-6.07872E-19-3.82203E-19
 -1      1116 9.49092E-05-2.79582E-05-2.86932E-05 1.26767E-07-6.62863E-19 7.82231E-19
 -1      1117 9.50355E-05-2.81349E-05-2.86716E-05 8.44927E-08-5.66707E-19 1.20171E-18
 -1      1118 9.51232E-05-2.82686E-05-2.86519E-05 5.34545E-08 9.52584E-20 1.45591E-18
 -1      1119 9.51817E-05-2.83679E-05-2.86345E-05 3.09091E-08 1.22279E-18 9.67780E-19
 -1      1120 9.52137E-05-2.84298E-05-2.86216E-05 1.32827E-08 3.08402E-18-9.14095E-19
 -1      1121 7.57435E-05-1.69730E-05-2.51900E-05-4.50780E-06 2.99894E-19-1.85684E-18
 -1      1122 8.37206E-05-2.04276E-05-2.71244E-05 4.02564E-06-9.84826E-19 1.09395E-18
 -1      1123 7.17168E-05-1.67178E-05-2.35324E-05-4.33018E-06-5.19496E-19 2.21583E-18
 -1      1124 7.98132E-05-1.70595E-05-2.68919E-05 2.47854E-06 4.09119E-19-1.79396E-18
 -1      1125 8.10586E-05-1.97237E-05-2.62966E-05 5.40059E-06-6.96805E-19 1.31855E-19
 -1      1126 8.59495E-05-2.12696E-05-2.77185E-05 3.05726E-06-9.05944E-19 2.01590E-18
 -1      1127 8.93368E-05-2.30627E-05-2.84021E-05 1.82759E-06-3.46969E-19-6.46104E-19
 -1      1128 8.77989E-05-2.21648E-05-2.81278E-05 2.35339E-06-1.30717E-18 2.74304E-19
 -1      1129 7.65768E-05-1.65840E-05-2.57041E-05 1.05665E-06 4.51633E-19-1.74644E-18
 -1      1130 9.09148E-05-2.41670E-05-2.86130E-05 1.87025E-07 6.66828E-19-2.22899E-18
 -1      1131 9.21294E-05-2.51386E-05-2.87149E-05 2.37752E-07-4.81940E-19-4.79196E-18
 -1      1132 1.17135E-04 2.60247E-10-4.21514E-05-4.00932E-05-3.57448E-19 9.09248E-18
 -1      1133 9.03610E-05 7.73259E-11-3.78618E-05-2.19911E-05-1.78512E-19 3.05302E-19
 -1      1134 8.56598E-05 4.46212E-11-3.63637E-05-1.50870E-05-1.18743E-19-3.22800E-18
 -1      1135 8.33029E-05 3.23174E-11-3.54607E-05-1.07830E-05-7.10978E-20-4.79161E-18
 -1      1136 8.16906E-05 2.48335E-11-3.48248E-05-7.58394E-06-3.70577E-20-5.45669E-18
 -1      1137 8.04825E-05 1.96674E-11-3.43502E-05-5.11974E-06-1.61730E-20-5.69096E-18
 -1      1138 7.96046E-05 1.60989E-11-3.40065E-05-3.15724E-06-3.36166E-21-5.71071E-18
 -1      1139 7.90635E-05 1.40229E-11-3.37953E-05-1.50409E-06 3.83150E-21-5.55477E-18
 -1      1140 7.88915E-05 1.34189E-11-3.37276E-05-7.46738E-09 1.74105E-20-5.33779E-18
 -1      1141 7.90945E-05 1.42663E-11-3.38059E-05 1.50366E-06 3.79444E-20-5.07241E-18
 -1      1142 7.96576E-05 1.65449E-11-3.40245E-05 3.19784E-06 4.88632E-20-4.70349E-18
 -1      1143 8.05459E-05 2.02069E-11-3.43700E-05 5.22079E-06 7.07802E-20-4.18226E-18
 -1      1144 8.17462E-05 2.54959E-11-3.48417E-05 7.75650E-06 8.83561E-20-3.33120E-18
 -1      1145 8.33360E-05 3.30313E-11-3.54725E-05 1.10364E-05 1.08526E-19-1.94206E-18
 -1      1146 8.56416E-05 4.51570E-11-3.63768E-05 1.54013E-05 1.40025E-19 4.47167E-19
 -1      1147 9.00246E-05 7.23641E-11-3.79137E-05 2.19189E-05 1.43678E-19 4.86668E-18
 -1      1148 1.07226E-04 1.69327E-10-4.09666E-05 3.48623E-05 2.53051E-19 1.33729E-17
 -1      1149 1.30145E-04-2.60245E-05-4.05301E-05-2.52083E-05-1.37929E-18 1.46329E-17
 -1      1150 9.99827E-05-2.96377E-05-3.23505E-05-4.64698E-07-4.95541E-19 1.12773E-17
 -1      1151 9.47785E-05-2.84318E-05-2.92615E-05 4.39006E-07-2.05445E-19 6.72790E-18
 -1      1152 9.47908E-05-2.85513E-05-2.86203E-05 2.92600E-07-7.15280E-20 3.95776E-18
 -1      1153 9.65873E-05-2.90705E-05-2.90302E-05 2.22173E-07-1.06547E-19 2.03913E-18
 -1      1154 9.94841E-05-2.99069E-05-2.98833E-05 1.97748E-07-9.48065E-20 6.28313E-19
 -1      1155 1.03130E-04-3.09741E-05-3.09673E-05 1.94767E-07 1.05284E-20-4.28175E-19
 -1      1156 1.07233E-04-3.21815E-05-3.21702E-05 1.98209E-07-4.11946E-20-1.19085E-18
 -1      1157 1.11390E-04-3.34038E-05-3.33618E-05 1.90772E-07-3.20284E-20-2.06954E-18
 -1      1158 1.14972E-04-3.44506E-05-3.43485E-05 1.47847E-07-1.14948E-19-3.11671E-18
 -1      1159 1.17062E-04-3.50484E-05-3.48641E-05 3.82572E-08-1.98523E-20-4.81465E-18
 -1      1160 1.16546E-04-3.48708E-05-3.46140E-05-1.61984E-07 1.37696E-19-4.23135E-18
 -1      1161 1.12500E-04-3.36549E-05-3.33979E-05-4.36033E-07-2.95403E-20-5.45129E-18
 -1      1162 1.04933E-04-3.14225E-05-3.12972E-05-6.87220E-07 2.89447E-20-6.86975E-18
 -1      1163 9.55449E-05-2.86893E-05-2.88178E-05-7.46784E-07 3.98254E-20-7.29602E-18
 -1      1164 8.76903E-05-2.64281E-05-2.68153E-05-4.86618E-07-3.18610E-19-8.81444E-18
 -1      1165 8.48849E-05-2.56276E-05-2.61189E-05 2.65696E-08-2.69793E-20-9.67689E-18
 -1      1166 8.85730E-05-2.66870E-05-2.70579E-05 5.28040E-07 1.30185E-19-9.21942E-18
 -1      1167 9.70940E-05-2.91472E-05-2.92547E-05 7.63144E-07 1.27353E-20-8.71777E-18
 -1      1168 1.06876E-04-3.20017E-05-3.18637E-05 6.84213E-07-5.33565E-20-9.34743E-18
 -1      1169 1.14677E-04-3.43079E-05-3.40515E-05 4.29020E-07-1.47079E-19-9.21826E-18
 -1      1170 1.18958E-04-3.55960E-05-3.53502E-05 1.63397E-07-2.12301E-19-7.62801E-18
 -1      1171 1.19826E-04-3.58791E-05-3.57102E-05-2.27364E-08 8.91568E-20-6.71330E-18
 -1      1172 1.18243E-04-3.54312E-05-3.53460E-05-1.17238E-07-1.71150E-19-6.50771E-18
 -1      1173 1.15305E-04-3.45736E-05-3.45495E-05-1.45041E-07 2.70538E-19-4.92139E-18
 -1      1174 1.11878E-04-3.35629E-05-3.35733E-05-1.36019E-07 2.38805E-19-2.89918E-18
 -1      1175 1.08513E-04-3.25647E-05-3.25896E-05-1.11917E-07 1.91394E-19-3.27905E-18
 -1      1176 1.05502E-04-3.16674E-05-3.16951E-05-8.50556E-08-1.55406E-19-5.92359E-18
 -1      1177 1.02961E-04-3.09071E-05-3.09320E-05-6.10479E-08 8.66058E-22-7.08131E-18
 -1      1178 1.00900E-04-3.02887E-05-3.03090E-05-4.17244E-08 3.23099E-19-6.32457E-18
 -1      1179 9.92802E-05-2.98011E-05-2.98167E-05-2.71080E-08-1.36169E-19-4.63737E-18
 -1      1180 9.80388E-05-2.94265E-05-2.94379E-05-1.65212E-08 2.83160E-20-6.73501E-18
 -1      1181 9.71093E-05-2.91452E-05-2.91533E-05-9.12218E-09 1.31298E-19-7.42904E-18
 -1      1182 9.64290E-05-2.89388E-05-2.89444E-05-4.12984E-09 1.16019E-19-7.33192E-18
 -1      1183 9.59431E-05-2.87910E-05-2.87947E-05-8.96288E-10 2.73523E-19-5.15342E-18
 -1      1184 9.56059E-05-2.86881E-05-2.86904E-05 1.08559E-09 2.48339E-19-3.67040E-18
 -1      1185 9.53799E-05-2.86188E-05-2.86202E-05 2.19932E-09 2.18996E-19-5.55026E-18
 -1      1186 9.52358E-05-2.85744E-05-2.85751E-05 2.72839E-09 6.71221E-20-4.04028E-18
 -1      1187 9.51503E-05-2.85478E-05-2.85481E-05 2.87878E-09 9.11429E-21-3.35097E-18
 -1      1188 9.51062E-05-2.85338E-05-2.85338E-05 2.79780E-09 1.05633E-19-1.44861E-18
 -1      1189 9.50901E-05-2.85284E-05-2.85283E-05 2.58890E-09-5.17069E-20-9.00330E-19
 -1      1190 9.50926E-05-2.85287E-05-2.85285E-05 2.32299E-09-3.97239E-19-2.88919E-18
 -1      1191 9.51067E-05-2.85326E-05-2.85324E-05 2.04686E-09-3.54724E-20-3.60396E-18
 -1      1192 9.51275E-05-2.85386E-05-2.85384E-05 1.78903E-09-3.10266E-20-2.91007E-18
 -1      1193 9.51515E-05-2.85456E-05-2.85454E-05 1.56274E-09 2.70732E-20-2.46330E-18
 -1      1194 9.51763E-05-2.85529E-05-2.85527E-05 1.36489E-09 3.88148E-19 4.48276E-19
 -1      1195 9.51997E-05-2.85599E-05-2.85595E-05 1.16596E-09 1.96813E-19-1.86738E-18
 -1      1196 9.52197E-05-2.85658E-05-2.85653E-05 8.66247E-10 1.91449E-19 6.19503E-19
 -1      1197 9.52333E-05-2.85697E-05-2.85693E-05 2.57456E-10 1.63409E-19-2.54379E-18
 -1      1198 9.52379E-05-2.85714E-05-2.85716E-05-3.20176E-10 5.52321E-19-1.50679E-18
 -1      1199 1.30901E-04-3.75752E-05-3.89729E-05 1.19081E-05-2.63957E-19 2.02115E-17
 -1      1200 9.91548E-05-2.89846E-05-3.21084E-05 7.22264E-07 7.91976E-20 1.70123E-17
 -1      1201 9.48818E-05-2.83050E-05-2.92146E-05 9.59490E-08 1.13933E-19 1.35544E-17
 -1      1202 9.46749E-05-2.84186E-05-2.85955E-05 1.09989E-09 9.54169E-20 1.09452E-17
 -1      1203 9.62758E-05-2.89231E-05-2.89484E-05-3.45316E-08 3.27084E-20 9.46557E-18
 -1      1204 9.89099E-05-2.97014E-05-2.97148E-05-5.81518E-08 9.20768E-20 8.36053E-18
 -1      1205 1.02171E-04-3.06616E-05-3.06783E-05-8.60289E-08-4.60491E-20 7.96084E-18
 -1      1206 1.05722E-04-3.17065E-05-3.17133E-05-1.21607E-07-7.00012E-20 7.53449E-18
 -1      1207 1.09138E-04-3.27095E-05-3.26844E-05-1.60803E-07 2.64623E-20 6.24036E-18
 -1      1208 1.11824E-04-3.34953E-05-3.34108E-05-1.89827E-07-2.12552E-20 6.55846E-18
 -1      1209 1.12997E-04-3.38382E-05-3.36693E-05-1.82388E-07 2.98711E-20 6.35017E-18
 -1      1210 1.11817E-04-3.34976E-05-3.32423E-05-1.04298E-07 6.27003E-20 5.95300E-18
 -1      1211 1.07724E-04-3.23123E-05-3.20210E-05 6.52434E-08 3.90760E-20 5.80398E-18
 -1      1212 1.00986E-04-3.03487E-05-3.01375E-05 2.97366E-07-1.49627E-19 5.86570E-18
 -1      1213 9.31370E-05-2.80320E-05-2.80434E-05 4.93345E-07 2.84242E-19 4.09519E-18
 -1      1214 8.68001E-05-2.61152E-05-2.64187E-05 5.25501E-07-3.56614E-20 3.34504E-18
 -1      1215 8.45714E-05-2.53856E-05-2.58846E-05 3.37651E-07-3.04952E-19 4.63617E-18
 -1      1216 8.75090E-05-2.62089E-05-2.66763E-05 1.01185E-08 1.19253E-19 4.47403E-18
 -1      1217 9.44419E-05-2.82727E-05-2.85082E-05-2.91281E-07 1.46471E-19 1.50994E-18
 -1      1218 1.02728E-04-3.07817E-05-3.07385E-05-4.40126E-07 3.23469E-20 1.74923E-18
 -1      1219 1.09791E-04-3.29313E-05-3.27072E-05-4.22831E-07-1.62227E-20 2.68742E-18
 -1      1220 1.14202E-04-3.42730E-05-3.40024E-05-3.06465E-07-5.41175E-20 2.70542E-18
 -1      1221 1.15786E-04-3.47519E-05-3.45273E-05-1.67842E-07 1.50563E-19 1.25786E-18
 -1      1222 1.15139E-04-3.45536E-05-3.44089E-05-5.39348E-08 9.41001E-21 5.52709E-19
 -1      1223 1.13096E-04-3.39353E-05-3.38644E-05 2.03511E-08 1.35110E-19 1.23046E-18
 -1      1224 1.10400E-04-3.31224E-05-3.31035E-05 5.91884E-08-4.63575E-20 3.81207E-18
 -1      1225 1.07574E-04-3.22729E-05-3.22842E-05 7.31848E-08 1.33423E-20 3.71270E-18
 -1      1226 1.04933E-04-3.14803E-05-3.15057E-05 7.24729E-08 2.96508E-19 2.07589E-18
 -1      1227 1.02632E-04-3.07902E-05-3.08198E-05 6.44234E-08-1.18249E-19 2.20103E-18
 -1      1228 1.00720E-04-3.02172E-05-3.02456E-05 5.36433E-08 2.26590E-20 1.98368E-18
 -1      1229 9.91886E-05-2.97581E-05-2.97828E-05 4.26883E-08 2.94602E-19 9.35823E-19
 -1      1230 9.79971E-05-2.94008E-05-2.94213E-05 3.27988E-08-2.04252E-20 1.71023E-18
 -1      1231 9.70941E-05-2.91300E-05-2.91462E-05 2.44501E-08-1.35549E-19 3.58235E-18
 -1      1232 9.64269E-05-2.89298E-05-2.89423E-05 1.77081E-08-1.96959E-19 4.26899E-18
 -1      1233 9.59467E-05-2.87856E-05-2.87949E-05 1.24411E-08-4.91771E-20 2.59402E-18
 -1      1234 9.56112E-05-2.86848E-05-2.86916E-05 8.43781E-09-1.85582E-19 1.09562E-18
 -1      1235 9.53852E-05-2.86167E-05-2.86216E-05 5.47043E-09 1.27646E-19-1.49928E-18
 -1      1236 9.52402E-05-2.85730E-05-2.85764E-05 3.32517E-09-1.12848E-19-6.00589E-19
 -1      1237 9.51538E-05-2.85469E-05-2.85492E-05 1.81539E-09 3.59042E-19-1.00287E-18
 -1      1238 9.51087E-05-2.85333E-05-2.85347E-05 7.84769E-10 6.69060E-21-1.25016E-18
 -1      1239 9.50919E-05-2.85281E-05-2.85290E-05 1.05967E-10-3.70170E-19-8.21924E-19
 -1      1240 9.50938E-05-2.85285E-05-2.85290E-05-3.22814E-10-5.20933E-21-1.05776E-18
 -1      1241 9.51075E-05-2.85325E-05-2.85328E-05-5.81957E-10 4.15377E-19-2.61145E-18
 -1      1242 9.51280E-05-2.85386E-05-2.85387E-05-7.34581E-10 5.36911E-20-1.55850E-18
 -1      1243 9.51518E-05-2.85457E-05-2.85456E-05-8.29905E-10-2.45030E-19 5.49388E-19
 -1      1244 9.51765E-05-2.85530E-05-2.85529E-05-9.04229E-10 3.20213E-19-2.21886E-18
 -1      1245 9.51998E-05-2.85599E-05-2.85597E-05-9.76401E-10 2.35637E-19-7.45709E-18
 -1      1246 9.52197E-05-2.85658E-05-2.85654E-05-1.00889E-09 1.22805E-19-8.43629E-18
 -1      1247 9.52334E-05-2.85699E-05-2.85693E-05-7.68867E-10 4.68871E-19-1.00083E-17
 -1      1248 9.52378E-05-2.85714E-05-2.85715E-05 2.65038E-10 1.42879E-19-5.88117E-18
 -1      1249 9.52368E-05-2.85704E-05-2.85715E-05 2.02049E-10-6.15559E-18-9.61815E-19
 -1      1250 9.52385E-05-2.85752E-05-2.85693E-05-2.19892E-10-5.08280E-18-3.84137E-19
 -1      1251 9.52423E-05-2.85880E-05-2.85657E-05-8.37275E-10-1.12977E-18-5.22053E-20
 -1      1252 9.52473E-05-2.86051E-05-2.85609E-05-9.45055E-10-2.02528E-18-6.50306E-19
 -1      1253 9.52525E-05-2.86226E-05-2.85559E-05-8.44440E-10 4.90452E-20 1.03268E-18
 -1      1254 9.52570E-05-2.86379E-05-2.85515E-05-6.53763E-10-2.15034E-18 3.87856E-19
 -1      1255 9.52605E-05-2.86496E-05-2.85480E-05-4.49075E-10-4.25694E-18 2.86519E-19
 -1      1256 9.52627E-05-2.86570E-05-2.85458E-05-2.24246E-10-5.80833E-18-6.53304E-19
 -1      1257 9.52635E-05-2.86595E-05-2.85451E-05 7.49982E-13-5.35729E-18-3.74562E-19
 -1      1258 9.52627E-05-2.86570E-05-2.85458E-05 2.26177E-10-3.05696E-18-2.20392E-19
 -1      1259 9.52605E-05-2.86495E-05-2.85480E-05 4.51654E-10-2.95367E-18-6.14055E-19
 -1      1260 9.52570E-05-2.86377E-05-2.85515E-05 6.68829E-10-4.50497E-18 5.94786E-19
 -1      1261 9.52524E-05-2.86224E-05-2.85560E-05 8.49037E-10-3.14967E-18 3.19121E-19
 -1      1262 9.52472E-05-2.86048E-05-2.85610E-05 9.61636E-10-1.21140E-18-2.80165E-19
 -1      1263 9.52422E-05-2.85876E-05-2.85657E-05 9.96479E-10 4.63909E-19 8.81720E-19
 -1      1264 9.52387E-05-2.85753E-05-2.85693E-05 1.29021E-10 2.26774E-18-2.25871E-19
 -1      1265 9.52368E-05-2.85704E-05-2.85716E-05-1.85908E-10 1.85039E-18 1.01232E-19
 -1      1266 3.46786E-05-1.07439E-04 1.81726E-05-1.40972E-05 1.49133E-17 2.31399E-18
 -1      1267 1.66739E-05-6.30936E-05 9.32700E-06-2.36979E-05 2.12080E-17 7.53478E-18
 -1      1268 8.36816E-06-6.45313E-06-7.16925E-06 2.84516E-06 2.11809E-17 1.30426E-17
 -1      1269 3.82702E-05 2.49947E-05-2.74297E-05 5.70477E-05 1.59005E-17 1.51094E-17
 -1      1270 1.14760E-04 1.00930E-05-4.78890E-05 1.02345E-04 9.57825E-18 1.37931E-17
 -1      1271 2.13811E-04-3.73139E-05-6.48952E-05 1.06989E-04 3.51773E-18 7.51996E-18
 -1      1272 2.91777E-04-8.27448E-05-7.55634E-05 5.51050E-05 5.98111E-19-1.50687E-18
 -1      1273 3.07401E-04-9.22038E-05-7.75012E-05-2.60910E-05 1.35607E-18-1.25763E-17
 -1      1274 2.53062E-04-5.93002E-05-7.06006E-05-9.20733E-05 5.90022E-18-1.95783E-17
 -1      1275 1.57950E-04-8.10072E-06-5.61687E-05-1.12259E-04 1.25412E-17-2.33798E-17
 -1      1276 6.65937E-05 2.44490E-05-3.66781E-05-8.07866E-05 1.80655E-17-2.17315E-17
 -1      1277 1.52698E-05 1.39358E-05-1.60643E-05-2.55346E-05 1.83332E-17-1.44716E-17
 -1      1278 9.14361E-06-3.36681E-05 1.80651E-06 1.63729E-05 1.39828E-17-7.38020E-18
 -1      1279 2.54179E-05-8.71868E-05 1.44587E-05 2.38369E-05 5.79963E-18-2.05840E-18
 -1      1280 3.76341E-05-1.14603E-04 1.94752E-05 2.92085E-06-5.56225E-18-8.00658E-19
 -1      1281 2.93566E-05-9.56688E-05 1.59482E-05-2.24143E-05-1.55329E-17-3.72091E-18
 -1      1282 1.10016E-05-4.31853E-05 4.39060E-06-2.10173E-05-2.10225E-17-9.31821E-18
 -1      1283 1.23633E-05 7.38542E-06-1.28917E-05 1.67352E-05-2.12114E-17-1.54067E-17
 -1      1284 5.61589E-05 2.44491E-05-3.31808E-05 7.12099E-05-1.84662E-17-2.00510E-17
 -1      1285 1.43482E-04-7.14333E-07-5.35470E-05 1.10287E-04-1.17500E-17-1.90040E-17
 -1      1286 2.48427E-04-5.59215E-05-6.99899E-05 9.49072E-05-3.62615E-18-9.51472E-18
 -1      1287 3.09558E-04-9.27723E-05-7.78240E-05 2.77380E-05-3.07446E-19 2.92269E-18
 -1      1288 2.93657E-04-8.28609E-05-7.59615E-05-5.43547E-05-2.70659E-18 1.30142E-17
 -1      1289 2.12884E-04-3.67207E-05-6.47062E-05-1.07089E-04-9.16532E-18 2.19102E-17
 -1      1290 1.09918E-04 1.14955E-05-4.69053E-05-1.01353E-04-1.61182E-17 2.41709E-17
 -1      1291 3.44249E-05 2.30171E-05-2.56227E-05-5.16099E-05-1.82536E-17 1.82536E-17
 -1      1292 7.85561E-06-1.13341E-05-5.40562E-06 1.94667E-06-1.45842E-17 9.93316E-18
 -1      1293 1.74554E-05-6.62472E-05 1.00721E-05 2.45443E-05-5.46590E-18 3.09675E-18
 -1      1294 3.48990E-05-1.08304E-04 1.83392E-05 1.40489E-05 5.73865E-18 4.47657E-19
 -1      1295 1.05996E-04-2.24115E-05-3.83384E-05-1.61494E-05-5.01126E-19 7.05388E-18
 -1      1296 9.24820E-05-7.22492E-06-3.66800E-05-1.80233E-05-1.31491E-18-1.38421E-18
 -1      1297 9.48583E-05-7.37932E-06-3.78210E-05-2.35508E-05-1.71831E-18 4.61209E-19
 -1      1298 8.75809E-05-4.40602E-06-3.57068E-05-1.35048E-05-1.20210E-18-3.92314E-18
 -1      1299 8.91191E-05-4.43125E-06-3.62441E-05-1.61081E-05-1.39549E-18-2.85387E-18
 -1      1300 9.44324E-05-1.11517E-05-3.57599E-05-1.63418E-05-2.25570E-18-1.19818E-18
 -1      1301 8.48706E-05-3.21175E-06-3.50190E-05-9.76322E-06-8.65456E-19-5.09527E-18
 -1      1302 8.59178E-05-3.20527E-06-3.53814E-05-1.15961E-05-1.01596E-18-4.58525E-18
 -1      1303 8.93921E-05-7.64179E-06-3.51069E-05-1.24075E-05-1.82170E-18-3.25721E-18
 -1      1304 8.29320E-05-2.46849E-06-3.44939E-05-6.84207E-06-5.40328E-19-5.61278E-18
 -1      1305 8.37190E-05-2.46822E-06-3.47640E-05-8.24711E-06-6.51262E-19-5.39804E-18
 -1      1306 8.62744E-05-5.72524E-06-3.45826E-05-8.95577E-06-1.27653E-18-4.28315E-18
 -1      1307 8.14905E-05-1.95348E-06-3.40922E-05-4.57145E-06-2.59166E-19-5.74010E-18
 -1      1308 8.20801E-05-1.95754E-06-3.42932E-05-5.66458E-06-3.64568E-19-5.67725E-18
 -1      1309 8.40562E-05-4.47971E-06-3.41549E-05-6.24590E-06-7.73970E-19-4.68659E-18
 -1      1310 8.04569E-05-1.59606E-06-3.38001E-05-2.70307E-06-2.88653E-20-5.71115E-18
 -1      1311 8.08653E-05-1.60083E-06-3.39396E-05-3.61164E-06-8.76944E-20-5.75100E-18
 -1      1312 8.24240E-05-3.61860E-06-3.38173E-05-4.09056E-06-2.98060E-19-4.84508E-18
 -1      1313 7.98778E-05-1.38930E-06-3.36359E-05-1.11244E-06 2.35664E-19-5.54392E-18
 -1      1314 8.00808E-05-1.39200E-06-3.37058E-05-1.90300E-06 1.48985E-19-5.62426E-18
 -1      1315 8.13239E-05-3.06436E-06-3.35798E-05-2.30786E-06 6.89389E-20-4.74311E-18
 -1      1316 7.97719E-05-1.33026E-06-3.36082E-05 3.67992E-07 4.47882E-19-5.31679E-18
 -1      1317 7.97613E-05-1.33012E-06-3.36054E-05-3.88306E-07 3.79338E-19-5.46252E-18
 -1      1318 8.07844E-05-2.80273E-06-3.34592E-05-7.54687E-07 5.13160E-19-4.62619E-18
 -1      1319 8.01387E-05-1.41668E-06-3.37178E-05 1.90447E-06 6.90094E-19-5.01357E-18
 -1      1320 7.99173E-05-1.41373E-06-3.36431E-05 1.09969E-06 6.11250E-19-5.18788E-18
 -1      1321 8.08172E-05-2.82636E-06-3.34634E-05 7.32204E-07 8.67110E-19-4.40830E-18
 -1      1322 8.09562E-05-1.64659E-06-3.39569E-05 3.66039E-06 9.18687E-19-4.67078E-18
 -1      1323 8.05370E-05-1.64083E-06-3.38149E-05 2.72557E-06 8.34777E-19-4.89852E-18
 -1      1324 8.14145E-05-3.13098E-06-3.35908E-05 2.31432E-06 1.26261E-18-4.13261E-18
 -1      1325 8.21690E-05-2.01036E-06-3.43070E-05 5.75615E-06 1.11692E-18-4.08712E-18
 -1      1326 8.15799E-05-2.00711E-06-3.41068E-05 4.63253E-06 1.05198E-18-4.44114E-18
 -1      1327 8.25410E-05-3.71134E-06-3.38285E-05 4.13165E-06 1.61138E-18-3.75757E-18
 -1      1328 8.38174E-05-2.53494E-06-3.47760E-05 8.43144E-06 1.41558E-18-3.13901E-18
 -1      1329 8.30345E-05-2.53534E-06-3.45081E-05 6.98808E-06 1.28055E-18-3.69654E-18
 -1      1330 8.41834E-05-4.59086E-06-3.41626E-05 6.35051E-06 1.95009E-18-3.07899E-18
 -1      1331 8.59944E-05-3.27197E-06-3.53874E-05 1.18641E-05 1.67596E-18-1.64179E-18
 -1      1332 8.49624E-05-3.28582E-06-3.50274E-05 9.99121E-06 1.53445E-18-2.54426E-18
 -1      1333 8.64190E-05-5.86439E-06-3.45863E-05 9.15587E-06 2.38166E-18-2.07526E-18
 -1      1334 8.91966E-05-4.44160E-06-3.62552E-05 1.64153E-05 1.80259E-18 9.61144E-19
 -1      1335 8.76435E-05-4.47006E-06-3.57084E-05 1.38290E-05 1.64017E-18-5.93452E-19
 -1      1336 8.95318E-05-7.79589E-06-3.51032E-05 1.27092E-05 2.66052E-18-3.97232E-19
 -1      1337 9.55371E-05-7.39378E-06-3.77008E-05 2.30343E-05 1.44589E-18 5.59095E-18
 -1      1338 9.22774E-05-6.98811E-06-3.66904E-05 1.87517E-05 1.45150E-18 2.76683E-18
 -1      1339 9.46273E-05-1.13796E-05-3.57328E-05 1.70436E-05 2.61786E-18 2.42659E-18
 -1      1340 1.24406E-04-2.52464E-05-3.93782E-05 2.71149E-05 6.02240E-19 1.38958E-17
 -1      1341 1.01955E-04-1.50039E-05-3.78752E-05 2.23875E-05 6.74344E-19 8.22215E-18
 -1      1342 1.04043E-04-2.01753E-05-3.60288E-05 1.92549E-05 2.25087E-18 6.59690E-18
 -1      1343 1.04591E-04-2.84873E-05-3.52915E-05 6.31599E-06 1.11557E-18 1.35309E-17
 -1      1344 1.07495E-04-3.09947E-05-3.41882E-05-6.80590E-06-1.46918E-18 7.61948E-18
 -1      1345 1.01574E-04-2.89043E-05-3.16972E-05-4.00102E-06-1.36277E-18 5.82425E-18
 -1      1346 9.94136E-05-2.90280E-05-3.04133E-05-1.50231E-06-1.11390E-18 5.18627E-18
 -1      1347 9.81222E-05-2.90094E-05-2.96607E-05-1.06667E-06-1.04376E-18 3.57911E-18
 -1      1348 1.02975E-04-2.91545E-05-3.20023E-05-5.96810E-06-2.37349E-18 2.68353E-18
 -1      1349 9.71830E-05-2.88526E-05-2.92704E-05 2.05439E-07-8.40899E-19 3.09469E-18
 -1      1350 9.74674E-05-2.90513E-05-2.92707E-05 3.42445E-07-6.98213E-19 2.03944E-18
 -1      1351 9.95459E-05-2.91954E-05-3.02817E-05-1.13413E-06-1.75333E-18 1.70419E-18
 -1      1352 9.75794E-05-2.91106E-05-2.92996E-05 1.03152E-06-5.01046E-19 1.54899E-18
 -1      1353 9.86607E-05-2.94852E-05-2.96078E-05 1.13001E-06-5.35795E-19 7.88164E-19
 -1      1354 9.89090E-05-2.93430E-05-2.98550E-05 1.17936E-06-1.24392E-18 7.78728E-19
 -1      1355 9.93993E-05-2.97053E-05-2.98436E-05 1.56749E-06-4.35919E-19 5.30057E-19
 -1      1356 1.00962E-04-3.02106E-05-3.03021E-05 1.64120E-06-3.76513E-19-3.66474E-20
 -1      1357 9.97638E-05-2.97211E-05-3.00445E-05 2.53124E-06-9.03447E-19 8.02696E-20
 -1      1358 1.02102E-04-3.05490E-05-3.06568E-05 1.92694E-06-3.12891E-19-1.28378E-19
 -1      1359 1.03973E-04-3.11498E-05-3.12018E-05 1.97652E-06-1.70105E-19-5.17881E-19
 -1      1360 1.01603E-04-3.03422E-05-3.05622E-05 3.41130E-06-6.67171E-19-1.65079E-19
 -1      1361 1.05351E-04-3.15679E-05-3.16210E-05 2.10924E-06-2.44459E-19-7.22599E-19
 -1      1362 1.07354E-04-3.22187E-05-3.21985E-05 2.12331E-06-3.33511E-19-1.16099E-18
 -1      1363 1.04078E-04-3.11622E-05-3.12643E-05 3.92956E-06-5.27243E-19-5.06817E-19
 -1      1364 1.08802E-04-3.26755E-05-3.26270E-05 2.04432E-06-1.27181E-19-1.12379E-18
 -1      1365 1.10685E-04-3.33043E-05-3.31617E-05 1.99999E-06-2.29538E-19-1.48329E-18
 -1      1366 1.06882E-04-3.21215E-05-3.20422E-05 4.01631E-06-4.78940E-19-6.80617E-19
 -1      1367 1.11993E-04-3.37447E-05-3.35292E-05 1.61296E-06-3.87034E-19-1.39357E-18
 -1      1368 1.13383E-04-3.42359E-05-3.39124E-05 1.47875E-06-5.37419E-19-2.11689E-18
 -1      1369 1.09657E-04-3.31352E-05-3.27769E-05 3.48746E-06-4.58960E-19-5.57182E-19
 -1      1370 1.14274E-04-3.45793E-05-3.41328E-05 6.87917E-07-5.23678E-19-2.13489E-18
 -1      1371 1.14684E-04-3.47674E-05-3.42284E-05 4.36296E-07-2.07159E-19-2.64131E-18
 -1      1372 1.11934E-04-3.40618E-05-3.33266E-05 2.10906E-06-7.16782E-19-3.42502E-19
 -1      1373 1.14840E-04-3.49017E-05-3.42144E-05-7.70029E-07 1.37014E-19-3.07912E-18
 -1      1374 1.13777E-04-3.45972E-05-3.38962E-05-1.13289E-06-2.42291E-19-3.09220E-18
 -1      1375 1.13121E-04-3.46704E-05-3.35406E-05-2.62953E-07-4.74802E-19-8.35854E-19
 -1      1376 1.12931E-04-3.43950E-05-3.35959E-05-2.55376E-06-4.05974E-19-3.40772E-18
 -1      1377 1.10162E-04-3.34718E-05-3.28237E-05-2.94338E-06-4.83887E-19-4.01081E-18
 -1      1378 1.12600E-04-3.46412E-05-3.33054E-05-3.43056E-06-6.58714E-19-2.04423E-18
 -1      1379 1.08279E-04-3.28567E-05-3.22714E-05-4.06930E-06-1.87664E-19-4.29133E-18
 -1      1380 1.04195E-04-3.14039E-05-3.11769E-05-4.30235E-06-2.89282E-19-4.57461E-18
 -1      1381 1.10000E-04-3.36687E-05-3.26176E-05-6.56631E-06-6.57582E-19-2.37159E-18
 -1      1382 1.01702E-04-3.04769E-05-3.05226E-05-4.43512E-06-3.28940E-19-5.03598E-18
 -1      1383 9.75175E-05-2.89194E-05-2.94357E-05-4.30275E-06-6.36423E-19-5.55664E-18
 -1      1384 1.05640E-04-3.17448E-05-3.16441E-05-8.19590E-06-6.60902E-19-2.60870E-18
 -1      1385 9.53561E-05-2.80496E-05-2.89133E-05-3.01638E-06-9.58153E-19-5.35272E-18
 -1      1386 9.27551E-05-2.70515E-05-2.82534E-05-2.47119E-06-7.10105E-19-6.27937E-18
 -1      1387 1.00890E-04-2.94613E-05-3.07043E-05-6.87135E-06-1.06124E-18-3.26114E-18
 -1      1388 9.19830E-05-2.67226E-05-2.80786E-05-1.30402E-07-4.08932E-19-6.74912E-18
 -1      1389 9.21995E-05-2.67980E-05-2.81374E-05 5.90357E-07-4.29406E-19-6.99594E-18
 -1      1390 9.78520E-05-2.79242E-05-3.01556E-05-2.43866E-06-9.24298E-19-3.74476E-18
 -1      1391 9.32677E-05-2.72288E-05-2.83937E-05 2.88432E-06-3.00300E-19-7.43428E-18
 -1      1392 9.62476E-05-2.83542E-05-2.91589E-05 3.40317E-06 6.76700E-20-7.21905E-18
 -1      1393 9.81492E-05-2.80406E-05-3.02283E-05 3.27652E-06-4.82518E-19-5.12838E-18
 -1      1394 9.86381E-05-2.92930E-05-2.97510E-05 4.58611E-06 1.51268E-19-7.47856E-18
 -1      1395 1.03081E-04-3.09273E-05-3.09146E-05 4.68693E-06-8.43145E-20-7.42896E-18
 -1      1396 1.01708E-04-2.97687E-05-3.09137E-05 7.51787E-06 4.90617E-20-5.97616E-18
 -1      1397 1.05723E-04-3.18875E-05-3.16219E-05 4.46619E-06-1.83505E-19-7.36739E-18
 -1      1398 1.09959E-04-3.33769E-05-3.27664E-05 4.21676E-06-8.61790E-20-7.57120E-18
 -1      1399 1.06823E-04-3.21534E-05-3.19686E-05 8.60341E-06-9.46262E-20-6.16539E-18
 -1      1400 1.11949E-04-3.40114E-05-3.33594E-05 3.06140E-06 2.96309E-19-7.67163E-18
 -1      1401 1.14834E-04-3.49601E-05-3.41705E-05 2.67375E-06 2.08284E-19-7.14785E-18
 -1      1402 1.11419E-04-3.41135E-05-3.30340E-05 6.83284E-06 5.34028E-20-5.94743E-18
 -1      1403 1.15789E-04-3.51869E-05-3.45086E-05 1.27802E-06 2.80825E-19-6.41286E-18
 -1      1404 1.16997E-04-3.55311E-05-3.48716E-05 9.28634E-07 5.00709E-19-5.93769E-18
 -1      1405 1.14219E-04-3.51108E-05-3.38001E-05 3.69631E-06 6.00507E-19-5.82041E-18
 -1      1406 1.16978E-04-3.54348E-05-3.49292E-05-2.25428E-07 4.32119E-19-5.84624E-18
 -1      1407 1.16778E-04-3.53114E-05-3.48953E-05-4.60852E-07 2.57127E-19-5.51347E-18
 -1      1408 1.14974E-04-3.51926E-05-3.41146E-05 6.24972E-07 4.75920E-19-4.55000E-18
 -1      1409 1.16057E-04-3.50180E-05-3.47271E-05-1.19918E-06 5.22136E-19-4.53951E-18
 -1      1410 1.14945E-04-3.46161E-05-3.44243E-05-1.31987E-06 4.90313E-19-4.06230E-18
 -1      1411 1.14084E-04-3.46712E-05-3.39900E-05-1.62105E-06 9.95542E-19-3.27806E-18
 -1      1412 1.13824E-04-3.42316E-05-3.41147E-05-1.67259E-06 5.74067E-19-3.29986E-18
 -1      1413 1.12270E-04-3.37103E-05-3.36743E-05-1.70896E-06 7.12209E-19-2.51910E-18
 -1      1414 1.12154E-04-3.38572E-05-3.35389E-05-2.89756E-06 9.98685E-19-1.44426E-18
 -1      1415 1.10997E-04-3.33060E-05-3.33015E-05-1.78509E-06 3.87175E-19-2.62947E-18
 -1      1416 1.09339E-04-3.27707E-05-3.28233E-05-1.77059E-06 2.44934E-19-2.06978E-18
 -1      1417 1.09731E-04-3.29638E-05-3.29008E-05-3.38575E-06 6.78300E-19-1.70365E-18
 -1      1418 1.08082E-04-3.23886E-05-3.24442E-05-1.68161E-06-1.94520E-19-2.13320E-18
 -1      1419 1.06524E-04-3.18976E-05-3.19899E-05-1.64185E-06-1.99642E-19-3.19603E-18
 -1      1420 1.07210E-04-3.21106E-05-3.21959E-05-3.35329E-06-3.01180E-19-1.69054E-18
 -1      1421 1.05379E-04-3.15586E-05-3.16391E-05-1.47228E-06-5.07563E-19-3.27847E-18
 -1      1422 1.04019E-04-3.11374E-05-3.12399E-05-1.42361E-06-1.03946E-18-4.49639E-18
 -1      1423 1.04838E-04-3.13531E-05-3.15080E-05-3.03350E-06-1.18379E-18-2.08374E-18
 -1      1424 1.03030E-04-3.08496E-05-3.09344E-05-1.22792E-06-2.93401E-20-4.80696E-18
 -1      1425 1.01900E-04-3.05042E-05-3.06011E-05-1.17953E-06 3.45730E-19-4.73561E-18
 -1      1426 1.02742E-04-3.07107E-05-3.08858E-05-2.59036E-06-6.59964E-19-2.52217E-18
 -1      1427 1.01078E-04-3.02675E-05-3.03462E-05-9.88656E-07-7.80528E-21-4.70366E-18
 -1      1428 1.00172E-04-2.99935E-05-3.00781E-05-9.45026E-07 1.98973E-19-4.05815E-18
 -1      1429 1.00969E-04-3.01830E-05-3.03513E-05-2.12418E-06 1.01536E-19-3.12327E-18
 -1      1430 9.95097E-05-2.98040E-05-2.98720E-05-7.74173E-07 4.88343E-20-4.34117E-18
 -1      1431 9.88037E-05-2.95922E-05-2.96625E-05-7.37025E-07-1.28737E-19-4.17212E-18
 -1      1432 9.95183E-05-2.97602E-05-2.99090E-05-1.68899E-06 1.38341E-19-3.64632E-18
 -1      1433 9.82827E-05-2.94439E-05-2.95002E-05-5.91926E-07-1.37945E-19-3.97787E-18
 -1      1434 9.77457E-05-2.92841E-05-2.93404E-05-5.61479E-07 3.56780E-20-4.24656E-18
 -1      1435 9.83624E-05-2.94286E-05-2.95537E-05-1.30920E-06-4.26622E-19-2.73106E-18
 -1      1436 9.73450E-05-2.91704E-05-2.92156E-05-4.42628E-07-2.70933E-19-4.72790E-18
 -1      1437 9.69457E-05-2.90524E-05-2.90965E-05-4.18365E-07-6.39107E-19-5.39725E-18
 -1      1438 9.74623E-05-2.91738E-05-2.92753E-05-9.91972E-07-4.70709E-19-2.05878E-18
 -1      1439 9.66439E-05-2.89670E-05-2.90025E-05-3.23643E-07-2.50919E-19-5.62060E-18
 -1      1440 9.63538E-05-2.88820E-05-2.89157E-05-3.04744E-07 5.86071E-19-5.54713E-18
 -1      1441 9.67761E-05-2.89816E-05-2.90618E-05-7.35225E-07-6.31184E-19-3.44668E-18
 -1      1442 9.61314E-05-2.88192E-05-2.88464E-05-2.30936E-07 9.24567E-19-5.19013E-18
 -1      1443 9.59259E-05-2.87595E-05-2.87848E-05-2.16510E-07 6.53556E-19-4.00637E-18
 -1      1444 9.62637E-05-2.88396E-05-2.89016E-05-5.32532E-07 6.68315E-19-3.79490E-18
 -1      1445 9.57657E-05-2.87143E-05-2.87349E-05-1.60144E-07 8.10571E-20-3.66674E-18
 -1      1446 9.56245E-05-2.86738E-05-2.86924E-05-1.49342E-07-6.59081E-20-3.67846E-18
 -1      1447 9.58895E-05-2.87370E-05-2.87839E-05-3.75878E-07 7.51372E-19-3.41988E-18
 -1      1448 9.55122E-05-2.86422E-05-2.86574E-05-1.07122E-07-1.53590E-19-3.76540E-18
 -1      1449 9.54189E-05-2.86158E-05-2.86292E-05-9.91909E-08-3.70043E-20-3.31898E-18
 -1      1450 9.56227E-05-2.86647E-05-2.86995E-05-2.57155E-07-9.58206E-21-3.30539E-18
 -1      1451 9.53428E-05-2.85945E-05-2.86055E-05-6.81827E-08 1.99290E-19-4.12897E-18
 -1      1452 9.52845E-05-2.85783E-05-2.85877E-05-6.24822E-08 1.38234E-19-3.97297E-18
 -1      1453 9.54380E-05-2.86153E-05-2.86407E-05-1.68901E-07-5.34374E-19-3.35255E-18
 -1      1454 9.52351E-05-2.85646E-05-2.85724E-05-4.01866E-08 3.48605E-19-3.06220E-18
 -1      1455 9.52017E-05-2.85557E-05-2.85621E-05-3.61861E-08 5.67433E-19-2.47716E-18
 -1      1456 9.53148E-05-2.85830E-05-2.86011E-05-1.04605E-07 4.90176E-19-3.58382E-18
 -1      1457 9.51718E-05-2.85474E-05-2.85528E-05-2.05344E-08 5.40455E-19-2.64069E-18
 -1      1458 9.51558E-05-2.85435E-05-2.85477E-05-1.78055E-08-2.91466E-19-2.37041E-18
 -1      1459 9.52368E-05-2.85631E-05-2.85757E-05-5.87874E-08 5.04526E-19-2.57189E-18
 -1      1460 9.51397E-05-2.85391E-05-2.85427E-05-7.12710E-09-1.18741E-19-2.33838E-18
 -1      1461 9.51354E-05-2.85385E-05-2.85412E-05-5.33116E-09-2.63043E-19-2.21069E-18
 -1      1462 9.51914E-05-2.85521E-05-2.85605E-05-2.69590E-08-1.42976E-20-2.86669E-18
 -1      1463 9.51288E-05-2.85368E-05-2.85391E-05 1.69246E-09-5.31396E-19-1.87464E-18
 -1      1464 9.51322E-05-2.85384E-05-2.85399E-05 2.81743E-09-5.25241E-19-2.83280E-18
 -1      1465 9.51688E-05-2.85472E-05-2.85527E-05-5.52916E-09-6.60246E-19-2.40447E-18
 -1      1466 9.51320E-05-2.85385E-05-2.85399E-05 7.20004E-09 6.13002E-19-2.41126E-18
 -1      1467 9.51400E-05-2.85413E-05-2.85421E-05 7.85084E-09 5.87639E-19-1.99443E-18
 -1      1468 9.51618E-05-2.85465E-05-2.85498E-05 8.30633E-09 3.61353E-19-1.27051E-18
 -1      1469 9.51438E-05-2.85425E-05-2.85433E-05 1.03452E-08-5.08674E-19 7.76505E-20
 -1      1470 9.51544E-05-2.85461E-05-2.85463E-05 1.06632E-08 5.66243E-19-1.96921E-21
 -1      1471 9.51651E-05-2.85484E-05-2.85502E-05 1.66738E-08 1.30019E-18 1.33291E-18
 -1      1472 9.51605E-05-2.85479E-05-2.85482E-05 1.17958E-08 8.32567E-19-2.89380E-19
 -1      1473 9.51722E-05-2.85517E-05-2.85515E-05 1.18738E-08 7.21942E-19 2.85799E-19
 -1      1474 9.51746E-05-2.85519E-05-2.85527E-05 2.11159E-08 1.01767E-18 2.40459E-18
 -1      1475 9.51794E-05-2.85538E-05-2.85538E-05 1.19692E-08 2.79674E-19 3.01299E-19
 -1      1476 9.51910E-05-2.85576E-05-2.85571E-05 1.18542E-08 1.88676E-20 6.55096E-19
 -1      1477 9.51874E-05-2.85563E-05-2.85562E-05 2.26633E-08 7.81341E-19 2.09501E-18
 -1      1478 9.51983E-05-2.85598E-05-2.85593E-05 1.10451E-08-5.62467E-19 8.16550E-20
 -1      1479 9.52088E-05-2.85632E-05-2.85623E-05 1.07336E-08-7.03494E-19-5.53681E-19
 -1      1480 9.52014E-05-2.85610E-05-2.85602E-05 2.18806E-08-1.00546E-18 6.53618E-19
 -1      1481 9.52152E-05-2.85652E-05-2.85642E-05 8.97479E-09 2.60419E-19-8.73620E-19
 -1      1482 9.52235E-05-2.85679E-05-2.85666E-05 8.39752E-09 1.73681E-20-1.03654E-18
 -1      1483 9.52149E-05-2.85656E-05-2.85639E-05 1.88764E-08-4.58452E-19-7.86743E-19
 -1      1484 9.52286E-05-2.85697E-05-2.85680E-05 5.50382E-09-4.85207E-19-5.00193E-19
 -1      1485 9.52333E-05-2.85712E-05-2.85694E-05 4.66347E-09-1.32880E-19-1.05043E-18
 -1      1486 9.52263E-05-2.85698E-05-2.85669E-05 1.34775E-08-2.69350E-19-2.88953E-19
 -1      1487 9.52369E-05-2.85718E-05-2.85707E-05 2.88567E-10 3.18031E-19-9.79207E-19
 -1      1488 9.52353E-05-2.85730E-05-2.85694E-05 4.74198E-09 5.47472E-19 1.93309E-19
 -1      1489 1.00072E-04-2.94359E-05-3.07854E-05 2.16719E-06 1.11837E-18 1.10691E-17
 -1      1490 1.05048E-04-3.01518E-05-3.29016E-05 3.58271E-06 9.38036E-19 1.26617E-17
 -1      1491 1.05028E-04-2.76634E-05-3.34788E-05 1.11237E-05 1.81969E-18 8.53470E-18
 -1      1492 9.71141E-05-2.89503E-05-2.92793E-05 3.36250E-07 8.36379E-19 8.89480E-18
 -1      1493 9.81686E-05-2.88367E-05-2.99198E-05 6.66717E-07 8.51731E-19 1.02061E-17
 -1      1494 1.00468E-04-2.92535E-05-3.07216E-05 3.30373E-06 1.71871E-18 6.87881E-18
 -1      1495 9.69987E-05-2.90253E-05-2.91122E-05-5.64993E-07 5.01265E-19 7.35304E-18
 -1      1496 9.66729E-05-2.87524E-05-2.90979E-05-3.68843E-07 5.51220E-19 8.20222E-18
 -1      1497 9.84655E-05-2.91849E-05-2.97441E-05 2.13846E-07 1.23180E-18 5.62406E-18
 -1      1498 9.84213E-05-2.94838E-05-2.95249E-05-1.08099E-06 3.53683E-19 6.22863E-18
 -1      1499 9.73961E-05-2.90861E-05-2.92345E-05-9.45227E-07 3.29072E-19 6.81287E-18
 -1      1500 9.85312E-05-2.93745E-05-2.96603E-05-1.31844E-06 8.39741E-19 4.49748E-18
 -1      1501 1.00748E-04-3.01994E-05-3.02232E-05-1.40050E-06 2.49330E-19 5.69910E-18
 -1      1502 9.93126E-05-2.97070E-05-2.98011E-05-1.30084E-06 1.99812E-19 5.94273E-18
 -1      1503 9.98300E-05-2.98375E-05-3.00168E-05-2.21548E-06 4.94575E-19 3.77012E-18
 -1      1504 1.03588E-04-3.10753E-05-3.10669E-05-1.56275E-06 6.74111E-20 5.37427E-18
 -1      1505 1.01927E-04-3.05282E-05-3.05815E-05-1.49765E-06 1.05117E-19 5.52790E-18
 -1      1506 1.01875E-04-3.05057E-05-3.06050E-05-2.73956E-06 2.09080E-19 3.50605E-18
 -1      1507 1.06576E-04-3.20095E-05-3.19413E-05-1.53800E-06 2.88166E-19 4.84299E-18
 -1      1508 1.04879E-04-3.14635E-05-3.14521E-05-1.52070E-06 1.79585E-19 5.09513E-18
 -1      1509 1.04310E-04-3.13027E-05-3.12992E-05-2.92428E-06 3.53977E-19 3.14305E-18
 -1      1510 1.09259E-04-3.28702E-05-3.27094E-05-1.25654E-06-1.45387E-19 4.39163E-18
 -1      1511 1.07781E-04-3.24075E-05-3.22926E-05-1.31161E-06 1.72742E-19 4.59214E-18
 -1      1512 1.06781E-04-3.21391E-05-3.19847E-05-2.69177E-06 4.04157E-19 3.12817E-18
 -1      1513 1.11056E-04-3.34788E-05-3.31985E-05-6.37476E-07 1.02273E-19 4.61069E-18
 -1      1514 1.10138E-04-3.32140E-05-3.29532E-05-7.94611E-07-2.32338E-19 4.41143E-18
 -1      1515 1.08868E-04-3.28950E-05-3.25317E-05-1.90971E-06-9.28229E-20 2.74177E-18
 -1      1516 1.11287E-04-3.36129E-05-3.32187E-05 3.55454E-07 1.73589E-19 4.64717E-18
 -1      1517 1.11328E-04-3.36829E-05-3.32549E-05 7.75256E-08 4.08693E-20 4.62469E-18
 -1      1518 1.10066E-04-3.34042E-05-3.27971E-05-4.67482E-07 3.90562E-20 2.68920E-18
 -1      1519 1.09358E-04-3.30539E-05-3.26230E-05 1.62138E-06 1.22588E-19 4.25274E-18
 -1      1520 1.10700E-04-3.35760E-05-3.30240E-05 1.24410E-06 2.58954E-19 4.71763E-18
 -1      1521 1.09845E-04-3.34571E-05-3.26537E-05 1.59168E-06 2.76550E-19 3.14266E-18
 -1      1522 1.05108E-04-3.17027E-05-3.14049E-05 2.82756E-06 1.90599E-19 4.43734E-18
 -1      1523 1.07814E-04-3.26927E-05-3.21672E-05 2.44416E-06 1.22396E-19 4.36796E-18
 -1      1524 1.07838E-04-3.28502E-05-3.20470E-05 3.89721E-06 1.49316E-19 3.15867E-18
 -1      1525 9.92287E-05-2.97461E-05-2.97920E-05 3.42322E-06 4.48689E-19 3.73743E-18
 -1      1526 1.02835E-04-3.10231E-05-3.07697E-05 3.19675E-06 2.18693E-19 4.10107E-18
 -1      1527 1.04134E-04-3.15138E-05-3.10615E-05 5.65753E-06 4.95938E-19 2.71389E-18
 -1      1528 9.34213E-05-2.77540E-05-2.82502E-05 2.88918E-06 1.53684E-19 2.52612E-18
 -1      1529 9.68707E-05-2.89173E-05-2.91568E-05 2.97745E-06 4.12485E-19 3.25949E-18
 -1      1530 9.95719E-05-2.96941E-05-2.99505E-05 5.86922E-06 7.10489E-19 1.95113E-18
 -1      1531 8.98949E-05-2.65265E-05-2.73308E-05 1.16219E-06-4.51402E-19 2.86300E-18
 -1      1532 9.18750E-05-2.70973E-05-2.78377E-05 1.59213E-06-3.07182E-20 2.34567E-18
 -1      1533 9.56961E-05-2.80222E-05-2.90766E-05 3.92842E-06-6.75641E-20 1.80452E-18
 -1      1534 9.02289E-05-2.66531E-05-2.74074E-05-1.12110E-06-1.72861E-19 3.20823E-18
 -1      1535 8.98620E-05-2.63538E-05-2.73062E-05-5.18677E-07-4.21452E-19 2.67711E-18
 -1      1536 9.41436E-05-2.72820E-05-2.87643E-05 2.88436E-07-3.17081E-19 1.95973E-18
 -1      1537 9.43653E-05-2.80994E-05-2.84737E-05-2.95308E-06 9.76325E-19 1.93039E-18
 -1      1538 9.17632E-05-2.70488E-05-2.77920E-05-2.44559E-06 7.18019E-19 2.88640E-18
 -1      1539 9.56828E-05-2.78936E-05-2.91476E-05-3.55212E-06 6.50296E-19 1.13082E-18
 -1      1540 1.00651E-04-3.02381E-05-3.01445E-05-3.62616E-06-6.89588E-20 4.61633E-19
 -1      1541 9.68407E-05-2.88697E-05-2.91313E-05-3.40013E-06 4.80178E-19 1.36981E-18
 -1      1542 9.96988E-05-2.95764E-05-3.01017E-05-5.97061E-06 1.22466E-18 7.98196E-19
 -1      1543 1.06872E-04-3.22731E-05-3.18704E-05-3.13253E-06 4.03631E-20 1.16938E-18
 -1      1544 1.03164E-04-3.10575E-05-3.08562E-05-3.19385E-06-5.87000E-19 5.84135E-19
 -1      1545 1.04609E-04-3.15650E-05-3.13098E-05-6.24399E-06-4.22193E-19 1.53975E-19
 -1      1546 1.11406E-04-3.36792E-05-3.31977E-05-1.97823E-06-2.62653E-19 1.57707E-18
 -1      1547 1.08734E-04-3.28923E-05-3.24395E-05-2.20845E-06-1.45776E-19 1.56759E-18
 -1      1548 1.08822E-04-3.31369E-05-3.24154E-05-4.79328E-06-4.11115E-19 6.42832E-19
 -1      1549 1.13652E-04-3.43118E-05-3.39130E-05-7.26084E-07 3.13760E-19 1.45235E-18
 -1      1550 1.12340E-04-3.40006E-05-3.35188E-05-9.93398E-07 7.11508E-20 1.59218E-18
 -1      1551 1.11423E-04-3.39750E-05-3.31629E-05-2.59007E-06-8.25195E-21 7.73890E-19
 -1      1552 1.13821E-04-3.42878E-05-3.40322E-05 2.72602E-07 2.06319E-19 3.61279E-19
 -1      1553 1.13718E-04-3.43559E-05-3.39783E-05 5.07891E-08 4.47591E-19 1.21897E-18
 -1      1554 1.12254E-04-3.41190E-05-3.34600E-05-4.87277E-07 6.49469E-19 7.59517E-19
 -1      1555 1.12511E-04-3.38240E-05-3.37016E-05 9.05276E-07-1.21119E-19 3.16407E-19
 -1      1556 1.13251E-04-3.41301E-05-3.38956E-05 7.57481E-07-3.68724E-20 1.88058E-19
 -1      1557 1.11637E-04-3.37731E-05-3.33508E-05 1.06587E-06 2.36673E-19 1.00512E-19
 -1      1558 1.10366E-04-3.31287E-05-3.31013E-05 1.20909E-06-4.48670E-19 1.68683E-18
 -1      1559 1.11567E-04-3.35473E-05-3.34379E-05 1.13016E-06-5.72760E-19 9.16251E-19
 -1      1560 1.10068E-04-3.31564E-05-3.29502E-05 1.97960E-06-5.43921E-19 3.79226E-19
 -1      1561 1.07900E-04-3.23575E-05-3.23860E-05 1.27694E-06-9.23593E-20 2.76718E-18
 -1      1562 1.09266E-04-3.28007E-05-3.27785E-05 1.24884E-06 1.40734E-20 2.65045E-18
 -1      1563 1.08017E-04-3.24360E-05-3.23852E-05 2.36147E-06-5.36114E-19 1.91796E-18
 -1      1564 1.05459E-04-3.16096E-05-3.16645E-05 1.20155E-06 4.51061E-19 2.33246E-18
 -1      1565 1.06796E-04-3.20253E-05-3.20542E-05 1.20558E-06 6.88504E-20 2.83347E-18
 -1      1566 1.05835E-04-3.17182E-05-3.17615E-05 2.37838E-06 5.40811E-21 2.02462E-18
 -1      1567 1.03240E-04-3.09386E-05-3.10013E-05 1.05392E-06 2.02884E-19 1.85663E-18
 -1      1568 1.04442E-04-3.13013E-05-3.13548E-05 1.07544E-06 4.08728E-19 2.28231E-18
 -1      1569 1.03751E-04-3.10617E-05-3.11522E-05 2.18246E-06 6.52458E-19 1.46224E-18
 -1      1570 1.01334E-04-3.03672E-05-3.04275E-05 8.80969E-07 1.62594E-19 1.76551E-18
 -1      1571 1.02355E-04-3.06685E-05-3.07297E-05 9.10052E-07-2.28590E-19 1.42990E-18
 -1      1572 1.01891E-04-3.04931E-05-3.06000E-05 1.88594E-06-3.89569E-20 1.79750E-18
 -1      1573 9.97614E-05-2.98988E-05-2.99519E-05 7.10254E-07-1.10579E-19 1.76933E-18
 -1      1574 1.00594E-04-3.01402E-05-3.01996E-05 7.40851E-07-1.50963E-19 1.78945E-18
 -1      1575 1.00307E-04-3.00193E-05-3.01250E-05 1.56131E-06-3.98866E-20 1.69527E-18
 -1      1576 9.85049E-05-2.95264E-05-2.95706E-05 5.56015E-07 1.82794E-19 9.42966E-19
 -1      1577 9.91632E-05-2.97142E-05-2.97671E-05 5.84786E-07 3.36881E-19 1.32623E-18
 -1      1578 9.90054E-05-2.96364E-05-2.97317E-05 1.25031E-06 2.56406E-19 1.13071E-18
 -1      1579 9.75279E-05-2.92379E-05-2.92735E-05 4.24128E-07-3.27555E-19 1.99884E-18
 -1      1580 9.80342E-05-2.93803E-05-2.94250E-05 4.49482E-07-2.82694E-19 1.23806E-18
 -1      1581 9.79671E-05-2.93348E-05-2.94160E-05 9.73815E-07-3.34371E-19 1.29939E-18
 -1      1582 9.67868E-05-2.90198E-05-2.90476E-05 3.15630E-07 1.35546E-19 3.01636E-18
 -1      1583 9.71664E-05-2.91250E-05-2.91615E-05 3.37026E-07-2.58520E-19 2.14476E-18
 -1      1584 9.71592E-05-2.91026E-05-2.91692E-05 7.39671E-07-4.84253E-19 1.62953E-18
 -1      1585 9.62380E-05-2.88589E-05-2.88800E-05 2.28997E-07 8.54548E-19 1.84001E-18
 -1      1586 9.65155E-05-2.89346E-05-2.89635E-05 2.46483E-07 5.49392E-19 2.70330E-18
 -1      1587 9.65453E-05-2.89278E-05-2.89808E-05 5.48288E-07 8.17635E-19 8.91801E-19
 -1      1588 9.58418E-05-2.87431E-05-2.87588E-05 1.61528E-07-2.84210E-19 1.46874E-18
 -1      1589 9.60392E-05-2.87961E-05-2.88184E-05 1.75455E-07 3.35242E-19 2.04808E-18
 -1      1590 9.60895E-05-2.87992E-05-2.88403E-05 3.96182E-07 5.66328E-19 8.56870E-19
 -1      1591 9.55640E-05-2.86623E-05-2.86736E-05 1.10152E-07 4.56149E-19 4.73353E-19
 -1      1592 9.57000E-05-2.86980E-05-2.87148E-05 1.21003E-07 3.61040E-20 8.71950E-19
 -1      1593 9.57594E-05-2.87069E-05-2.87381E-05 2.78157E-07 4.78717E-19 8.12708E-19
 -1      1594 9.53760E-05-2.86078E-05-2.86158E-05 7.18713E-08-3.09863E-19-6.80980E-19
 -1      1595 9.54659E-05-2.86307E-05-2.86432E-05 8.01549E-08 2.18427E-19-1.32798E-19
 -1      1596 9.55269E-05-2.86426E-05-2.86658E-05 1.88569E-07 5.49536E-19 6.93618E-19
 -1      1597 9.52545E-05-2.85729E-05-2.85784E-05 4.39742E-08-4.49711E-19-2.20940E-20
 -1      1598 9.53107E-05-2.85865E-05-2.85956E-05 5.01757E-08-4.46217E-19-5.50557E-19
 -1      1599 9.53686E-05-2.85995E-05-2.86163E-05 1.22012E-07 1.58979E-19 5.97628E-20
 -1      1600 9.51815E-05-2.85521E-05-2.85557E-05 2.41275E-08 3.09162E-19-4.23815E-19
 -1      1601 9.52135E-05-2.85592E-05-2.85656E-05 2.86801E-08 6.31672E-20 1.09394E-19
 -1      1602 9.52657E-05-2.85719E-05-2.85838E-05 7.36532E-08-1.79761E-19-1.35661E-19
 -1      1603 9.51427E-05-2.85413E-05-2.85435E-05 1.03908E-08 5.19433E-20 6.66862E-19
 -1      1604 9.51579E-05-2.85440E-05-2.85484E-05 1.36658E-08 8.00255E-20 2.58882E-19
 -1      1605 9.52031E-05-2.85556E-05-2.85638E-05 3.93594E-08 3.97516E-20 7.55967E-19
 -1      1606 9.51276E-05-2.85373E-05-2.85386E-05 1.19606E-09-1.15285E-20 1.16858E-20
 -1      1607 9.51313E-05-2.85371E-05-2.85400E-05 3.50160E-09 3.45061E-19 5.62491E-19
 -1      1608 9.51693E-05-2.85473E-05-2.85527E-05 1.57127E-08 1.68407E-19 1.56807E-18
 -1      1609 9.51282E-05-2.85379E-05-2.85386E-05-4.68974E-09 6.94753E-19-3.47503E-19
 -1      1610 9.51245E-05-2.85358E-05-2.85377E-05-3.10554E-09-2.87043E-19 2.37409E-20
 -1      1611 9.51553E-05-2.85444E-05-2.85479E-05-3.43565E-11 6.32177E-20 1.03451E-18
 -1      1612 9.51387E-05-2.85413E-05-2.85416E-05-8.20616E-09-6.92750E-19 1.43887E-19
 -1      1613 9.51305E-05-2.85382E-05-2.85393E-05-7.15027E-09 2.83373E-19 2.56180E-19
 -1      1614 9.51547E-05-2.85452E-05-2.85472E-05-1.00272E-08 2.87983E-19 2.44977E-18
 -1      1615 9.51550E-05-2.85465E-05-2.85464E-05-1.00374E-08 2.46708E-20 5.40190E-19
 -1      1616 9.51444E-05-2.85428E-05-2.85433E-05-9.36737E-09-2.95114E-19-2.04311E-19
 -1      1617 9.51625E-05-2.85482E-05-2.85492E-05-1.58823E-08-2.88229E-19 2.17161E-18
 -1      1618 9.51741E-05-2.85523E-05-2.85521E-05-1.06406E-08 4.92616E-19-1.66424E-19
 -1      1619 9.51625E-05-2.85485E-05-2.85487E-05-1.02627E-08 1.35837E-19-9.73765E-20
 -1      1620 9.51752E-05-2.85524E-05-2.85528E-05-1.87517E-08 2.50648E-19 8.31868E-19
 -1      1621 9.51937E-05-2.85584E-05-2.85579E-05-1.02605E-08 1.06200E-18-3.07750E-18
 -1      1622 9.51822E-05-2.85547E-05-2.85545E-05-1.01317E-08 1.09792E-18-1.08460E-18
 -1      1623 9.51902E-05-2.85573E-05-2.85571E-05-1.93668E-08 1.65543E-18-1.02790E-18
 -1      1624 9.52117E-05-2.85639E-05-2.85631E-05-8.93171E-09-9.89608E-20-4.13940E-18
 -1      1625 9.52014E-05-2.85607E-05-2.85602E-05-9.06709E-09 5.67932E-19-3.19736E-18
 -1      1626 9.52054E-05-2.85622E-05-2.85614E-05-1.80625E-08 1.26087E-18-4.61282E-19
 -1      1627 9.52262E-05-2.85685E-05-2.85673E-05-6.46130E-09 7.61514E-19-5.15304E-18
 -1      1628 9.52182E-05-2.85661E-05-2.85650E-05-6.96993E-09 4.43611E-19-3.64742E-18
 -1      1629 9.52191E-05-2.85668E-05-2.85652E-05-1.47940E-08 4.32699E-19-2.95914E-19
 -1      1630 9.52348E-05-2.85713E-05-2.85700E-05-2.82356E-09-9.73060E-19-5.40335E-18
 -1      1631 9.52306E-05-2.85702E-05-2.85686E-05-3.68466E-09-3.96648E-19-5.85618E-18
 -1      1632 9.52299E-05-2.85706E-05-2.85681E-05-9.29320E-09 3.03672E-19-7.10177E-19
 -1      1633 9.52369E-05-2.85718E-05-2.85707E-05-4.57941E-10-3.32002E-18-4.34736E-18
 -1      1634 9.52388E-05-2.85798E-05-2.85680E-05-5.54332E-09-1.37848E-18 2.02403E-18
 -1      1635 9.52373E-05-2.85753E-05-2.85694E-05-4.57301E-09-3.37858E-18 1.15944E-18
 -1      1636 9.52430E-05-2.85920E-05-2.85647E-05-8.19300E-09-1.08288E-18-3.13740E-19
 -1      1637 9.52405E-05-2.85846E-05-2.85667E-05-7.82094E-09-1.22072E-18 3.77601E-19
 -1      1638 9.52389E-05-2.85822E-05-2.85670E-05-1.28276E-08-6.05811E-20 1.27083E-18
 -1      1639 9.52477E-05-2.86061E-05-2.85607E-05-9.00398E-09-1.45991E-18-2.50525E-19
 -1      1640 9.52449E-05-2.85977E-05-2.85631E-05-8.99481E-09-6.85703E-19-2.98424E-19
 -1      1641 9.52431E-05-2.85928E-05-2.85644E-05-1.64662E-08-7.81708E-19 1.92199E-20
 -1      1642 9.52521E-05-2.86199E-05-2.85567E-05-8.39673E-09-1.57499E-19 5.97838E-19
 -1      1643 9.52495E-05-2.86119E-05-2.85590E-05-8.62883E-09-6.74030E-19 1.22995E-18
 -1      1644 9.52473E-05-2.86042E-05-2.85613E-05-1.69172E-08-3.81110E-19 3.49109E-19
 -1      1645 9.52558E-05-2.86314E-05-2.85533E-05-6.86997E-09-2.35636E-18-6.70903E-19
 -1      1646 9.52537E-05-2.86249E-05-2.85552E-05-7.23451E-09-1.23702E-18-9.23868E-19
 -1      1647 9.52510E-05-2.86149E-05-2.85584E-05-1.50202E-08-1.32206E-18-1.49856E-18
 -1      1648 9.52585E-05-2.86401E-05-2.85508E-05-4.74503E-09-2.97337E-18-4.40520E-19
 -1      1649 9.52570E-05-2.86354E-05-2.85521E-05-5.19653E-09-2.05277E-18-1.02157E-18
 -1      1650 9.52539E-05-2.86238E-05-2.85559E-05-1.16107E-08-1.66744E-18-1.00278E-18
 -1      1651 9.52600E-05-2.86450E-05-2.85493E-05-2.30782E-09-2.75250E-18-6.37035E-19
 -1      1652 9.52592E-05-2.86426E-05-2.85500E-05-2.79664E-09-2.84278E-18 2.32122E-19
 -1      1653 9.52560E-05-2.86302E-05-2.85541E-05-7.26465E-09-7.99336E-19-6.40328E-19
 -1      1654 9.52602E-05-2.86458E-05-2.85490E-05 2.59362E-10-1.66482E-18 3.64525E-19
 -1      1655 9.52602E-05-2.86458E-05-2.85490E-05-2.40639E-10-3.11226E-18-1.32627E-19
 -1      1656 9.52570E-05-2.86334E-05-2.85531E-05-2.45622E-09-3.55636E-19-1.11749E-19
 -1      1657 9.52592E-05-2.86426E-05-2.85500E-05 2.81705E-09-2.70013E-18-8.21489E-19
 -1      1658 9.52600E-05-2.86450E-05-2.85493E-05 2.32779E-09-2.78618E-18 7.41337E-19
 -1      1659 9.52570E-05-2.86334E-05-2.85531E-05 2.49346E-09-1.06299E-18-2.33970E-19
 -1      1660 9.52570E-05-2.86353E-05-2.85521E-05 5.22006E-09-2.32562E-18-5.47201E-19
 -1      1661 9.52585E-05-2.86400E-05-2.85508E-05 4.76885E-09-1.79209E-18-1.07128E-18
 -1      1662 9.52560E-05-2.86301E-05-2.85541E-05 7.30780E-09-1.60152E-18 1.02308E-19
 -1      1663 9.52537E-05-2.86249E-05-2.85552E-05 7.23951E-09-3.22496E-18-2.10603E-19
 -1      1664 9.52558E-05-2.86314E-05-2.85533E-05 6.87703E-09-2.36081E-18-6.54952E-19
 -1      1665 9.52539E-05-2.86238E-05-2.85559E-05 1.16313E-08-1.52208E-18-1.45123E-18
 -1      1666 9.52495E-05-2.86117E-05-2.85591E-05 8.65208E-09-1.91515E-18 2.25572E-19
 -1      1667 9.52521E-05-2.86197E-05-2.85568E-05 8.42123E-09-2.95636E-18 2.57092E-18
 -1      1668 9.52510E-05-2.86149E-05-2.85584E-05 1.50498E-08-1.34990E-18 1.13487E-18
 -1      1669 9.52449E-05-2.85975E-05-2.85631E-05 9.03630E-09-4.87023E-19 4.64492E-19
 -1      1670 9.52477E-05-2.86059E-05-2.85608E-05 9.02272E-09-7.99654E-19 5.57649E-19
 -1      1671 9.52473E-05-2.86041E-05-2.85614E-05 1.69528E-08-3.60552E-19 9.34415E-19
 -1      1672 9.52405E-05-2.85846E-05-2.85668E-05 7.78495E-09 3.21020E-19 1.24331E-18
 -1      1673 9.52430E-05-2.85919E-05-2.85648E-05 8.15527E-09-3.08720E-19 7.83450E-19
 -1      1674 9.52430E-05-2.85927E-05-2.85644E-05 1.64673E-08 3.54949E-19 5.61317E-19
 -1      1675 9.52370E-05-2.85761E-05-2.85690E-05 6.45681E-09 2.75970E-19-2.55354E-19
 -1      1676 9.52386E-05-2.85806E-05-2.85677E-05 7.88952E-09 5.08274E-19-2.16339E-19
 -1      1677 9.52387E-05-2.85828E-05-2.85666E-05 1.48404E-08 3.64234E-20 7.77327E-19
 -1      1678 9.52334E-05-2.85751E-05-2.85678E-05 1.23283E-08-4.53988E-19 1.33949E-19
 -1      1679 1.99988E-05-6.66177E-05 1.39835E-05-6.88317E-06 1.14265E-17 4.33893E-18
 -1      1680 2.39025E-05-7.72492E-05 1.60959E-05 1.66700E-06 7.88069E-18 2.22981E-18
 -1      1681 2.16724E-05-3.68952E-05 2.88068E-06 7.45273E-06 1.33001E-17 6.31918E-18
 -1      1682 2.51206E-05-5.89657E-05 9.12767E-06 2.62950E-06 1.16391E-17 4.90125E-18
 -1      1683 3.70297E-05-9.76891E-06-1.32947E-05 3.08806E-05 1.34170E-17 9.00608E-18
 -1      1684 3.02238E-05-3.05663E-05-4.10269E-06 1.22896E-05 1.44106E-17 7.39799E-18
 -1      1685 7.99388E-05-1.68133E-06-3.25820E-05 6.21334E-05 1.00661E-17 9.72902E-18
 -1      1686 5.30177E-05-5.42115E-06-2.25177E-05 3.92704E-05 1.29300E-17 9.46898E-18
 -1      1687 1.47883E-04-2.03761E-05-5.10791E-05 7.47910E-05 6.12871E-18 6.54756E-18
 -1      1688 1.06509E-04-7.32035E-06-4.18172E-05 6.42725E-05 8.64821E-18 8.68971E-18
 -1      1689 2.12986E-04-4.55255E-05-6.59183E-05 6.33818E-05 3.35383E-18 2.19720E-18
 -1      1690 1.70767E-04-2.47090E-05-5.91076E-05 7.44141E-05 5.19485E-18 5.89366E-18
 -1      1691 2.51632E-04-6.36156E-05-7.38899E-05 1.76509E-05 2.62898E-18-4.27455E-18
 -1      1692 2.29135E-04-5.11146E-05-7.06664E-05 4.95272E-05 3.16684E-18 3.90059E-19
 -1      1693 2.47024E-04-6.02959E-05-7.36288E-05-3.34400E-05 3.64648E-18-1.04825E-17
 -1      1694 2.56367E-04-6.57824E-05-7.49171E-05 3.19455E-07 2.71961E-18-6.40246E-18
 -1      1695 2.00154E-04-3.70413E-05-6.51894E-05-6.88429E-05 7.07315E-18-1.50484E-17
 -1      1696 2.35517E-04-5.59332E-05-7.04822E-05-4.83682E-05 4.72041E-18-1.24463E-17
 -1      1697 1.33054E-04-1.10696E-05-5.01675E-05-7.46060E-05 1.10479E-17-1.63571E-17
 -1      1698 1.77900E-04-2.97464E-05-5.85719E-05-7.67147E-05 8.50125E-18-1.56794E-17
 -1      1699 7.42711E-05-3.58832E-06-3.11300E-05-5.23882E-05 1.22337E-17-1.39904E-17
 -1      1700 1.09182E-04-7.70049E-06-4.11622E-05-7.20084E-05 1.14807E-17-1.63164E-17
 -1      1701 3.68581E-05-1.66163E-05-1.22098E-05-2.28932E-05 1.11910E-17-9.49863E-18
 -1      1702 5.19310E-05-2.68232E-06-2.16832E-05-4.52269E-05 1.23709E-17-1.26792E-17
 -1      1703 2.50317E-05-4.57827E-05 3.51044E-06-2.68938E-06 7.26331E-18-5.27829E-18
 -1      1704 2.42309E-05-2.22643E-05-4.02065E-06-1.41084E-05 1.02982E-17-8.06629E-18
 -1      1705 2.42381E-05-6.95505E-05 1.32808E-05-1.43010E-07 9.87640E-19-3.08098E-18
 -1      1706 1.93732E-05-5.15551E-05 8.89625E-06 1.70975E-06 5.48284E-18-4.48933E-18
 -1      1707 2.33809E-05-7.73848E-05 1.64238E-05-4.43871E-06-6.29197E-18-3.08892E-18
 -1      1708 2.25164E-05-7.50368E-05 1.60311E-05 5.53192E-06-1.19834E-18-2.65291E-18
 -1      1709 1.93381E-05-5.85761E-05 1.10852E-05-6.21959E-06-1.21498E-17-5.15938E-18
 -1      1710 2.46673E-05-7.53617E-05 1.48822E-05-1.43467E-06-8.34751E-18-3.47855E-18
 -1      1711 2.22027E-05-2.76541E-05-1.40324E-06 9.39876E-06-1.48841E-17-8.83625E-18
 -1      1712 2.44166E-05-5.15361E-05 5.72186E-06-1.10757E-07-1.33213E-17-6.17762E-18
 -1      1713 4.60677E-05-5.45446E-06-1.86917E-05 3.95135E-05-1.44402E-17-1.24082E-17
 -1      1714 3.34431E-05-2.12098E-05-9.34035E-06 1.79127E-05-1.48968E-17-9.99372E-18
 -1      1715 1.02823E-04-1.16525E-05-3.76662E-05 6.46924E-05-1.10114E-17-1.24327E-17
 -1      1716 7.25217E-05-1.02632E-05-2.79792E-05 4.58396E-05-1.25615E-17-1.17500E-17
 -1      1717 1.65557E-04-2.69564E-05-5.52640E-05 7.53609E-05-7.90239E-18-1.04016E-17
 -1      1718 1.18770E-04-9.52177E-06-4.57779E-05 6.83223E-05-1.09238E-17-1.27919E-17
 -1      1719 1.32187E-04-3.55531E-05-3.99924E-05 4.04426E-05-7.52589E-18-6.08170E-18
 -1      1720 2.33567E-04-5.50988E-05-7.01470E-05 4.88863E-05-4.25168E-18-2.76980E-18
 -1      1721 1.93581E-04-3.37984E-05-6.40698E-05 6.88264E-05-6.78092E-18-8.35174E-18
 -1      1722 2.57538E-04-6.60806E-05-7.52817E-05 4.73412E-08-2.77721E-18 4.60767E-18
 -1      1723 2.47381E-04-6.00693E-05-7.38638E-05 3.47232E-05-2.87081E-18-3.47284E-19
 -1      1724 2.28685E-04-5.08064E-05-7.07666E-05-4.75270E-05-4.97039E-18 1.06269E-17
 -1      1725 2.50921E-04-6.30101E-05-7.40170E-05-1.62077E-05-3.07092E-18 6.70744E-18
 -1      1726 1.69401E-04-2.43025E-05-5.87343E-05-7.46843E-05-9.15770E-18 1.54050E-17
 -1      1727 2.13902E-04-4.61739E-05-6.60558E-05-6.34007E-05-6.50151E-18 1.30790E-17
 -1      1728 1.01124E-04-4.25203E-06-4.09306E-05-6.56371E-05-1.21905E-17 1.53940E-17
 -1      1729 1.43960E-04-1.72198E-05-5.05317E-05-7.81448E-05-1.02402E-17 1.64468E-17
 -1      1730 5.36947E-05-1.07502E-05-2.06687E-05-3.56784E-05-1.07488E-17 1.11080E-17
 -1      1731 7.97567E-05-5.20443E-06-3.11463E-05-5.90876E-05-1.18102E-17 1.41683E-17
 -1      1732 2.79832E-05-3.25384E-05-2.64936E-06-9.39300E-06-7.07696E-18 6.84360E-18
 -1      1733 3.27253E-05-1.12839E-05-1.13213E-05-2.64624E-05-1.06235E-17 1.04532E-17
 -1      1734 2.49872E-05-6.00557E-05 9.59858E-06-1.98256E-06 1.85500E-19 3.74960E-18
 -1      1735 2.14869E-05-3.91794E-05 3.71764E-06-5.82309E-06-4.46640E-18 5.45023E-18
 -1      1736 2.38382E-05-7.72726E-05 1.61427E-05-1.25234E-06 5.91610E-18 1.71969E-18
 -1      1737 2.01882E-05-6.74633E-05 1.42115E-05 7.32641E-06 1.54287E-18 2.56143E-18
 -1      1738 1.19005E-04-3.10070E-05-3.65353E-05 4.50590E-05 6.65726E-18 4.09032E-18
 -1      1739 7.46960E-05-3.35272E-05-1.87988E-05 4.00765E-05 8.16963E-18 4.75524E-18
 -1      1740 9.52362E-05-2.85727E-05-2.85699E-05-2.84777E-09-3.96311E-18-1.75664E-18
 -1      1741 9.52353E-05-2.85748E-05-2.85687E-05-7.87454E-09-1.44723E-18 1.73270E-18
 -1      1742 1.97736E-05-4.59312E-05 7.61430E-06 1.71452E-05 5.56458E-18 5.07309E-18
 -1      1743 4.26040E-05-4.12160E-05-3.35936E-06 3.05691E-05 7.00327E-18 4.36847E-18
 -1      1744 1.21110E-05-5.22947E-05 1.23907E-05 4.25242E-07 4.01398E-18 4.44396E-18
 -1      1745 1.61935E-04-3.19780E-05-5.27195E-05 3.96604E-05 5.43086E-18 1.77708E-18
 -1      1746 1.96643E-04-3.37797E-05-6.50189E-05 2.73961E-05 4.91194E-18-7.93246E-19
 -1      1747 2.12564E-04-3.51555E-05-7.04761E-05 3.91326E-06 4.89246E-18-3.84871E-18
 -1      1748 2.07834E-04-3.55264E-05-6.84620E-05-2.02607E-05 5.37824E-18-7.09644E-18
 -1      1749 1.79583E-04-3.19514E-05-5.91499E-05-3.87864E-05 6.85964E-18-1.02703E-17
 -1      1750 1.38470E-04-3.04900E-05-4.42056E-05-4.58071E-05 7.36834E-18-1.05168E-17
 -1      1751 9.41008E-05-3.17677E-05-2.67463E-05-4.41321E-05 6.73222E-18-9.75020E-18
 -1      1752 5.47433E-05-3.68108E-05-9.88663E-06-3.40758E-05 5.34054E-18-7.79482E-18
 -1      1753 2.88940E-05-4.45694E-05 3.08548E-06-2.21829E-05 2.80834E-18-6.19710E-18
 -1      1754 1.46819E-05-4.96766E-05 1.07155E-05-9.61224E-06-6.58145E-19-5.74119E-18
 -1      1755 1.34071E-05-5.25645E-05 1.19213E-05 4.79451E-06-4.13331E-18-5.59677E-18
 -1      1756 2.51934E-05-4.72050E-05 5.34544E-06 1.80031E-05-7.38613E-18-5.98482E-18
 -1      1757 4.97545E-05-3.83930E-05-7.35877E-06 3.16698E-05-9.02937E-18-7.22710E-18
 -1      1758 9.16001E-05-3.60332E-05-2.39635E-05 4.21367E-05-7.95279E-18-7.16844E-18
 -1      1759 2.06483E-04-3.48080E-05-6.82136E-05 1.92531E-05-6.60410E-18-3.93023E-19
 -1      1760 2.11748E-04-3.42688E-05-7.05259E-05-2.66536E-06-5.38840E-18 3.43017E-18
 -1      1761 1.96049E-04-3.31466E-05-6.49470E-05-2.59961E-05-6.33094E-18 6.48743E-18
 -1      1762 1.61794E-04-3.13949E-05-5.25823E-05-4.28255E-05-7.11232E-18 9.03022E-18
 -1      1763 1.17190E-04-3.32675E-05-3.53327E-05-4.41552E-05-6.38197E-18 9.26823E-18
 -1      1764 7.37165E-05-3.57867E-05-1.73677E-05-3.92465E-05-4.88569E-18 9.04970E-18
 -1      1765 3.97227E-05-4.15593E-05-2.20160E-06-2.83961E-05-1.42556E-18 7.77375E-18
 -1      1766 1.91801E-05-4.61854E-05 7.92591E-06-1.60804E-05 1.27606E-18 5.31217E-18
 -1      1767 1.08122E-04-2.39225E-05-3.61805E-05-1.52262E-05-1.74261E-18 5.62070E-18
 -1      1768 1.72792E-04-3.28886E-05-5.64358E-05 3.70990E-05-7.91820E-18-4.43676E-18
 -1      1769 9.04417E-05-1.06846E-05-3.43151E-05-1.01105E-05-1.86659E-18-2.77350E-18
 -1      1770 9.23406E-05-1.19897E-05-3.45621E-05-1.19689E-05-2.25908E-18-2.15355E-18
 -1      1771 9.48484E-05-1.45670E-05-3.45712E-05-1.30526E-05-2.36659E-18-1.33511E-18
 -1      1772 9.69289E-05-1.67260E-05-3.48450E-05-1.48901E-05-2.63906E-18-2.42834E-19
 -1      1773 9.56261E-05-1.68517E-05-3.37669E-05-1.05400E-05-2.46614E-18-1.57318E-18
 -1      1774 8.48783E-05-6.46353E-06-3.36812E-05-5.13146E-06-7.41233E-19-3.85932E-18
 -1      1775 8.58940E-05-6.99217E-06-3.38602E-05-6.29888E-06-1.04200E-18-3.78126E-18
 -1      1776 8.31330E-05-5.28640E-06-3.34215E-05-3.26089E-06-2.48262E-19-3.90311E-18
 -1      1777 8.38727E-05-5.64846E-06-3.35600E-05-4.22263E-06-4.90664E-19-3.91828E-18
 -1      1778 8.56401E-05-8.05885E-06-3.32718E-05-4.23000E-06-6.99760E-19-3.74526E-18
 -1      1779 8.20204E-05-4.55936E-06-3.32444E-05-1.70634E-06 2.51048E-19-3.82533E-18
 -1      1780 8.24629E-05-4.76703E-06-3.33310E-05-2.51930E-06-1.47966E-20-3.91362E-18
 -1      1781 8.38638E-05-6.74316E-06-3.30725E-05-2.61540E-06-1.28874E-19-3.81043E-18
 -1      1782 8.15595E-05-4.25509E-06-3.31689E-05-3.25876E-07 7.27668E-19-3.72000E-18
 -1      1783 8.16942E-05-4.31539E-06-3.31971E-05-1.06801E-06 5.09880E-19-3.79421E-18
 -1      1784 8.28082E-05-5.99001E-06-3.29412E-05-1.25969E-06 4.07044E-19-3.70168E-18
 -1      1785 8.17592E-05-4.36380E-06-3.32028E-05 1.03377E-06 1.15231E-18-3.45239E-18
 -1      1786 8.15842E-05-4.27946E-06-3.31706E-05 2.83941E-07 9.42939E-19-3.62010E-18
 -1      1787 8.24920E-05-5.77469E-06-3.28977E-05-3.04433E-08 8.69571E-19-3.56700E-18
 -1      1788 8.26038E-05-4.88103E-06-3.33419E-05 2.52591E-06 1.57251E-18-3.25907E-18
 -1      1789 8.21297E-05-4.65243E-06-3.32528E-05 1.69142E-06 1.36977E-18-3.39546E-18
 -1      1790 8.29164E-05-6.08649E-06-3.29472E-05 1.21885E-06 1.32006E-18-3.30905E-18
 -1      1791 8.40308E-05-5.79106E-06-3.35670E-05 4.26154E-06 1.96043E-18-2.83121E-18
 -1      1792 8.32904E-05-5.42371E-06-3.34312E-05 3.28767E-06 1.77041E-18-3.09195E-18
 -1      1793 8.40462E-05-6.91148E-06-3.30799E-05 2.61627E-06 1.78411E-18-3.02571E-18
 -1      1794 8.60751E-05-7.16990E-06-3.38636E-05 6.42641E-06 2.46890E-18-2.10954E-18
 -1      1795 8.50439E-05-6.62300E-06-3.36853E-05 5.20683E-06 2.18419E-18-2.50701E-18
 -1      1796 8.58498E-05-8.26709E-06-3.32750E-05 4.28918E-06 2.24508E-18-2.49210E-18
 -1      1797 8.87945E-05-9.16625E-06-3.42021E-05 9.09221E-06 2.85698E-18-1.12896E-18
 -1      1798 8.74308E-05-8.35933E-06-3.39898E-05 7.56746E-06 2.62108E-18-1.72936E-18
 -1      1799 8.83536E-05-1.02505E-05-3.34990E-05 6.32064E-06 2.71252E-18-1.66589E-18
 -1      1800 9.25119E-05-1.22485E-05-3.45437E-05 1.22336E-05 3.08275E-18 4.36963E-19
 -1      1801 9.06042E-05-1.09082E-05-3.43015E-05 1.03709E-05 2.91805E-18-5.36860E-19
 -1      1802 9.16594E-05-1.30869E-05-3.36903E-05 8.65085E-06 3.03056E-18-6.60130E-19
 -1      1803 9.84734E-05-1.78935E-05-3.47226E-05 1.50413E-05 2.79174E-18 3.32217E-18
 -1      1804 9.51946E-05-1.50396E-05-3.45301E-05 1.33242E-05 2.91317E-18 1.61153E-18
 -1      1805 9.61458E-05-1.74185E-05-3.37283E-05 1.07770E-05 3.08158E-18 1.08394E-18
 -1      1806 1.04610E-04-2.60126E-05-3.41040E-05 1.23715E-05 2.25268E-18 6.67176E-18
 -1      1807 1.00795E-04-2.05583E-05-3.43893E-05 1.45747E-05 2.53840E-18 4.47546E-18
 -1      1808 1.00242E-04-2.27707E-05-3.32667E-05 1.05652E-05 2.85218E-18 3.23021E-18
 -1      1809 1.01998E-04-2.71721E-05-3.22675E-05 7.39492E-06 2.37069E-18 5.87503E-18
 -1      1810 1.02822E-04-2.05426E-05-3.49568E-05-1.65889E-05-2.36067E-18 1.88147E-18
 -1      1811 9.96816E-05-2.85546E-05-3.04996E-05 1.97795E-06 1.82184E-18 4.75643E-18
 -1      1812 1.01427E-04-2.84878E-05-3.12951E-05 4.35556E-06 1.98830E-18 5.37138E-18
 -1      1813 1.01070E-04-2.66800E-05-3.18825E-05 6.28713E-06 2.38146E-18 3.80484E-18
 -1      1814 1.71463E-04-3.37083E-05-5.77435E-05 1.73733E-05-7.39809E-18-6.92026E-19
 -1      1815 1.52705E-04-3.60722E-05-4.98986E-05 2.16790E-05-6.87103E-18-2.30393E-18
 -1      1816 1.02622E-04-2.34520E-05-3.36558E-05-1.19320E-05-2.47278E-18 1.06197E-18
 -1      1817 1.00940E-04-2.80750E-05-3.11099E-05-3.10373E-06-1.95141E-18 8.67865E-19
 -1      1818 9.98587E-05-2.82882E-05-3.06269E-05-1.19204E-06-1.71727E-18 3.29132E-19
 -1      1819 9.95378E-05-2.85851E-05-3.03102E-05 5.16514E-07-1.54298E-18 2.81930E-19
 -1      1820 9.96007E-05-2.88804E-05-3.02554E-05 1.56283E-06-1.25938E-18-6.68693E-20
 -1      1821 9.97538E-05-2.75377E-05-3.09813E-05-9.10462E-07-1.89191E-18-3.75423E-19
 -1      1822 9.96963E-05-2.90898E-05-3.01998E-05 2.67788E-06-1.02609E-18-6.71075E-20
 -1      1823 1.00367E-04-2.94384E-05-3.03594E-05 3.34879E-06-8.56681E-19-3.48210E-19
 -1      1824 9.96654E-05-2.84378E-05-3.05553E-05 2.31343E-06-1.35112E-18-5.25475E-19
 -1      1825 1.00834E-04-2.96939E-05-3.04560E-05 4.10404E-06-7.07790E-19-3.53458E-19
 -1      1826 1.01910E-04-3.01365E-05-3.07370E-05 4.54151E-06-5.59030E-19-4.93201E-19
 -1      1827 1.00327E-04-2.91306E-05-3.05383E-05 4.43998E-06-9.43841E-19-6.86648E-19
 -1      1828 1.02676E-04-3.04832E-05-3.09232E-05 5.01375E-06-5.95252E-19-5.11492E-19
 -1      1829 1.03999E-04-3.10244E-05-3.12686E-05 5.22750E-06-4.88116E-19-6.17949E-19
 -1      1830 1.01630E-04-2.99075E-05-3.07603E-05 5.84371E-06-6.70312E-19-7.48440E-19
 -1      1831 1.05000E-04-3.14877E-05-3.14978E-05 5.38542E-06-3.95056E-19-3.98503E-19
 -1      1832 1.06408E-04-3.21163E-05-3.18545E-05 5.30597E-06-2.53588E-19-4.07926E-19
 -1      1833 1.03464E-04-3.09095E-05-3.11131E-05 6.58402E-06-3.79197E-19-4.52954E-19
 -1      1834 1.07582E-04-3.27105E-05-3.20854E-05 5.03839E-06-2.36256E-19-3.74448E-19
 -1      1835 1.08872E-04-3.33856E-05-3.23929E-05 4.54549E-06-2.51645E-19-3.80536E-19
 -1      1836 1.05716E-04-3.22210E-05-3.15124E-05 6.51352E-06-2.87677E-19-3.57124E-19
 -1      1837 1.10130E-04-3.40926E-05-3.25887E-05 3.69489E-06-5.35288E-19-1.66174E-19
 -1      1838 1.11038E-04-3.47118E-05-3.27800E-05 2.66673E-06-6.01168E-19-1.00767E-19
 -1      1839 1.08242E-04-3.38563E-05-3.18892E-05 5.34416E-06-2.87793E-19-5.65788E-19
 -1      1840 1.12220E-04-3.54291E-05-3.29159E-05 1.10843E-06-8.13112E-19-4.06973E-22
 -1      1841 1.12435E-04-3.57893E-05-3.29322E-05-4.73772E-07-9.58007E-19-6.74304E-19
 -1      1842 1.10793E-04-3.56601E-05-3.21990E-05 2.76201E-06-8.96052E-19-2.23254E-19
 -1      1843 1.13253E-04-3.62673E-05-3.30085E-05-2.66733E-06-8.38913E-19-6.26560E-19
 -1      1844 1.12496E-04-3.60651E-05-3.28271E-05-4.55649E-06-6.90736E-19-1.08014E-18
 -1      1845 1.12896E-04-3.71493E-05-3.24424E-05-1.32131E-06-1.06107E-18 5.87687E-20
 -1      1846 1.12549E-04-3.59117E-05-3.28757E-05-6.88538E-06-7.29759E-19-1.04058E-18
 -1      1847 1.10760E-04-3.48724E-05-3.25410E-05-8.43000E-06-7.35350E-19-1.13689E-18
 -1      1848 1.13806E-04-3.74475E-05-3.26791E-05-6.34222E-06-8.85871E-19-1.03181E-19
 -1      1849 1.09750E-04-3.37783E-05-3.26128E-05-9.84281E-06-8.47049E-19-1.50491E-18
 -1      1850 1.07329E-04-3.19867E-05-3.22378E-05-1.01045E-05-1.05719E-18-1.39079E-18
 -1      1851 1.12736E-04-3.55927E-05-3.30043E-05-1.06521E-05-1.05805E-18-1.13449E-19
 -1      1852 1.05563E-04-3.02146E-05-3.23471E-05-9.39771E-06-9.64744E-19-1.78905E-18
 -1      1853 1.03437E-04-2.84119E-05-3.20680E-05-7.74315E-06-1.15743E-18-1.81076E-18
 -1      1854 1.09660E-04-3.15807E-05-3.34536E-05-1.16782E-05-1.22679E-18-5.98473E-19
 -1      1855 1.02043E-04-2.70236E-05-3.21631E-05-4.62687E-06-1.73138E-18-2.19398E-18
 -1      1856 1.01279E-04-2.63047E-05-3.20798E-05-1.50712E-06-1.45496E-18-2.89605E-18
 -1      1857 1.06136E-04-2.72332E-05-3.38939E-05-7.52207E-06-1.73954E-18-1.64115E-18
 -1      1858 1.01402E-04-2.63862E-05-3.20937E-05 2.63986E-06-1.12884E-18-3.62669E-18
 -1      1859 1.02457E-04-2.72659E-05-3.22393E-05 5.69298E-06-7.56334E-19-4.06567E-18
 -1      1860 1.04704E-04-2.54433E-05-3.40917E-05 7.05904E-07-1.77326E-18-2.33747E-18
 -1      1861 1.04037E-04-2.87592E-05-3.21766E-05 8.65567E-06-5.77915E-19-4.42100E-18
 -1      1862 1.06385E-04-3.06451E-05-3.25139E-05 1.01678E-05-1.44909E-19-5.01710E-18
 -1      1863 1.06591E-04-2.75766E-05-3.39348E-05 8.74746E-06-1.11783E-18-3.18303E-18
 -1      1864 1.08232E-04-3.24205E-05-3.24446E-05 1.06927E-05 2.43818E-19-5.40044E-18
 -1      1865 1.10796E-04-3.42159E-05-3.28700E-05 1.03148E-05 9.99697E-20-5.15509E-18
 -1      1866 1.10385E-04-3.20488E-05-3.35558E-05 1.25102E-05-1.77553E-19-4.21744E-18
 -1      1867 1.11832E-04-3.52630E-05-3.28403E-05 8.80716E-06 3.58335E-20-4.88189E-18
 -1      1868 1.13721E-04-3.62816E-05-3.32169E-05 7.22618E-06 5.05328E-19-5.04973E-18
 -1      1869 1.13554E-04-3.59887E-05-3.31872E-05 1.11746E-05 3.03739E-19-4.89742E-18
 -1      1870 1.13706E-04-3.64006E-05-3.32054E-05 4.90621E-06 5.69173E-19-4.83664E-18
 -1      1871 1.14566E-04-3.66019E-05-3.34249E-05 3.05122E-06 7.51146E-19-4.54093E-18
 -1      1872 1.14671E-04-3.77034E-05-3.29421E-05 6.77995E-06 7.35460E-19-4.19959E-18
 -1      1873 1.13817E-04-3.61249E-05-3.33818E-05 9.26176E-07 8.02008E-19-4.04161E-18
 -1      1874 1.13734E-04-3.57964E-05-3.34053E-05-5.89840E-07 6.49886E-19-3.66166E-18
 -1      1875 1.13861E-04-3.73396E-05-3.27757E-05 1.85130E-06 1.12776E-18-3.54517E-18
 -1      1876 1.12644E-04-3.51090E-05-3.32979E-05-2.07057E-06 1.07361E-18-2.72635E-18
 -1      1877 1.11896E-04-3.45488E-05-3.31498E-05-3.03623E-06 1.88591E-18-1.98264E-18
 -1      1878 1.11920E-04-3.58717E-05-3.25903E-05-2.07087E-06 1.48475E-18-2.58601E-18
 -1      1879 1.10729E-04-3.38853E-05-3.29757E-05-3.83840E-06 1.24563E-18-2.00063E-18
 -1      1880 1.09612E-04-3.32854E-05-3.27115E-05-4.29771E-06 7.77427E-19-1.47733E-18
 -1      1881 1.09559E-04-3.41556E-05-3.23226E-05-4.52118E-06 1.60139E-18-1.94951E-18
 -1      1882 1.08500E-04-3.27361E-05-3.24892E-05-4.57276E-06 5.08656E-19-1.77085E-18
 -1      1883 1.07250E-04-3.21889E-05-3.21679E-05-4.66738E-06 4.00469E-19-1.99653E-18
 -1      1884 1.07198E-04-3.26390E-05-3.19635E-05-5.65736E-06 4.82753E-19-2.01604E-18
 -1      1885 1.06248E-04-3.17641E-05-3.19228E-05-4.60127E-06 2.32936E-20-2.31994E-18
 -1      1886 1.05020E-04-3.13014E-05-3.15910E-05-4.47577E-06-6.24624E-19-2.02728E-18
 -1      1887 1.05029E-04-3.14583E-05-3.15403E-05-5.85471E-06 1.34618E-19-2.93665E-18
 -1      1888 1.04144E-04-3.09814E-05-3.13461E-05-4.22254E-06-9.82684E-19-1.97889E-18
 -1      1889 1.03027E-04-3.06056E-05-3.10341E-05-3.98763E-06-1.36409E-18-1.76675E-18
 -1      1890 1.03119E-04-3.05938E-05-3.10921E-05-5.48226E-06-5.65172E-19-2.34921E-18
 -1      1891 1.02280E-04-3.03661E-05-3.08055E-05-3.65428E-06-9.55073E-19-1.07381E-18
 -1      1892 1.01315E-04-3.00685E-05-3.05297E-05-3.38248E-06-7.12881E-20-1.11528E-18
 -1      1893 1.01482E-04-2.99777E-05-3.06540E-05-4.82183E-06-1.90698E-19-7.29510E-19
 -1      1894 1.00690E-04-2.98889E-05-3.03268E-05-3.03506E-06 5.24830E-20-1.34124E-18
 -1      1895 9.98869E-05-2.96575E-05-3.00935E-05-2.76838E-06 1.81474E-19-1.73449E-18
 -1      1896 1.00107E-04-2.95420E-05-3.02506E-05-4.06054E-06-3.61645E-19-1.57466E-19
 -1      1897 9.93733E-05-2.95225E-05-2.99202E-05-2.44327E-06-2.51130E-19-2.23600E-18
 -1      1898 9.87246E-05-2.93455E-05-2.97291E-05-2.20297E-06-2.96323E-19-2.70363E-18
 -1      1899 9.89718E-05-2.92337E-05-2.98956E-05-3.30958E-06-5.34133E-19-1.01338E-18
 -1      1900 9.83103E-05-2.92441E-05-2.95856E-05-1.91728E-06-1.75132E-19-2.89428E-18
 -1      1901 9.77988E-05-2.91108E-05-2.94333E-05-1.71182E-06-6.26159E-20-2.28602E-18
 -1      1902 9.80515E-05-2.90151E-05-2.95941E-05-2.62735E-06-2.81111E-19-2.02482E-18
 -1      1903 9.74706E-05-2.90351E-05-2.93174E-05-1.47105E-06-2.73409E-19-2.31004E-18
 -1      1904 9.70760E-05-2.89363E-05-2.91988E-05-1.30164E-06-7.48646E-19-2.03445E-18
 -1      1905 9.73181E-05-2.88601E-05-2.93453E-05-2.03873E-06 1.72703E-19-2.33195E-18
 -1      1906 9.68205E-05-2.88804E-05-2.91072E-05-1.10488E-06-1.35840E-18-1.59413E-18
 -1      1907 9.65224E-05-2.88086E-05-2.90168E-05-9.68976E-07-3.05951E-19-1.60411E-18
 -1      1908 9.67434E-05-2.87508E-05-2.91449E-05-1.54890E-06-6.88165E-19-1.38800E-18
 -1      1909 9.63271E-05-2.87678E-05-2.89460E-05-8.12063E-07-4.54184E-19-1.58490E-18
 -1      1910 9.61065E-05-2.87168E-05-2.88785E-05-7.05481E-07 4.57504E-19-2.15075E-18
 -1      1911 9.63010E-05-2.86747E-05-2.89870E-05-1.15236E-06-4.17327E-19-7.23951E-19
 -1      1912 9.59600E-05-2.86876E-05-2.88248E-05-5.82943E-07 1.08749E-18-2.62982E-18
 -1      1913 9.58006E-05-2.86524E-05-2.87755E-05-5.01018E-07 6.44111E-19-2.21109E-18
 -1      1914 9.59665E-05-2.86228E-05-2.88651E-05-8.38561E-07 2.48590E-19-1.37541E-18
 -1      1915 9.56929E-05-2.86320E-05-2.87356E-05-4.07146E-07 5.79340E-19-3.10947E-18
 -1      1916 9.55806E-05-2.86085E-05-2.87005E-05-3.45365E-07-2.80763E-19-2.38660E-18
 -1      1917 9.57186E-05-2.85885E-05-2.87729E-05-5.95167E-07-4.12461E-20-1.16195E-18
 -1      1918 9.55033E-05-2.85948E-05-2.86715E-05-2.74788E-07-1.15622E-18-2.09577E-18
 -1      1919 9.54267E-05-2.85798E-05-2.86472E-05-2.29086E-07-6.35254E-19-2.18935E-18
 -1      1920 9.55388E-05-2.85668E-05-2.87045E-05-4.09912E-07-1.72504E-19-2.00797E-18
 -1      1921 9.53728E-05-2.85710E-05-2.86267E-05-1.77033E-07 6.58016E-19-2.21579E-18
 -1      1922 9.53227E-05-2.85622E-05-2.86105E-05-1.43909E-07 9.45166E-19-1.66705E-18
 -1      1923 9.54116E-05-2.85541E-05-2.86549E-05-2.71528E-07 1.48204E-20-6.25004E-19
 -1      1924 9.52864E-05-2.85569E-05-2.85964E-05-1.06302E-07 6.47974E-19-2.08342E-18
 -1      1925 9.52556E-05-2.85525E-05-2.85862E-05-8.28348E-08 1.26699E-19-2.45364E-18
 -1      1926 9.53246E-05-2.85477E-05-2.86200E-05-1.70162E-07 5.83629E-19-1.41333E-18
 -1      1927 9.52324E-05-2.85496E-05-2.85770E-05-5.62901E-08 9.08500E-19-1.70760E-18
 -1      1928 9.52154E-05-2.85481E-05-2.85711E-05-4.01024E-08 5.75953E-19-1.31754E-18
 -1      1929 9.52675E-05-2.85456E-05-2.85961E-05-9.74828E-08 9.51135E-19-1.59478E-18
 -1      1930 9.52016E-05-2.85470E-05-2.85653E-05-2.18802E-08-2.70433E-19-1.37872E-18
 -1      1931 9.51942E-05-2.85475E-05-2.85624E-05-1.10841E-08-3.14129E-19-8.60634E-19
 -1      1932 9.52322E-05-2.85462E-05-2.85804E-05-4.66418E-08 4.64084E-20-5.47117E-19
 -1      1933 9.51871E-05-2.85475E-05-2.85592E-05 9.79312E-10 1.50824E-20-8.57905E-19
 -1      1934 9.51861E-05-2.85491E-05-2.85584E-05 7.84525E-09 9.06930E-19-1.49971E-19
 -1      1935 9.52127E-05-2.85485E-05-2.85709E-05-1.21450E-08 1.89729E-19-5.57177E-20
 -1      1936 9.51836E-05-2.85499E-05-2.85569E-05 1.54107E-08 2.54502E-18 2.02226E-19
 -1      1937 9.51868E-05-2.85523E-05-2.85574E-05 1.94396E-08 2.90630E-18 1.96819E-18
 -1      1938 9.52040E-05-2.85519E-05-2.85656E-05 1.03004E-08 1.93611E-18 9.60354E-19
 -1      1939 9.51873E-05-2.85535E-05-2.85571E-05 2.37336E-08 1.34227E-18 2.31950E-18
 -1      1940 9.51928E-05-2.85562E-05-2.85584E-05 2.56998E-08 1.53258E-18 2.85897E-18
 -1      1941 9.52027E-05-2.85557E-05-2.85632E-05 2.39420E-08 2.80925E-18 1.38996E-18
 -1      1942 9.51952E-05-2.85578E-05-2.85588E-05 2.75728E-08 2.56325E-19 1.65025E-18
 -1      1943 9.52019E-05-2.85606E-05-2.85605E-05 2.79684E-08-4.17717E-20 1.45912E-18
 -1      1944 9.52061E-05-2.85599E-05-2.85628E-05 3.11243E-08 2.63137E-19 2.96953E-19
 -1      1945 9.52052E-05-2.85623E-05-2.85612E-05 2.79432E-08-1.04339E-18 1.24715E-18
 -1      1946 9.52121E-05-2.85652E-05-2.85630E-05 2.70011E-08-2.07027E-18 4.93519E-19
 -1      1947 9.52122E-05-2.85643E-05-2.85635E-05 3.34114E-08-1.00785E-18 3.82960E-19
 -1      1948 9.52158E-05-2.85670E-05-2.85638E-05 2.53641E-08-1.52778E-18 3.73316E-19
 -1      1949 9.52220E-05-2.85697E-05-2.85653E-05 2.30694E-08-5.20838E-19 5.40431E-19
 -1      1950 9.52196E-05-2.85687E-05-2.85647E-05 3.17063E-08-2.07033E-18 1.99178E-18
 -1      1951 9.52252E-05-2.85713E-05-2.85660E-05 2.00677E-08-2.19008E-21 7.38858E-20
 -1      1952 9.52303E-05-2.85737E-05-2.85672E-05 1.64797E-08-9.86908E-20 3.08408E-19
 -1      1953 9.52329E-05-2.85768E-05-2.85669E-05 1.91048E-08-8.00072E-21 8.63096E-19
 -1      1954 9.52267E-05-2.85732E-05-2.85658E-05 2.66635E-08-5.24367E-19 2.31766E-18
 -1      1955 9.89054E-05-2.89635E-05-2.99374E-05-7.03474E-07 1.32411E-18 3.81793E-18
 -1      1956 9.93339E-05-2.88562E-05-3.01413E-05 4.88600E-07 1.48199E-18 4.38866E-18
 -1      1957 9.97526E-05-2.83017E-05-3.06357E-05 1.35898E-06 1.87161E-18 3.04944E-18
 -1      1958 9.93868E-05-2.93843E-05-2.99695E-05-2.27823E-06 9.47939E-19 3.05768E-18
 -1      1959 9.90165E-05-2.91575E-05-2.98853E-05-1.56361E-06 1.09173E-18 3.53094E-18
 -1      1960 9.93922E-05-2.89273E-05-3.02150E-05-1.45443E-06 1.36071E-18 2.51880E-18
 -1      1961 1.00755E-04-2.99649E-05-3.03194E-05-3.25207E-06 4.67172E-19 2.51459E-18
 -1      1962 9.99018E-05-2.96278E-05-3.00850E-05-2.79125E-06 6.16521E-19 2.76756E-18
 -1      1963 1.00017E-04-2.94703E-05-3.02530E-05-3.16588E-06 8.89067E-19 1.89837E-18
 -1      1964 1.02690E-04-3.07087E-05-3.08413E-05-3.77337E-06 1.94533E-19 2.18180E-18
 -1      1965 1.01559E-04-3.02879E-05-3.05288E-05-3.51065E-06 2.15864E-19 2.40264E-18
 -1      1966 1.01358E-04-3.01271E-05-3.05464E-05-4.19114E-06 4.56791E-19 1.29504E-18
 -1      1967 1.04904E-04-3.15806E-05-3.14281E-05-3.81026E-06 5.23758E-19 2.12623E-18
 -1      1968 1.03670E-04-3.11112E-05-3.10927E-05-3.77116E-06 3.63370E-19 2.14355E-18
 -1      1969 1.03174E-04-3.09438E-05-3.09714E-05-4.62949E-06 4.19316E-19 1.06505E-18
 -1      1970 1.07081E-04-3.25142E-05-3.19733E-05-3.22639E-06 2.11957E-19 2.09709E-18
 -1      1971 1.05937E-04-3.20473E-05-3.16735E-05-3.48501E-06 4.22583E-19 2.22133E-18
 -1      1972 1.05227E-04-3.19134E-05-3.14305E-05-4.40090E-06 4.52906E-19 1.08605E-18
 -1      1973 1.08839E-04-3.33877E-05-3.23632E-05-1.85188E-06 4.56273E-21 1.73289E-18
 -1      1974 1.08017E-04-3.30042E-05-3.21646E-05-2.49859E-06 1.86149E-20 2.01787E-18
 -1      1975 1.07245E-04-3.29746E-05-3.18324E-05-3.33255E-06 1.00780E-19 1.14557E-18
 -1      1976 1.09728E-04-3.39914E-05-3.24887E-05 3.94180E-07-1.62147E-19 2.22300E-18
 -1      1977 1.09487E-04-3.38113E-05-3.24561E-05-6.86608E-07-9.31802E-20 1.98639E-18
 -1      1978 1.08882E-04-3.39712E-05-3.20941E-05-1.26645E-06-8.70393E-20 1.33250E-18
 -1      1979 1.09287E-04-3.40171E-05-3.22799E-05 3.30283E-06 1.22469E-19 2.64055E-18
 -1      1980 1.09854E-04-3.41893E-05-3.24557E-05 1.88771E-06 2.14504E-19 2.33655E-18
 -1      1981 1.09700E-04-3.46010E-05-3.21578E-05 1.75918E-06 5.42763E-20 1.93824E-18
 -1      1982 1.07228E-04-3.31411E-05-3.17526E-05 6.15549E-06 4.46479E-19 2.40359E-18
 -1      1983 1.08682E-04-3.37816E-05-3.21267E-05 4.76103E-06 1.90179E-19 2.41131E-18
 -1      1984 1.09236E-04-3.44299E-05-3.20175E-05 5.25744E-06 3.47502E-19 1.52716E-18
 -1      1985 1.03742E-04-3.12779E-05-3.10383E-05 7.71656E-06 1.08290E-18 1.96029E-18
 -1      1986 1.05865E-04-3.23435E-05-3.15261E-05 6.94788E-06 7.06730E-19 2.26663E-18
 -1      1987 1.07235E-04-3.30901E-05-3.17335E-05 8.10898E-06 7.49373E-19 1.47247E-18
 -1      1988 9.97979E-05-2.89124E-05-3.03646E-05 6.74876E-06 2.90896E-19 2.01192E-18
 -1      1989 1.01991E-04-3.00843E-05-3.08173E-05 7.18997E-06 7.69850E-19 2.05488E-18
 -1      1990 1.04039E-04-3.06865E-05-3.14197E-05 8.78203E-06 8.08643E-19 1.91419E-18
 -1      1991 9.70162E-05-2.71229E-05-2.99650E-05 2.98404E-06-1.42513E-19 1.32219E-18
 -1      1992 9.84479E-05-2.78697E-05-3.02252E-05 4.72736E-06 6.03643E-20 1.52437E-18
 -1      1993 1.00842E-04-2.81262E-05-3.11938E-05 6.19717E-06 3.26664E-19 1.48990E-18
 -1      1994 9.68646E-05-2.69725E-05-2.99857E-05-2.21710E-06 1.47251E-19 8.50646E-19
 -1      1995 9.68686E-05-2.68773E-05-2.99529E-05 1.52290E-07-1.10697E-19 1.22848E-18
 -1      1996 9.92663E-05-2.67735E-05-3.11229E-05 8.38290E-07 1.81556E-19 4.06791E-19
 -1      1997 9.95401E-05-2.85850E-05-3.04364E-05-6.53339E-06 1.47300E-18 8.84223E-20
 -1      1998 9.80622E-05-2.76887E-05-3.01128E-05-4.59409E-06 7.21871E-19 3.07764E-19
 -1      1999 1.00268E-04-2.74754E-05-3.12320E-05-5.03404E-06 1.10085E-18-1.81569E-19
 -1      2000 1.03820E-04-3.10649E-05-3.11798E-05-8.24248E-06 6.15299E-19-4.12929E-20
 -1      2001 1.01457E-04-2.98224E-05-3.06714E-05-7.46804E-06 1.41175E-18 2.47228E-20
 -1      2002 1.03352E-04-2.98307E-05-3.15059E-05-8.82829E-06 1.51922E-18-6.85772E-19
 -1      2003 1.07929E-04-3.32131E-05-3.19952E-05-7.23078E-06-1.04906E-18-5.70688E-20
 -1      2004 1.05547E-04-3.21479E-05-3.14593E-05-7.62634E-06-2.45524E-19-2.05525E-19
 -1      2005 1.06980E-04-3.25226E-05-3.18857E-05-9.31362E-06 7.64629E-20-3.97629E-19
 -1      2006 1.10673E-04-3.43968E-05-3.26560E-05-4.61424E-06-1.65992E-19-5.92162E-20
 -1      2007 1.08927E-04-3.37737E-05-3.22371E-05-5.69242E-06-7.14036E-19-1.62008E-19
 -1      2008 1.09726E-04-3.43812E-05-3.22734E-05-7.12766E-06-6.26857E-19-5.45502E-19
 -1      2009 1.11720E-04-3.46177E-05-3.30163E-05-1.69051E-06-5.11793E-20-8.98508E-20
 -1      2010 1.10867E-04-3.44414E-05-3.27938E-05-2.90537E-06 6.67700E-21 1.54008E-19
 -1      2011 1.10983E-04-3.50257E-05-3.25492E-05-3.77093E-06 7.53198E-20-2.91829E-19
 -1      2012 1.11327E-04-3.41869E-05-3.30444E-05 6.98633E-07 8.02895E-19 4.06864E-19
 -1      2013 1.11302E-04-3.43320E-05-3.30250E-05-3.02390E-07 6.32184E-19 2.06818E-19
 -1      2014 1.10849E-04-3.47166E-05-3.26330E-05-5.48747E-07 3.55099E-19 1.99795E-19
 -1      2015 1.09965E-04-3.34374E-05-3.27931E-05 2.25467E-06-1.72967E-19-6.37194E-19
 -1      2016 1.10545E-04-3.37613E-05-3.29357E-05 1.59325E-06 2.00985E-19-2.37457E-19
 -1      2017 1.09732E-04-3.38976E-05-3.25079E-05 1.85024E-06 5.52176E-19-2.87604E-19
 -1      2018 1.08089E-04-3.26009E-05-3.23543E-05 3.03494E-06-1.47042E-18 4.84384E-19
 -1      2019 1.09022E-04-3.29951E-05-3.26001E-05 2.69294E-06-1.24763E-18-4.58407E-19
 -1      2020 1.08065E-04-3.29274E-05-3.22079E-05 3.28076E-06-1.05035E-18-1.07226E-18
 -1      2021 1.06040E-04-3.18037E-05-3.18208E-05 3.24053E-06-3.19129E-19 1.03944E-18
 -1      2022 1.07118E-04-3.22008E-05-3.21148E-05 3.13770E-06-6.42610E-19 8.95976E-19
 -1      2023 1.06180E-04-3.20068E-05-3.17924E-05 3.89494E-06-1.02839E-18 5.24037E-19
 -1      2024 1.04043E-04-3.11014E-05-3.12668E-05 3.08447E-06 2.95790E-19 1.29214E-18
 -1      2025 1.05123E-04-3.14653E-05-3.15674E-05 3.13429E-06 2.52191E-20 1.05581E-18
 -1      2026 1.04298E-04-3.12163E-05-3.13232E-05 3.93823E-06-8.35354E-20 1.56862E-19
 -1      2027 1.02229E-04-3.05101E-05-3.07417E-05 2.73662E-06 6.51206E-19 1.60574E-18
 -1      2028 1.03223E-04-3.08251E-05-3.10227E-05 2.86930E-06 6.15522E-19 1.46166E-18
 -1      2029 1.02552E-04-3.05713E-05-3.08504E-05 3.63944E-06 5.49127E-19 1.09779E-18
 -1      2030 1.00656E-04-3.00273E-05-3.02736E-05 2.31335E-06 1.12258E-19 9.19616E-19
 -1      2031 1.01522E-04-3.02894E-05-3.05209E-05 2.48054E-06 2.84117E-19 1.31190E-18
 -1      2032 1.01009E-04-3.00596E-05-3.04080E-05 3.17159E-06 6.35364E-19 1.02599E-18
 -1      2033 9.93425E-05-2.96422E-05-2.98743E-05 1.88586E-06-2.38395E-19 1.63628E-18
 -1      2034 1.00066E-04-2.98538E-05-3.00828E-05 2.05757E-06-7.57797E-20 1.76078E-18
 -1      2035 9.96938E-05-2.96606E-05-3.00155E-05 2.64964E-06 2.84964E-20 7.84760E-19
 -1      2036 9.82760E-05-2.93411E-05-2.95452E-05 1.49285E-06 2.63320E-19 1.73019E-18
 -1      2037 9.88616E-05-2.95076E-05-2.97151E-05 1.65246E-06 3.32253E-19 1.46387E-18
 -1      2038 9.86059E-05-2.93537E-05-2.96809E-05 2.14214E-06 4.32763E-19 1.90068E-18
 -1      2039 9.74315E-05-2.91100E-05-2.92815E-05 1.15189E-06-8.84507E-19 1.29940E-18
 -1      2040 9.78931E-05-2.92382E-05-2.94162E-05 1.29154E-06-2.74846E-19 1.36211E-18
 -1      2041 9.77281E-05-2.91207E-05-2.94047E-05 1.68506E-06-1.79353E-19 1.23449E-18
 -1      2042 9.67780E-05-2.89361E-05-2.90754E-05 8.67745E-07 4.57669E-19 7.49306E-19
 -1      2043 9.71330E-05-2.90326E-05-2.91796E-05 9.84975E-07-2.95714E-19 1.08678E-18
 -1      2044 9.70356E-05-2.89462E-05-2.91827E-05 1.29342E-06 1.41602E-19 6.85804E-19
 -1      2045 9.62832E-05-2.88079E-05-2.89180E-05 6.38139E-07 1.20088E-18 3.05790E-19
 -1      2046 9.65501E-05-2.88788E-05-2.89967E-05 7.33505E-07 9.29633E-19 6.72096E-19
 -1      2047 9.65006E-05-2.88176E-05-2.90085E-05 9.69770E-07 1.16767E-18 2.36454E-19
 -1      2048 9.59169E-05-2.87154E-05-2.88004E-05 4.57253E-07-3.73050E-20 1.03619E-18
 -1      2049 9.61128E-05-2.87663E-05-2.88585E-05 5.32873E-07 7.03500E-19 1.01452E-18
 -1      2050 9.60960E-05-2.87247E-05-2.88748E-05 7.09804E-07 5.39297E-19 9.28570E-19
 -1      2051 9.56523E-05-2.86505E-05-2.87147E-05 3.17921E-07 1.08589E-18 6.82804E-19
 -1      2052 9.57924E-05-2.86860E-05-2.87565E-05 3.76555E-07 1.28070E-19 6.10922E-19
 -1      2053 9.57965E-05-2.86591E-05-2.87744E-05 5.05967E-07 5.02432E-19 3.43796E-19
 -1      2054 9.54664E-05-2.86064E-05-2.86539E-05 2.12855E-07 4.31329E-19 4.72867E-19
 -1      2055 9.55635E-05-2.86303E-05-2.86831E-05 2.57380E-07 5.93208E-19 8.96904E-19
 -1      2056 9.55801E-05-2.86140E-05-2.87008E-05 3.49585E-07 7.70698E-19 1.43357E-18
 -1      2057 9.53402E-05-2.85777E-05-2.86121E-05 1.35297E-07-1.83485E-19-2.83206E-21
 -1      2058 9.54051E-05-2.85931E-05-2.86317E-05 1.68421E-07 1.77073E-19 2.79731E-19
 -1      2059 9.54280E-05-2.85843E-05-2.86482E-05 2.32097E-07 4.96247E-19 1.17472E-18
 -1      2060 9.52585E-05-2.85604E-05-2.85846E-05 7.93172E-08 1.49173E-20 6.66147E-19
 -1      2061 9.52995E-05-2.85695E-05-2.85971E-05 1.03443E-07 2.83847E-21 1.08407E-20
 -1      2062 9.53248E-05-2.85658E-05-2.86117E-05 1.45685E-07-1.17845E-19 9.10030E-19
 -1      2063 9.52093E-05-2.85509E-05-2.85675E-05 3.99118E-08-1.00765E-18 8.29591E-19
 -1      2064 9.52331E-05-2.85557E-05-2.85750E-05 5.70842E-08-6.58571E-19-1.37291E-19
 -1      2065 9.52579E-05-2.85553E-05-2.85875E-05 8.35562E-08-3.69836E-19-2.19825E-19
 -1      2066 9.51830E-05-2.85470E-05-2.85580E-05 1.29834E-08-1.89893E-19 2.30413E-18
 -1      2067 9.51947E-05-2.85487E-05-2.85618E-05 2.48897E-08-1.87407E-19 1.69505E-18
 -1      2068 9.52176E-05-2.85503E-05-2.85722E-05 4.00168E-08-1.09520E-18 9.31887E-19
 -1      2069 9.51727E-05-2.85468E-05-2.85537E-05-4.72847E-09 1.01025E-19 2.25084E-18
 -1      2070 9.51761E-05-2.85466E-05-2.85550E-05 3.26308E-09-2.51222E-20 2.01247E-18
 -1      2071 9.51961E-05-2.85491E-05-2.85634E-05 1.04364E-08 3.42259E-20 2.57343E-18
 -1      2072 9.51730E-05-2.85490E-05-2.85529E-05-1.57392E-08-1.56121E-20 2.54546E-18
 -1      2073 9.51710E-05-2.85475E-05-2.85526E-05-1.06146E-08 2.03398E-19 1.95951E-18
 -1      2074 9.51877E-05-2.85503E-05-2.85592E-05-8.84202E-09 3.43289E-19 2.87703E-18
 -1      2075 9.51800E-05-2.85526E-05-2.85544E-05-2.19110E-08 2.93211E-20 1.42667E-18
 -1      2076 9.51747E-05-2.85503E-05-2.85531E-05-1.88763E-08-1.39639E-19 2.69138E-18
 -1      2077 9.51879E-05-2.85531E-05-2.85580E-05-2.06106E-08 2.64646E-19 2.66234E-18
 -1      2078 9.51908E-05-2.85570E-05-2.85572E-05-2.45304E-08 1.35972E-18-3.21450E-19
 -1      2079 9.51837E-05-2.85543E-05-2.85554E-05-2.30530E-08 1.20795E-18 1.30830E-18
 -1      2080 9.51936E-05-2.85568E-05-2.85588E-05-2.69004E-08 1.30496E-18 2.35293E-18
 -1      2081 9.52031E-05-2.85616E-05-2.85606E-05-2.43626E-08 1.96222E-18-3.53133E-19
 -1      2082 9.51955E-05-2.85589E-05-2.85585E-05-2.41410E-08 1.35306E-18-2.79018E-19
 -1      2083 9.52024E-05-2.85610E-05-2.85607E-05-2.90724E-08 1.17490E-18-4.59890E-19
 -1      2084 9.52154E-05-2.85663E-05-2.85639E-05-2.16992E-08 4.67997E-19 6.45688E-19
 -1      2085 9.52081E-05-2.85636E-05-2.85619E-05-2.26514E-08 1.24854E-18 4.14314E-19
 -1      2086 9.52123E-05-2.85653E-05-2.85631E-05-2.78762E-08 1.14147E-18-3.13815E-20
 -1      2087 9.52260E-05-2.85706E-05-2.85666E-05-1.64205E-08 5.45969E-19 2.05401E-18
 -1      2088 9.52200E-05-2.85683E-05-2.85651E-05-1.87171E-08 1.91080E-19 1.17322E-18
 -1      2089 9.52222E-05-2.85698E-05-2.85653E-05-2.36337E-08-1.61286E-19 2.58326E-18
 -1      2090 9.52330E-05-2.85738E-05-2.85683E-05-1.06248E-08-2.57913E-19 2.41765E-18
 -1      2091 9.52286E-05-2.85720E-05-2.85672E-05-1.41621E-08 1.33826E-18 3.40626E-18
 -1      2092 9.52296E-05-2.85735E-05-2.85669E-05-1.82225E-08 5.44249E-19 4.55763E-18
 -1      2093 9.52346E-05-2.85765E-05-2.85677E-05-1.29180E-08 2.90394E-19 3.96468E-18
 -1      2094 9.52477E-05-2.86026E-05-2.85621E-05-2.16920E-08-9.62438E-20 5.44820E-19
 -1      2095 9.52452E-05-2.85970E-05-2.85635E-05-2.22200E-08-9.99556E-19 1.52171E-18
 -1      2096 9.52430E-05-2.85930E-05-2.85643E-05-2.21360E-08-6.86080E-19 3.67886E-19
 -1      2097 9.52403E-05-2.85874E-05-2.85656E-05-2.10418E-08-2.77190E-19-8.06276E-20
 -1      2098 9.52429E-05-2.85915E-05-2.85649E-05-2.73655E-08-8.27923E-19 1.28197E-18
 -1      2099 9.52386E-05-2.85845E-05-2.85661E-05-1.90416E-08-2.25152E-19-5.34081E-19
 -1      2100 9.52361E-05-2.85796E-05-2.85672E-05-1.61661E-08 7.13208E-19 1.26301E-18
 -1      2101 9.52341E-05-2.85783E-05-2.85668E-05-1.92568E-08 5.04862E-19 2.03346E-18
 -1      2102 9.52383E-05-2.85845E-05-2.85659E-05-2.49925E-08-3.43835E-19-5.43678E-19
 -1      2103 9.52513E-05-2.86109E-05-2.85601E-05-1.86744E-08-1.71276E-18-2.39885E-18
 -1      2104 9.52493E-05-2.86060E-05-2.85614E-05-2.02546E-08-5.30379E-19-1.99436E-18
 -1      2105 9.52476E-05-2.85991E-05-2.85637E-05-2.57718E-08-1.11445E-18-1.04464E-18
 -1      2106 9.52540E-05-2.86175E-05-2.85584E-05-1.38831E-08-1.06296E-18-8.03274E-19
 -1      2107 9.52525E-05-2.86136E-05-2.85594E-05-1.61702E-08-1.76001E-18 1.43572E-19
 -1      2108 9.52511E-05-2.86054E-05-2.85625E-05-2.13844E-08-1.26865E-18-1.52831E-18
 -1      2109 9.52556E-05-2.86218E-05-2.85573E-05-8.07095E-09 4.52553E-19 2.06061E-19
 -1      2110 9.52547E-05-2.86194E-05-2.85579E-05-1.07401E-08 8.62855E-20-5.54130E-19
 -1      2111 9.52535E-05-2.86102E-05-2.85615E-05-1.51112E-08 1.58756E-19 2.14265E-19
 -1      2112 9.52563E-05-2.86236E-05-2.85568E-05-1.76404E-09-9.61048E-19-3.52898E-19
 -1      2113 9.52560E-05-2.86227E-05-2.85570E-05-4.60070E-09 2.32937E-19 1.44879E-19
 -1      2114 9.52548E-05-2.86131E-05-2.85608E-05-7.77810E-09 4.83887E-19-1.72178E-19
 -1      2115 9.52560E-05-2.86227E-05-2.85570E-05 4.64559E-09-8.19561E-19-7.51278E-19
 -1      2116 9.52563E-05-2.86236E-05-2.85568E-05 1.80721E-09-1.01431E-18-3.71244E-19
 -1      2117 9.52553E-05-2.86141E-05-2.85606E-05 2.48103E-11-1.42797E-18-5.56688E-19
 -1      2118 9.52547E-05-2.86193E-05-2.85579E-05 1.07935E-08-1.13078E-18 4.36712E-19
 -1      2119 9.52556E-05-2.86218E-05-2.85573E-05 8.12083E-09-1.35841E-18-6.24942E-19
 -1      2120 9.52548E-05-2.86131E-05-2.85608E-05 7.83368E-09-5.57509E-19-8.34485E-19
 -1      2121 9.52525E-05-2.86137E-05-2.85594E-05 1.61491E-08-1.37409E-18-1.98797E-18
 -1      2122 9.52540E-05-2.86175E-05-2.85584E-05 1.38952E-08-1.25227E-18 4.85793E-20
 -1      2123 9.52535E-05-2.86102E-05-2.85615E-05 1.51235E-08-1.03837E-18-5.96036E-20
 -1      2124 9.52493E-05-2.86060E-05-2.85614E-05 2.02861E-08 4.84882E-19 3.03619E-18
 -1      2125 9.52513E-05-2.86110E-05-2.85601E-05 1.86752E-08-1.63292E-19 6.77698E-19
 -1      2126 9.52511E-05-2.86055E-05-2.85625E-05 2.13698E-08-2.13976E-19-3.21247E-19
 -1      2127 9.52451E-05-2.85969E-05-2.85635E-05 2.22587E-08 7.07808E-19 1.40332E-18
 -1      2128 9.52476E-05-2.86025E-05-2.85622E-05 2.17474E-08 7.11270E-19 1.36969E-18
 -1      2129 9.52476E-05-2.85991E-05-2.85637E-05 2.58268E-08 9.66932E-19 2.74431E-18
 -1      2130 9.52400E-05-2.85872E-05-2.85656E-05 2.12482E-08-3.90719E-19 3.91086E-19
 -1      2131 9.52431E-05-2.85930E-05-2.85643E-05 2.21670E-08-4.23846E-20 6.76685E-19
 -1      2132 9.52429E-05-2.85914E-05-2.85649E-05 2.73821E-08-2.79545E-19 5.78671E-19
 -1      2133 6.11431E-05-4.02893E-05-9.38939E-06 4.05729E-05 4.44269E-18 2.22523E-18
 -1      2134 4.62249E-05-4.01552E-05-3.37624E-06 3.54534E-05 3.30639E-18 2.28381E-18
 -1      2135 1.20657E-05-3.53262E-05 8.38945E-06 5.28176E-06 2.82538E-18 4.84206E-18
 -1      2136 1.20009E-05-3.53899E-05 8.43310E-06-4.12799E-06 1.14593E-18 4.84969E-18
 -1      2137 2.60302E-05-3.34898E-05 2.26645E-06 2.64524E-05 2.21796E-18 3.82012E-18
 -1      2138 1.75101E-05-3.73256E-05 6.69474E-06 1.49745E-05 2.30351E-18 4.98648E-18
 -1      2139 1.65713E-05-2.61984E-05 3.42833E-06 1.30286E-05 5.26431E-19 4.87298E-18
 -1      2140 9.81005E-05-4.16091E-05-2.41076E-05 4.25462E-05 5.21518E-18 2.33993E-18
 -1      2141 7.88709E-05-4.41696E-05-1.59203E-05 3.80630E-05 4.90009E-18 2.02102E-18
 -1      2142 1.45799E-04-4.39413E-05-4.29993E-05 2.81930E-05-5.79646E-18-2.29080E-18
 -1      2143 1.30413E-04-4.69707E-05-3.59595E-05 2.76785E-05-4.99284E-18-2.92523E-18
 -1      2144 1.76164E-04-2.21571E-05-6.52638E-05-3.51964E-06-6.11515E-18 2.15316E-18
 -1      2145 1.81672E-04-2.40809E-05-6.63351E-05 2.66161E-06-6.27651E-18 6.31198E-19
 -1      2146 1.35117E-04-4.17083E-05-3.96072E-05 3.46621E-05 4.72729E-18 1.12444E-18
 -1      2147 1.13770E-04-4.18904E-05-3.13170E-05 3.56580E-05 5.22365E-18 2.32976E-18
 -1      2148 8.72372E-05-8.16011E-06-3.39917E-05-7.40954E-06-1.31042E-18-3.55943E-18
 -1      2149 8.85874E-05-8.93902E-06-3.42077E-05-8.88944E-06-1.67309E-18-3.17702E-18
 -1      2150 9.13778E-05-1.28066E-05-3.37218E-05-8.48386E-06-1.84906E-18-2.77169E-18
 -1      2151 8.81396E-05-1.00087E-05-3.35040E-05-6.19907E-06-1.28157E-18-3.47974E-18
 -1      2152 1.80677E-04-2.85848E-05-6.37861E-05 9.77242E-06 5.20968E-18-2.39710E-18
 -1      2153 1.70617E-04-2.96545E-05-5.95263E-05 1.74405E-05 5.12116E-18-8.06375E-19
 -1      2154 1.84044E-04-2.48434E-05-6.67279E-05-2.30726E-06 4.97208E-18-3.40121E-18
 -1      2155 1.80319E-04-2.40670E-05-6.57973E-05 4.80768E-06 5.34393E-18-2.45894E-18
 -1      2156 1.78085E-04-2.73486E-05-6.34566E-05-1.37789E-05 5.68147E-18-5.48835E-18
 -1      2157 1.85745E-04-2.74643E-05-6.62896E-05-6.11203E-06 5.45150E-18-3.73203E-18
 -1      2158 1.58172E-04-3.32586E-05-5.31370E-05-2.24772E-05 5.37580E-18-6.46964E-18
 -1      2159 1.73439E-04-3.25763E-05-5.90031E-05-1.79157E-05 5.19379E-18-5.66411E-18
 -1      2160 1.31274E-04-4.10319E-05-3.89351E-05-3.08486E-05 4.50262E-18-6.39679E-18
 -1      2161 1.50761E-04-3.91283E-05-4.68917E-05-3.06024E-05 5.16097E-18-6.34851E-18
 -1      2162 9.44651E-05-4.39417E-05-2.25598E-05-3.80834E-05 3.34959E-18-6.63566E-18
 -1      2163 1.15598E-04-4.27277E-05-3.09774E-05-4.07514E-05 3.85188E-18-7.31244E-18
 -1      2164 5.90434E-05-4.33169E-05-8.11793E-06-3.63118E-05 1.90794E-18-5.92277E-18
 -1      2165 7.60007E-05-4.07886E-05-1.54046E-05-4.26796E-05 3.18611E-18-6.84530E-18
 -1      2166 3.06856E-05-3.85765E-05 2.13016E-06-2.81768E-05 4.97632E-19-5.63827E-18
 -1      2167 4.19740E-05-3.83718E-05-2.52929E-06-3.44946E-05 1.98502E-18-5.85946E-18
 -1      2168 1.30697E-05-3.71219E-05 8.44608E-06-7.07459E-06-1.46473E-18-5.86909E-18
 -1      2169 1.74394E-05-3.41334E-05 5.87164E-06-1.71963E-05 2.43522E-20-5.97243E-18
 -1      2170 1.58409E-05-3.47849E-05 6.83464E-06 1.34637E-05-2.97372E-18-5.75855E-18
 -1      2171 1.27297E-05-3.52763E-05 8.19263E-06 3.71848E-06-1.23831E-18-5.85766E-18
 -1      2172 3.54171E-05-3.76168E-05-1.63960E-07 3.08904E-05-5.08389E-18-5.23572E-18
 -1      2173 2.49651E-05-3.99256E-05 4.64425E-06 2.22935E-05-3.70111E-18-4.99008E-18
 -1      2174 7.01758E-05-4.09569E-05-1.30197E-05 4.16007E-05-5.63700E-18-5.05615E-18
 -1      2175 5.35361E-05-4.32599E-05-5.93773E-06 3.46569E-05-4.86620E-18-4.99753E-18
 -1      2176 1.10896E-04-4.64731E-05-2.77558E-05 3.98757E-05-4.77600E-18-4.64513E-18
 -1      2177 8.86564E-05-4.53677E-05-1.94820E-05 3.82630E-05-5.40831E-18-5.16182E-18
 -1      2178 9.19426E-05-5.14042E-05-1.73771E-05 4.11596E-05-2.47461E-18-3.27886E-18
 -1      2179 1.83030E-04-2.64573E-05-6.58344E-05 4.59910E-06-6.47176E-18 5.94511E-19
 -1      2180 1.74072E-04-2.60002E-05-6.26748E-05 1.06546E-05-7.41408E-18-6.35698E-19
 -1      2181 1.58990E-04-1.37386E-05-6.11529E-05-4.53440E-07-7.13286E-18 6.18334E-20
 -1      2182 1.68834E-04-3.01624E-05-5.87381E-05-1.43599E-05-5.94469E-18 4.52993E-18
 -1      2183 1.76597E-04-2.77943E-05-6.29128E-05-6.36011E-06-5.74288E-18 2.66964E-18
 -1      2184 1.46572E-04-3.83642E-05-4.63695E-05-2.44942E-05-4.73491E-18 4.79378E-18
 -1      2185 1.64315E-04-3.72201E-05-5.35321E-05-2.10741E-05-5.28337E-18 4.12674E-18
 -1      2186 1.16153E-04-4.45353E-05-3.09312E-05-3.42561E-05-3.45547E-18 5.85342E-18
 -1      2187 1.35595E-04-4.14175E-05-3.95917E-05-3.54264E-05-4.29319E-18 6.30701E-18
 -1      2188 7.32862E-05-4.39708E-05-1.38723E-05-3.67854E-05-9.91029E-19 7.44860E-18
 -1      2189 9.49749E-05-4.40050E-05-2.21933E-05-4.10515E-05-2.41193E-18 7.13032E-18
 -1      2190 4.38337E-05-3.98744E-05-2.49699E-06-3.42005E-05 5.31513E-19 6.84434E-18
 -1      2191 5.72582E-05-4.03206E-05-7.97161E-06-3.86057E-05-1.06599E-18 8.26514E-18
 -1      2192 7.75732E-05-4.79485E-05-1.31330E-05-4.15587E-05 1.20279E-18 6.94347E-18
 -1      2193 1.70582E-05-3.72498E-05 6.85582E-06-1.36901E-05 1.50412E-18 4.90983E-18
 -1      2194 2.50384E-05-3.34481E-05 2.65916E-06-2.49933E-05 8.48727E-19 5.76131E-18
 -1      2195 1.62339E-05-2.60349E-05 3.50695E-06-1.15372E-05 4.71797E-19 5.44769E-18
 -1      2196 1.64862E-04-3.58080E-05-5.41000E-05 2.12618E-05 4.64288E-18-6.19181E-19
 -1      2197 1.47585E-04-3.74865E-05-4.71106E-05 2.23211E-05 4.88452E-18 2.27005E-19
 -1      2198 1.50987E-04-4.51247E-05-4.51268E-05 9.13099E-06-5.04915E-18 4.35375E-19
 -1      2199 1.60437E-04-2.63728E-05-5.65143E-05 9.33142E-07-7.26479E-18 6.74662E-19
 -1      2200 1.00592E-04-2.53422E-05-3.23110E-05-7.43838E-06-2.32320E-18 5.55812E-19
 -1      2201 9.95114E-05-2.39532E-05-3.24586E-05-7.19182E-06-2.39724E-18-5.24393E-19
 -1      2202 4.07716E-05-3.59570E-05-2.49428E-06 3.40017E-05 1.18161E-18 2.86107E-18
 -1      2203 3.64953E-05-2.89518E-05-2.88889E-06 3.27541E-05-6.84614E-19 3.05567E-18
 -1      2204 5.59610E-05-3.80444E-05-7.96758E-06 4.05778E-05-7.34166E-19 1.63975E-18
 -1      2205 8.27748E-05-4.90035E-05-1.48487E-05 4.18790E-05 1.73218E-18 9.86952E-19
 -1      2206 9.52379E-05-2.85833E-05-2.85663E-05 2.10300E-08-5.69939E-19 1.49653E-19
 -1      2207 1.45343E-04-4.63109E-05-4.18716E-05 1.70231E-05 3.90916E-18-1.27902E-18
 -1      2208 1.17926E-04-5.27251E-05-2.77585E-05 3.35690E-05 3.09760E-18 1.04185E-19
 -1      2209 1.28634E-04-5.48401E-05-3.13441E-05 2.80174E-05-3.11750E-18-1.69301E-18
 -1      2210 3.86140E-05-3.55906E-05-1.79758E-06-3.24039E-05 7.97058E-19 6.41416E-18
 -1      2211 5.28207E-05-3.72435E-05-7.01134E-06-3.91177E-05 1.34212E-18 7.06277E-18
 -1      2212 3.45287E-05-2.82127E-05-2.37375E-06-3.10652E-05 6.71274E-19 6.17296E-18
 -1      2213 1.13176E-04-5.06103E-05-2.68646E-05-3.46679E-05-1.62842E-18 5.20565E-18
 -1      2214 1.28560E-04-5.76018E-05-3.11562E-05-2.58926E-05 1.10961E-19 2.74439E-18
 -1      2215 1.10732E-04-5.55632E-05-2.32053E-05-3.49557E-05 7.98117E-19 4.40023E-18
 -1      2216 1.45980E-04-4.78602E-05-4.14884E-05-1.56490E-05-2.46063E-18 2.24548E-18
 -1      2217 5.38146E-05-4.14938E-05-5.84228E-06 3.94395E-05-1.95749E-18-4.23485E-18
 -1      2218 2.40531E-05-2.99783E-05 1.77139E-06 2.29070E-05-1.03211E-18-5.88603E-18
 -1      2219 1.44312E-05-2.52564E-05 3.95464E-06-1.68426E-06-5.61503E-19-6.56196E-18
 -1      2220 2.78562E-05-3.32083E-05 1.60528E-06-2.57355E-05-2.20017E-19-5.91441E-18
 -1      2221 3.81968E-05-3.10978E-05-3.39234E-06-3.49221E-05-1.02724E-18-5.23424E-18
 -1      2222 2.47758E-05-2.45089E-05 1.44255E-08-2.33231E-05-5.15525E-19-5.92076E-18
 -1      2223 6.12410E-05-4.33599E-05-8.11283E-06-4.14306E-05-2.10911E-19-5.60693E-18
 -1      2224 1.59414E-04-1.77924E-05-5.97942E-05 2.03372E-06-6.20875E-18 1.26356E-18
 -1      2225 9.87075E-05-5.19583E-05-2.00778E-05-4.02178E-05 5.69206E-19-5.46866E-18
 -1      2226 1.32855E-04-5.18150E-05-3.43598E-05-2.69706E-05 1.64536E-18-4.59685E-18
 -1      2227 1.53207E-04-4.03620E-05-4.76018E-05-1.04708E-05 3.30081E-18-3.19416E-18
 -1      2228 1.62465E-04-2.52859E-05-5.76409E-05-2.64209E-06 5.19358E-18-3.18019E-18
 -1      2229 1.63843E-04-1.54530E-05-6.22846E-05-8.45390E-07 5.64802E-18-2.41044E-18
 -1      2230 1.63240E-04-1.82788E-05-6.09208E-05 1.26722E-07 5.52477E-18-2.09132E-18
 -1      2231 1.57455E-04-3.29351E-05-5.24771E-05-1.41273E-06-4.49838E-18 1.24599E-18
 -1      2232 1.58371E-04-3.14124E-05-5.36517E-05 3.03672E-06 5.04472E-18-2.09048E-18
 -1      2233 9.93965E-05-2.73624E-05-3.08466E-05 8.65566E-07 1.86231E-18 1.70301E-18
 -1      2234 9.98132E-05-2.67404E-05-3.12436E-05 2.84526E-06 2.16780E-18 2.05482E-18
 -1      2235 8.43098E-05-8.12241E-06-3.26911E-05-1.78802E-06 3.36592E-20-3.61443E-18
 -1      2236 8.50549E-05-8.64515E-06-3.27723E-05-2.48498E-06-2.88655E-19-3.62152E-18
 -1      2237 8.60575E-05-9.53532E-06-3.28442E-05-3.04127E-06-5.30766E-19-3.60479E-18
 -1      2238 8.71672E-05-1.03611E-05-3.29489E-05-3.88353E-06-8.62213E-19-3.52783E-18
 -1      2239 8.65268E-05-1.07734E-05-3.24576E-05-2.14249E-06-4.13345E-19-3.35816E-18
 -1      2240 8.32029E-05-7.24137E-06-3.25810E-05 2.32991E-07 9.79380E-19-3.31190E-18
 -1      2241 8.31706E-05-7.21629E-06-3.25795E-05-3.46496E-07 7.27751E-19-3.44300E-18
 -1      2242 8.38705E-05-7.75137E-06-3.26461E-05 1.26243E-06 1.45289E-18-3.13720E-18
 -1      2243 8.34512E-05-7.46016E-06-3.26006E-05 6.37533E-07 1.19408E-18-3.20638E-18
 -1      2244 8.41304E-05-8.80474E-06-3.22754E-05 2.86465E-07 1.03621E-18-3.03258E-18
 -1      2245 8.52802E-05-8.86049E-06-3.27764E-05 2.45657E-06 1.92363E-18-2.82430E-18
 -1      2246 8.45135E-05-8.31544E-06-3.26967E-05 1.73685E-06 1.64439E-18-3.02660E-18
 -1      2247 8.50655E-05-9.58240E-06-3.23433E-05 1.10269E-06 1.47514E-18-2.87652E-18
 -1      2248 8.74254E-05-1.06248E-05-3.29474E-05 3.94103E-06 2.45406E-18-2.14114E-18
 -1      2249 8.63073E-05-9.78320E-06-3.28456E-05 3.06015E-06 2.11440E-18-2.57331E-18
 -1      2250 8.67987E-05-1.10490E-05-3.24578E-05 2.11021E-06 1.93315E-18-2.47664E-18
 -1      2251 9.02588E-05-1.31270E-05-3.31084E-05 5.69580E-06 2.81283E-18-1.38919E-18
 -1      2252 8.88051E-05-1.19220E-05-3.30102E-05 4.66490E-06 2.51725E-18-1.81879E-18
 -1      2253 8.92758E-05-1.32331E-05-3.25804E-05 3.34745E-06 2.39628E-18-1.81540E-18
 -1      2254 9.38096E-05-1.65898E-05-3.31830E-05 7.52271E-06 3.04306E-18-3.62689E-19
 -1      2255 9.19853E-05-1.48618E-05-3.31216E-05 6.44588E-06 2.86028E-18-9.40789E-19
 -1      2256 9.23966E-05-1.61879E-05-3.26409E-05 4.69193E-06 2.61996E-18-9.96385E-19
 -1      2257 9.91317E-05-2.56107E-05-3.14596E-05-2.32897E-06-1.83399E-18-8.41137E-19
 -1      2258 9.89593E-05-2.64208E-05-3.10866E-05-1.38835E-07-1.63792E-18-8.79880E-19
 -1      2259 1.48926E-04-2.09232E-05-5.53265E-05-5.84660E-06-6.77648E-18 1.60534E-18
 -1      2260 1.48635E-04-3.01703E-05-5.10525E-05-4.84330E-06-6.27609E-18 2.24781E-18
 -1      2261 9.94674E-05-2.83381E-05-3.04562E-05-2.03776E-06 1.41284E-18 1.27023E-18
 -1      2262 9.93995E-05-2.79390E-05-3.05541E-05-8.44148E-07 1.56828E-18 1.60145E-18
 -1      2263 9.89202E-05-2.65076E-05-3.10512E-05 3.23368E-07 1.94509E-18 7.81828E-19
 -1      2264 9.74775E-05-2.04905E-05-3.30314E-05-8.31662E-06-2.33310E-18-1.37581E-18
 -1      2265 9.83779E-05-2.38743E-05-3.19443E-05-4.31704E-06-2.10341E-18-1.11119E-18
 -1      2266 9.73234E-05-2.26576E-05-3.19955E-05-3.48789E-06-1.90816E-18-1.47916E-18
 -1      2267 9.49963E-05-1.77427E-05-3.31301E-05-7.75366E-06-2.19372E-18-1.97859E-18
 -1      2268 9.91262E-05-2.71144E-05-3.08056E-05 1.58450E-06-1.37222E-18-7.28295E-19
 -1      2269 9.92697E-05-2.76217E-05-3.06919E-05 2.98862E-06-1.11087E-18-8.21906E-19
 -1      2270 9.81942E-05-2.54475E-05-3.11918E-05 5.40404E-07-1.54283E-18-1.20215E-18
 -1      2271 9.94696E-05-2.80486E-05-3.05702E-05 4.26926E-06-1.01405E-18-7.28959E-19
 -1      2272 9.99553E-05-2.85092E-05-3.06061E-05 5.22384E-06-7.88354E-19-8.26474E-19
 -1      2273 9.85707E-05-2.68648E-05-3.07515E-05 3.77213E-06-1.11188E-18-1.06581E-18
 -1      2274 1.00344E-04-2.89176E-05-3.05849E-05 6.14793E-06-6.34585E-19-8.15065E-19
 -1      2275 1.01127E-04-2.94568E-05-3.07082E-05 6.75574E-06-5.03047E-19-8.19244E-19
 -1      2276 9.91993E-05-2.79396E-05-3.05618E-05 6.14849E-06-7.93176E-19-9.28476E-19
 -1      2277 1.01775E-04-2.99853E-05-3.07451E-05 7.34277E-06-3.31281E-19-8.45944E-19
 -1      2278 1.02801E-04-3.06854E-05-3.09106E-05 7.58327E-06-2.09353E-19-8.02539E-19
 -1      2279 1.00269E-04-2.90997E-05-3.05249E-05 7.79702E-06-5.40835E-19-1.10532E-18
 -1      2280 1.03778E-04-3.14438E-05-3.09766E-05 7.76355E-06-4.07175E-19-7.90470E-19
 -1      2281 1.04991E-04-3.23604E-05-3.11486E-05 7.52838E-06-3.46732E-19-9.04386E-19
 -1      2282 1.01919E-04-3.06510E-05-3.05718E-05 8.68287E-06-3.50846E-19-1.00493E-18
 -1      2283 1.06372E-04-3.34285E-05-3.12310E-05 7.14457E-06-1.18773E-19-1.02209E-18
 -1      2284 1.07682E-04-3.45547E-05-3.13850E-05 6.27289E-06-1.60253E-19-9.33150E-19
 -1      2285 1.04298E-04-3.28301E-05-3.06657E-05 8.59350E-06-3.19697E-19-1.20807E-18
 -1      2286 1.09497E-04-3.59157E-05-3.14980E-05 5.10177E-06-3.98522E-19-6.60001E-19
 -1      2287 1.10732E-04-3.70900E-05-3.16295E-05 3.45626E-06-8.03090E-19-2.96117E-19
 -1      2288 1.07524E-04-3.57212E-05-3.08178E-05 7.15374E-06-1.50686E-19-1.27124E-18
 -1      2289 1.12834E-04-3.84916E-05-3.18272E-05 1.30262E-06-7.71190E-19 5.44698E-20
 -1      2290 1.13673E-04-3.92748E-05-3.19648E-05-1.06978E-06-7.36201E-19 2.26721E-19
 -1      2291 1.11505E-04-3.90069E-05-3.11146E-05 3.91638E-06-5.72508E-19-1.81726E-19
 -1      2292 1.15551E-04-4.00787E-05-3.23430E-05-4.11255E-06-6.56523E-19 5.73405E-19
 -1      2293 1.15552E-04-3.97436E-05-3.25450E-05-6.73302E-06-5.71042E-19 6.96919E-19
 -1      2294 1.15596E-04-4.15897E-05-3.17368E-05-1.32470E-06-4.47103E-19 6.56572E-19
 -1      2295 1.16329E-04-3.90191E-05-3.31944E-05-9.86454E-06-9.91833E-19 1.02791E-18
 -1      2296 1.15165E-04-3.69225E-05-3.35186E-05-1.16341E-05-1.28954E-18 8.99423E-19
 -1      2297 1.18383E-04-4.15530E-05-3.29104E-05-7.82495E-06-7.78169E-19 1.52011E-18
 -1      2298 1.14072E-04-3.41090E-05-3.44251E-05-1.30347E-05-1.69615E-18 2.43113E-19
 -1      2299 1.12095E-04-3.06712E-05-3.48317E-05-1.24833E-05-1.75419E-18-2.16360E-19
 -1      2300 1.18051E-04-3.68837E-05-3.47437E-05-1.30503E-05-1.76894E-18 1.39244E-18
 -1      2301 1.09884E-04-2.70331E-05-3.56897E-05-1.02972E-05-2.06343E-18-1.15094E-18
 -1      2302 1.08322E-04-2.42901E-05-3.59905E-05-6.89729E-06-2.58512E-18-1.35416E-18
 -1      2303 1.14487E-04-2.86141E-05-3.68627E-05-1.27622E-05-2.72816E-18 1.59732E-19
 -1      2304 1.07233E-04-2.26499E-05-3.63398E-05-1.52669E-06-2.62056E-18-2.15400E-18
 -1      2305 1.07366E-04-2.28000E-05-3.63418E-05 3.15180E-06-2.21044E-18-2.37795E-18
 -1      2306 1.10852E-04-2.18394E-05-3.83213E-05-4.85076E-06-2.97663E-18-1.23341E-18
 -1      2307 1.08678E-04-2.46918E-05-3.59622E-05 8.35270E-06-1.59343E-18-3.15663E-18
 -1      2308 1.10424E-04-2.76040E-05-3.56763E-05 1.15777E-05-1.15607E-18-3.42085E-18
 -1      2309 1.11101E-04-2.21501E-05-3.82784E-05 6.60073E-06-2.34639E-18-2.86150E-18
 -1      2310 1.12692E-04-3.12918E-05-3.48202E-05 1.34583E-05-5.56157E-19-3.83976E-18
 -1      2311 1.14741E-04-3.47019E-05-3.44498E-05 1.38003E-05-1.81053E-20-3.77724E-18
 -1      2312 1.15003E-04-2.92791E-05-3.67699E-05 1.39859E-05-9.99300E-19-3.80551E-18
 -1      2313 1.15732E-04-3.73586E-05-3.35854E-05 1.22006E-05 1.23275E-19-3.75994E-18
 -1      2314 1.16905E-04-3.93342E-05-3.33051E-05 1.03440E-05 4.98499E-19-3.81666E-18
 -1      2315 1.18493E-04-3.74474E-05-3.46930E-05 1.37150E-05-2.52283E-19-3.67270E-18
 -1      2316 1.16073E-04-3.99253E-05-3.26957E-05 7.19298E-06 8.60238E-19-3.43443E-18
 -1      2317 1.16097E-04-4.01726E-05-3.25318E-05 4.58864E-06 1.45928E-18-3.06164E-18
 -1      2318 1.18631E-04-4.17034E-05-3.29478E-05 8.31408E-06 8.84271E-19-2.72383E-18
 -1      2319 1.14213E-04-3.92968E-05-3.21880E-05 1.62486E-06 1.31337E-18-2.94686E-18
 -1      2320 1.13436E-04-3.84954E-05-3.20821E-05-6.71464E-07 1.12038E-18-2.88894E-18
 -1      2321 1.15778E-04-4.15100E-05-3.18495E-05 1.88623E-06 1.37388E-18-2.17666E-18
 -1      2322 1.11385E-04-3.71013E-05-3.19036E-05-2.72591E-06 1.61878E-18-2.23904E-18
 -1      2323 1.10240E-04-3.59681E-05-3.17945E-05-4.29566E-06 2.23303E-18-1.71699E-18
 -1      2324 1.11735E-04-3.88411E-05-3.12803E-05-3.15894E-06 1.81684E-18-1.76250E-18
 -1      2325 1.08482E-04-3.46565E-05-3.16835E-05-5.40906E-06 1.98987E-18-1.54814E-18
 -1      2326 1.07261E-04-3.36042E-05-3.15407E-05-6.24503E-06 1.20765E-18-1.64724E-18
 -1      2327 1.07874E-04-3.56351E-05-3.09995E-05-6.24667E-06 2.13901E-18-1.27312E-18
 -1      2328 1.05912E-04-3.26062E-05-3.14387E-05-6.64261E-06 4.09899E-19-1.42299E-18
 -1      2329 1.04762E-04-3.17824E-05-3.12602E-05-6.91340E-06 1.30560E-19-1.54976E-18
 -1      2330 1.04747E-04-3.29032E-05-3.08207E-05-7.66152E-06 1.15615E-18-1.79635E-18
 -1      2331 1.03770E-04-3.11094E-05-3.11456E-05-6.85046E-06-1.41465E-19-1.95250E-18
 -1      2332 1.02745E-04-3.05183E-05-3.09451E-05-6.75337E-06-1.89338E-19-2.02699E-18
 -1      2333 1.02402E-04-3.09406E-05-3.06464E-05-7.91487E-06-2.31775E-19-1.42664E-18
 -1      2334 1.02018E-04-3.00998E-05-3.08167E-05-6.43186E-06-1.60316E-19-2.45353E-18
 -1      2335 1.01132E-04-2.96950E-05-3.06110E-05-6.13022E-06 3.28225E-20-1.42498E-18
 -1      2336 1.00682E-04-2.96736E-05-3.04449E-05-7.46394E-06-5.27832E-19-1.04460E-18
 -1      2337 1.00588E-04-2.94509E-05-3.04762E-05-5.68931E-06 6.46238E-19-1.15374E-18
 -1      2338 9.98373E-05-2.91802E-05-3.02794E-05-5.29839E-06 5.72765E-19-7.98172E-20
 -1      2339 9.94097E-05-2.89212E-05-3.02179E-05-6.64394E-06 4.23138E-19-1.18871E-18
 -1      2340 9.94202E-05-2.90464E-05-3.01467E-05-4.82601E-06-2.68480E-19-5.30942E-19
 -1      2341 9.87960E-05-2.88677E-05-2.99683E-05-4.41848E-06-4.74524E-19-7.32271E-20
 -1      2342 9.84494E-05-2.85103E-05-2.99802E-05-5.67824E-06-2.02689E-19-6.87199E-19
 -1      2343 9.84695E-05-2.88000E-05-2.98446E-05-3.96564E-06-7.00582E-19-4.03369E-19
 -1      2344 9.79589E-05-2.86829E-05-2.96893E-05-3.58259E-06-7.02214E-19-8.07784E-19
 -1      2345 9.77080E-05-2.83100E-05-2.97471E-05-4.70450E-06-8.26510E-19-1.84504E-19
 -1      2346 9.77004E-05-2.86531E-05-2.95788E-05-3.17565E-06-9.41961E-19-1.28694E-18
 -1      2347 9.72896E-05-2.85771E-05-2.94480E-05-2.83708E-06-3.46770E-19-1.29509E-18
 -1      2348 9.71266E-05-2.82323E-05-2.95306E-05-3.80017E-06-9.73669E-19-2.00851E-19
 -1      2349 9.70845E-05-2.85682E-05-2.93527E-05-2.48684E-06-1.12466E-19-9.59545E-19
 -1      2350 9.67595E-05-2.85197E-05-2.92454E-05-2.19975E-06 8.34054E-20-9.03423E-19
 -1      2351 9.66675E-05-2.82219E-05-2.93378E-05-3.00293E-06-5.97242E-19-3.05777E-19
 -1      2352 9.65975E-05-2.85219E-05-2.91656E-05-1.90773E-06 1.10970E-19-1.18624E-18
 -1      2353 9.63448E-05-2.84919E-05-2.90796E-05-1.67166E-06-1.30875E-19-4.72139E-19
 -1      2354 9.63051E-05-2.82459E-05-2.91718E-05-2.32553E-06 3.66751E-21-1.78231E-19
 -1      2355 9.62180E-05-2.84993E-05-2.90143E-05-1.43427E-06-6.49241E-19-1.46144E-19
 -1      2356 9.60249E-05-2.84817E-05-2.89468E-05-1.24485E-06-3.00598E-19-2.60466E-19
 -1      2357 9.60211E-05-2.82850E-05-2.90329E-05-1.76605E-06-2.34962E-19-2.01124E-19
 -1      2358 9.59270E-05-2.84913E-05-2.88946E-05-1.05594E-06-1.68484E-19-4.93225E-19
 -1      2359 9.57822E-05-2.84820E-05-2.88427E-05-9.07112E-07 2.38917E-20-7.91642E-19
 -1      2360 9.58010E-05-2.83287E-05-2.89194E-05-1.31458E-06-2.40767E-19 6.64545E-19
 -1      2361 9.57077E-05-2.84919E-05-2.88017E-05-7.59659E-07-3.23693E-19-1.10467E-18
 -1      2362 9.56014E-05-2.84881E-05-2.87626E-05-6.44946E-07-7.56570E-19-1.55351E-18
 -1      2363 9.56327E-05-2.83712E-05-2.88286E-05-9.57604E-07-3.57854E-19-1.70962E-19
 -1      2364 9.55458E-05-2.84975E-05-2.87310E-05-5.31936E-07 2.19806E-19-1.41017E-18
 -1      2365 9.54695E-05-2.84972E-05-2.87022E-05-4.45141E-07 5.07758E-19-4.19444E-19
 -1      2366 9.55063E-05-2.84098E-05-2.87575E-05-6.80574E-07-1.70829E-19-4.10429E-19
 -1      2367 9.54288E-05-2.85057E-05-2.86784E-05-3.60092E-07-1.47355E-19-4.56301E-19
 -1      2368 9.53755E-05-2.85074E-05-2.86575E-05-2.95645E-07 8.45413E-20-4.48695E-19
 -1      2369 9.54131E-05-2.84435E-05-2.87028E-05-4.69449E-07 5.22889E-19-5.73807E-19
 -1      2370 9.53465E-05-2.85148E-05-2.86399E-05-2.32837E-07-8.60010E-20-1.29054E-18
 -1      2371 9.53107E-05-2.85177E-05-2.86253E-05-1.85931E-07-4.33736E-19-1.62689E-18
 -1      2372 9.53460E-05-2.84719E-05-2.86615E-05-3.11470E-07-5.40785E-19-1.58400E-18
 -1      2373 9.52906E-05-2.85240E-05-2.86126E-05-1.40486E-07 6.46409E-19-2.27155E-18
 -1      2374 9.52676E-05-2.85275E-05-2.86027E-05-1.07097E-07 1.34617E-18-1.72259E-18
 -1      2375 9.52990E-05-2.84953E-05-2.86311E-05-1.95515E-07-1.02931E-19-1.98661E-18
 -1      2376 9.52542E-05-2.85327E-05-2.85938E-05-7.49707E-08 9.13940E-19-1.34213E-18
 -1      2377 9.52406E-05-2.85363E-05-2.85874E-05-5.18221E-08 2.58585E-20-5.93794E-19
 -1      2378 9.52672E-05-2.85143E-05-2.86091E-05-1.12192E-07 1.25734E-18-1.30583E-18
 -1      2379 9.52322E-05-2.85406E-05-2.85813E-05-2.97426E-08 6.27010E-19 6.55258E-19
 -1      2380 9.52252E-05-2.85442E-05-2.85775E-05-1.42270E-08 1.53141E-18 1.25962E-18
 -1      2381 9.52468E-05-2.85295E-05-2.85937E-05-5.37806E-08 1.41075E-18 1.16605E-19
 -1      2382 9.52204E-05-2.85477E-05-2.85735E-05 3.83900E-10 8.88602E-19 2.10791E-18
 -1      2383 9.52179E-05-2.85511E-05-2.85714E-05 1.02806E-08 1.83395E-18 2.15946E-18
 -1      2384 9.52346E-05-2.85415E-05-2.85831E-05-1.40891E-08 1.85537E-18 2.37405E-18
 -1      2385 9.52156E-05-2.85539E-05-2.85690E-05 1.93951E-08 2.46974E-18 1.14697E-18
 -1      2386 9.52162E-05-2.85571E-05-2.85681E-05 2.51727E-08 1.88980E-18 1.69725E-19
 -1      2387 9.52283E-05-2.85511E-05-2.85762E-05 1.17101E-08 9.19990E-19 8.55163E-19
 -1      2388 9.52156E-05-2.85596E-05-2.85667E-05 3.02420E-08 3.54456E-19-7.56984E-19
 -1      2389 9.52180E-05-2.85626E-05-2.85666E-05 3.29581E-08-4.27590E-19-1.67978E-19
 -1      2390 9.52261E-05-2.85587E-05-2.85719E-05 2.72590E-08 8.21760E-19-1.64356E-19
 -1      2391 9.52186E-05-2.85648E-05-2.85658E-05 3.49839E-08 2.59420E-19-2.10346E-20
 -1      2392 9.52220E-05-2.85677E-05-2.85661E-05 3.53096E-08-6.49546E-19 7.96713E-19
 -1      2393 9.52267E-05-2.85652E-05-2.85693E-05 3.51890E-08-1.26775E-20 4.73536E-19
 -1      2394 9.52234E-05-2.85700E-05-2.85657E-05 3.49465E-08-2.04094E-18 1.31258E-18
 -1      2395 9.52271E-05-2.85728E-05-2.85661E-05 3.32090E-08-2.27942E-18 1.84049E-18
 -1      2396 9.52290E-05-2.85711E-05-2.85678E-05 3.72727E-08-6.39366E-19-7.20811E-20
 -1      2397 1.01321E-04-2.99084E-05-3.05976E-05-5.10561E-06 5.79691E-19 4.53593E-19
 -1      2398 1.00530E-04-2.94446E-05-3.04371E-05-4.67864E-06 7.46193E-19 8.86215E-19
 -1      2399 1.02951E-04-3.09113E-05-3.08804E-05-5.58935E-06 4.07239E-19 3.42581E-19
 -1      2400 1.01974E-04-3.03479E-05-3.06785E-05-5.49057E-06 4.03470E-19 3.39358E-19
 -1      2401 1.00941E-04-2.97548E-05-3.05296E-05-6.07593E-06 6.48561E-19 1.96240E-20
 -1      2402 1.04878E-04-3.21540E-05-3.11914E-05-5.27002E-06 3.46703E-19 6.18748E-19
 -1      2403 1.03836E-04-3.14901E-05-3.09919E-05-5.57169E-06 4.33799E-19 5.67449E-19
 -1      2404 1.02537E-04-3.10165E-05-3.06722E-05-6.53716E-06 3.18388E-19 1.63678E-19
 -1      2405 1.06926E-04-3.36058E-05-3.14667E-05-3.94350E-06-7.08100E-20 8.36234E-19
 -1      2406 1.05969E-04-3.28895E-05-3.13085E-05-4.74419E-06 8.42335E-20 8.41175E-19
 -1      2407 1.04583E-04-3.26300E-05-3.08568E-05-6.04480E-06 5.01073E-20 4.27168E-19
 -1      2408 1.08823E-04-3.50745E-05-3.16666E-05-1.43396E-06-2.76483E-19 1.05289E-18
 -1      2409 1.08149E-04-3.44449E-05-3.15792E-05-2.78804E-06-1.62495E-19 1.06837E-18
 -1      2410 1.06986E-04-3.45565E-05-3.10578E-05-4.35998E-06-2.24841E-19 6.93099E-19
 -1      2411 1.10144E-04-3.61039E-05-3.17933E-05 2.19523E-06 2.97345E-19 1.01524E-18
 -1      2412 1.09996E-04-3.58297E-05-3.17851E-05 3.93304E-07 8.70922E-20 1.09617E-18
 -1      2413 1.09491E-04-3.64926E-05-3.12909E-05-1.29330E-06 1.29503E-20 5.88554E-19
 -1      2414 1.10318E-04-3.59639E-05-3.19025E-05 6.32966E-06 5.03124E-19 1.07668E-18
 -1      2415 1.10920E-04-3.64061E-05-3.19522E-05 4.48467E-06 2.71620E-19 1.03606E-18
 -1      2416 1.11545E-04-3.77231E-05-3.16210E-05 3.03104E-06 3.74076E-19 4.33751E-19
 -1      2417 1.08863E-04-3.39754E-05-3.20781E-05 9.54663E-06 6.73950E-19 1.36824E-18
 -1      2418 1.10247E-04-3.53571E-05-3.21412E-05 8.41099E-06 4.89595E-19 1.30884E-18
 -1      2419 1.12290E-04-3.71924E-05-3.21415E-05 7.76419E-06 2.26609E-19 8.67043E-19
 -1      2420 1.05971E-04-3.02994E-05-3.23642E-05 9.89793E-06 6.95159E-19 1.60342E-18
 -1      2421 1.07750E-04-3.23136E-05-3.23970E-05 1.03035E-05 8.63979E-19 1.59177E-18
 -1      2422 1.10990E-04-3.41405E-05-3.28910E-05 1.10206E-05 4.95481E-19 1.01884E-18
 -1      2423 1.02934E-04-2.65071E-05-3.26905E-05 6.13633E-06 7.91896E-19 9.72261E-19
 -1      2424 1.04317E-04-2.81922E-05-3.26882E-05 8.38207E-06 8.31369E-19 1.37333E-18
 -1      2425 1.07960E-04-2.92030E-05-3.37565E-05 1.04953E-05 7.80911E-19 8.39659E-19
 -1      2426 1.01780E-04-2.50438E-05-3.28752E-05-7.44674E-07 7.45971E-19-1.73476E-20
 -1      2427 1.01972E-04-2.53067E-05-3.28612E-05 2.52924E-06 6.30126E-19 5.10026E-19
 -1      2428 1.05058E-04-2.49014E-05-3.44182E-05 5.05323E-06 1.15445E-18 3.21129E-19
 -1      2429 1.03508E-04-2.69985E-05-3.28351E-05-7.44705E-06 1.45487E-18-7.17675E-19
 -1      2430 1.02374E-04-2.56783E-05-3.28063E-05-4.71089E-06 1.00901E-18-3.43998E-19
 -1      2431 1.04606E-04-2.41730E-05-3.45411E-05-3.21529E-06 1.09439E-18-1.81718E-19
 -1      2432 1.07053E-04-3.10568E-05-3.26339E-05-1.08657E-05 1.29826E-18-3.69928E-19
 -1      2433 1.05176E-04-2.89790E-05-3.25769E-05-9.81636E-06 1.55677E-18-1.65999E-19
 -1      2434 1.07035E-04-2.75269E-05-3.40867E-05-9.97734E-06 1.39113E-18-6.40392E-19
 -1      2435 1.10248E-04-3.46928E-05-3.24241E-05-1.01319E-05-1.43539E-19-3.60363E-19
 -1      2436 1.08535E-04-3.30191E-05-3.23266E-05-1.07990E-05 6.05296E-19-1.73003E-19
 -1      2437 1.10481E-04-3.26823E-05-3.33016E-05-1.22321E-05 6.96685E-19-1.71077E-19
 -1      2438 1.11752E-04-3.64518E-05-3.22906E-05-6.73698E-06-4.83543E-19-9.67772E-19
 -1      2439 1.10725E-04-3.56765E-05-3.21881E-05-8.36954E-06-7.53376E-19-7.28650E-19
 -1      2440 1.12594E-04-3.65600E-05-3.25431E-05-1.00068E-05-5.62317E-20-1.00158E-18
 -1      2441 1.11523E-04-3.64075E-05-3.21916E-05-2.61643E-06 6.09169E-20-7.80082E-19
 -1      2442 1.11280E-04-3.64334E-05-3.21358E-05-4.41766E-06 1.84825E-20-6.60709E-19
 -1      2443 1.12630E-04-3.79080E-05-3.20031E-05-5.60816E-06-3.79671E-19-1.38383E-18
 -1      2444 1.10132E-04-3.52954E-05-3.20636E-05 8.88088E-07 3.52233E-19-3.80745E-19
 -1      2445 1.10499E-04-3.57795E-05-3.20857E-05-5.79309E-07 1.18793E-19-7.11066E-19
 -1      2446 1.11071E-04-3.72035E-05-3.16601E-05-1.07250E-06 8.15137E-20-1.31308E-18
 -1      2447 1.08209E-04-3.38435E-05-3.18611E-05 3.25606E-06 1.08285E-19 6.72647E-20
 -1      2448 1.08950E-04-3.44803E-05-3.19656E-05 2.29487E-06 7.94275E-19 3.52438E-19
 -1      2449 1.08778E-04-3.54728E-05-3.14305E-05 2.42757E-06 3.43507E-19-5.48299E-19
 -1      2450 1.06175E-04-3.24796E-05-3.15761E-05 4.51704E-06-1.38977E-18-3.15009E-19
 -1      2451 1.07093E-04-3.30926E-05-3.17458E-05 4.02838E-06-6.17973E-19-2.71266E-19
 -1      2452 1.06404E-04-3.35802E-05-3.12262E-05 4.60293E-06-2.99362E-19 2.77606E-19
 -1      2453 1.04250E-04-3.13689E-05-3.12290E-05 4.92851E-06-6.42441E-19-3.49058E-19
 -1      2454 1.05206E-04-3.18865E-05-3.14378E-05 4.79479E-06-1.35374E-18-4.52847E-19
 -1      2455 1.04264E-04-3.19642E-05-3.09992E-05 5.62724E-06-1.04917E-18-7.93238E-19
 -1      2456 1.02526E-04-3.05290E-05-3.08517E-05 4.78210E-06-1.04799E-19-6.01363E-19
 -1      2457 1.03438E-04-3.09382E-05-3.10742E-05 4.87681E-06-1.02789E-19-6.31578E-19
 -1      2458 1.02448E-04-3.07495E-05-3.07386E-05 5.82071E-06-2.88103E-19-1.79611E-18
 -1      2459 1.01033E-04-2.99182E-05-3.04744E-05 4.32022E-06 5.38600E-19 6.14728E-20
 -1      2460 1.01855E-04-3.02305E-05-3.06912E-05 4.54020E-06-3.11343E-20-4.19495E-19
 -1      2461 1.00946E-04-2.99037E-05-3.04550E-05 5.49212E-06-2.11631E-20-1.52101E-18
 -1      2462 9.97700E-05-2.94831E-05-3.01201E-05 3.71620E-06 5.24361E-19-5.43012E-19
 -1      2463 1.00482E-04-2.97167E-05-3.03185E-05 3.98878E-06 1.07471E-18-2.06064E-19
 -1      2464 9.97160E-05-2.93436E-05-3.01664E-05 4.88259E-06 7.76112E-19-1.35448E-18
 -1      2465 9.87227E-05-2.91763E-05-2.98030E-05 3.08156E-06-5.01534E-19 4.85340E-19
 -1      2466 9.93199E-05-2.93488E-05-2.99764E-05 3.36088E-06-2.72505E-19 2.50216E-19
 -1      2467 9.87142E-05-2.89858E-05-2.98895E-05 4.15948E-06-3.29515E-19-8.07124E-19
 -1      2468 9.78699E-05-2.89617E-05-2.95297E-05 2.48117E-06-1.85652E-20 1.41302E-18
 -1      2469 9.83577E-05-2.90875E-05-2.96758E-05 2.74125E-06-1.21569E-19 7.71706E-19
 -1      2470 9.79032E-05-2.87641E-05-2.96362E-05 3.42850E-06-5.31662E-19 4.88823E-20
 -1      2471 9.71875E-05-2.88127E-05-2.93013E-05 1.94788E-06 2.05118E-19 1.65356E-19
 -1      2472 9.75769E-05-2.89034E-05-2.94210E-05 2.17617E-06 6.65458E-19 1.20316E-18
 -1      2473 9.72519E-05-2.86312E-05-2.94135E-05 2.75003E-06 3.01102E-19 4.20657E-19
 -1      2474 9.66511E-05-2.87106E-05-2.91155E-05 1.49424E-06 7.44750E-19-4.29663E-19
 -1      2475 9.69553E-05-2.87748E-05-2.92110E-05 1.68657E-06-2.12858E-19 3.67435E-20
 -1      2476 9.67345E-05-2.85552E-05-2.92238E-05 2.15363E-06 5.20957E-19-2.11530E-19
 -1      2477 9.62369E-05-2.86418E-05-2.89677E-05 1.12068E-06 1.08671E-18 2.83313E-19
 -1      2478 9.64697E-05-2.86864E-05-2.90422E-05 1.27773E-06 1.11147E-18 3.13865E-19
 -1      2479 9.63287E-05-2.85149E-05-2.90667E-05 1.64934E-06 4.90811E-19-3.53001E-19
 -1      2480 9.59230E-05-2.85968E-05-2.88527E-05 8.21085E-07 6.85335E-19 7.13896E-19
 -1      2481 9.60974E-05-2.86269E-05-2.89096E-05 9.46076E-07 9.77991E-19 2.04703E-19
 -1      2482 9.60152E-05-2.84967E-05-2.89395E-05 1.23555E-06 1.01535E-18 7.47029E-19
 -1      2483 9.56899E-05-2.85685E-05-2.87652E-05 5.86215E-07 2.08615E-19 9.49611E-19
 -1      2484 9.58176E-05-2.85880E-05-2.88076E-05 6.83484E-07 2.05631E-19 9.31795E-19
 -1      2485 9.57768E-05-2.84919E-05-2.88389E-05 9.04398E-07 3.32873E-19 1.78982E-18
 -1      2486 9.55206E-05-2.85519E-05-2.86999E-05 4.05908E-07 5.33113E-19 2.01484E-18
 -1      2487 9.56118E-05-2.85639E-05-2.87309E-05 4.80038E-07 4.72482E-19 1.91122E-18
 -1      2488 9.55989E-05-2.84948E-05-2.87610E-05 6.45126E-07-3.39448E-19 1.72687E-18
 -1      2489 9.54007E-05-2.85434E-05-2.86524E-05 2.70278E-07 4.17790E-19 2.29927E-18
 -1      2490 9.54640E-05-2.85500E-05-2.86744E-05 3.25624E-07 1.02277E-18 2.32347E-18
 -1      2491 9.54687E-05-2.85019E-05-2.87018E-05 4.46246E-07 9.60996E-19 2.61542E-18
 -1      2492 9.53187E-05-2.85402E-05-2.86187E-05 1.70354E-07-3.73484E-20 1.28477E-18
 -1      2493 9.53608E-05-2.85432E-05-2.86338E-05 2.10805E-07-8.79006E-20 1.73130E-18
 -1      2494 9.53759E-05-2.85108E-05-2.86578E-05 2.96718E-07 8.49669E-19 2.29986E-18
 -1      2495 9.52649E-05-2.85405E-05-2.85957E-05 9.83564E-08-3.19514E-19 8.26755E-19
 -1      2496 9.52914E-05-2.85411E-05-2.86056E-05 1.27245E-07 4.95292E-19 1.22264E-18
 -1      2497 9.53116E-05-2.85202E-05-2.86259E-05 1.86589E-07 4.43060E-19 2.78345E-18
 -1      2498 9.52318E-05-2.85430E-05-2.85805E-05 4.77733E-08-1.58664E-18 1.29438E-18
 -1      2499 9.52471E-05-2.85420E-05-2.85867E-05 6.78611E-08-1.81570E-18 2.46677E-19
 -1      2500 9.52687E-05-2.85293E-05-2.86034E-05 1.07259E-07-6.49563E-19 1.84373E-18
 -1      2501 9.52135E-05-2.85466E-05-2.85712E-05 1.33109E-08 1.72221E-19 1.84546E-18
 -1      2502 9.52209E-05-2.85448E-05-2.85747E-05 2.68194E-08-2.45964E-19 1.29237E-18
 -1      2503 9.52418E-05-2.85377E-05-2.85880E-05 5.15475E-08-6.92055E-19 7.03836E-19
 -1      2504 9.52055E-05-2.85509E-05-2.85661E-05-9.20825E-09 5.51503E-19 1.62072E-18
 -1      2505 9.52076E-05-2.85485E-05-2.85676E-05-5.45157E-10 3.64146E-19 1.61666E-18
 -1      2506 9.52262E-05-2.85452E-05-2.85780E-05 1.36305E-08-2.15442E-19 6.38467E-19
 -1      2507 9.52046E-05-2.85554E-05-2.85638E-05-2.29679E-08 3.44858E-19 2.30093E-18
 -1      2508 9.52031E-05-2.85528E-05-2.85641E-05-1.78493E-08 6.41328E-19 2.42901E-18
 -1      2509 9.52188E-05-2.85518E-05-2.85719E-05-1.10730E-08 2.30872E-19-1.87721E-20
 -1      2510 9.52080E-05-2.85600E-05-2.85633E-05-3.02797E-08 2.34593E-18 2.04424E-18
 -1      2511 9.52044E-05-2.85573E-05-2.85628E-05-2.77858E-08 1.37821E-18 2.67666E-18
 -1      2512 9.52168E-05-2.85577E-05-2.85684E-05-2.60418E-08 9.06306E-19 9.37225E-19
 -1      2513 9.52139E-05-2.85646E-05-2.85640E-05-3.26910E-08 5.85664E-19 1.10455E-18
 -1      2514 9.52093E-05-2.85619E-05-2.85631E-05-3.22425E-08 1.78704E-18 1.83617E-18
 -1      2515 9.52184E-05-2.85630E-05-2.85668E-05-3.37950E-08 2.06897E-18 2.83861E-18
 -1      2516 9.52211E-05-2.85694E-05-2.85650E-05-3.11074E-08 6.30794E-19 8.96481E-19
 -1      2517 9.52161E-05-2.85666E-05-2.85641E-05-3.24321E-08 6.41883E-19 5.75694E-19
 -1      2518 9.52223E-05-2.85681E-05-2.85662E-05-3.60407E-08 9.27331E-19 1.47219E-18
 -1      2519 9.52284E-05-2.85742E-05-2.85662E-05-2.59619E-08-9.81475E-19 2.12812E-18
 -1      2520 9.52237E-05-2.85714E-05-2.85653E-05-2.88794E-08-5.17982E-19 1.55573E-18
 -1      2521 9.52275E-05-2.85734E-05-2.85661E-05-3.38601E-08-8.72626E-19 1.97940E-18
 -1      2522 9.52313E-05-2.85764E-05-2.85664E-05-2.17153E-08-3.40085E-19 1.65365E-18
 -1      2523 9.52522E-05-2.86006E-05-2.85649E-05-2.20299E-08-4.78886E-19-5.67995E-19
 -1      2524 9.52504E-05-2.85978E-05-2.85653E-05-2.48916E-08-2.36163E-19-3.14741E-18
 -1      2525 9.52543E-05-2.86037E-05-2.85645E-05-1.47136E-08 5.62637E-19 1.54457E-18
 -1      2526 9.52532E-05-2.86018E-05-2.85648E-05-1.83162E-08 7.64946E-20 1.79722E-18
 -1      2527 9.52528E-05-2.85946E-05-2.85678E-05-2.19231E-08 1.30520E-18 7.29219E-19
 -1      2528 9.52437E-05-2.85901E-05-2.85658E-05-3.05379E-08 1.35100E-19 1.32123E-18
 -1      2529 9.52403E-05-2.85859E-05-2.85662E-05-3.05465E-08 4.18933E-19 1.54382E-19
 -1      2530 9.52487E-05-2.85961E-05-2.85654E-05-2.76405E-08-1.14880E-18-2.10500E-18
 -1      2531 9.52462E-05-2.85925E-05-2.85658E-05-2.92722E-08-1.24831E-18 2.11847E-19
 -1      2532 9.52442E-05-2.85872E-05-2.85673E-05-3.28052E-08 8.60527E-20-7.87008E-19
 -1      2533 9.52494E-05-2.85916E-05-2.85676E-05-2.86342E-08-5.35961E-19-1.48825E-18
 -1      2534 9.52554E-05-2.86053E-05-2.85642E-05-6.49528E-09 2.94805E-19-9.90171E-19
 -1      2535 9.52549E-05-2.86044E-05-2.85644E-05-1.04773E-08 5.97553E-19-2.11453E-19
 -1      2536 9.52547E-05-2.85965E-05-2.85678E-05-1.36579E-08 9.23516E-19 4.59612E-19
 -1      2537 9.52555E-05-2.86056E-05-2.85642E-05 2.07068E-09-6.13370E-20-4.14158E-19
 -1      2538 9.52555E-05-2.86056E-05-2.85642E-05-2.02852E-09-4.03099E-19-9.89245E-19
 -1      2539 9.52556E-05-2.85973E-05-2.85678E-05-4.61939E-09 9.99426E-19-1.62051E-18
 -1      2540 9.52549E-05-2.86044E-05-2.85644E-05 1.05300E-08 1.80124E-19-9.55367E-19
 -1      2541 9.52554E-05-2.86054E-05-2.85642E-05 6.54249E-09-5.33966E-20-5.53758E-19
 -1      2542 9.52556E-05-2.85974E-05-2.85678E-05 4.65742E-09 5.13096E-19-1.29854E-20
 -1      2543 9.52533E-05-2.86019E-05-2.85648E-05 1.82642E-08-2.57945E-19-1.09525E-18
 -1      2544 9.52543E-05-2.86038E-05-2.85645E-05 1.47112E-08 1.92535E-19-1.05292E-18
 -1      2545 9.52548E-05-2.85965E-05-2.85678E-05 1.36413E-08 6.11097E-19-1.40008E-18
 -1      2546 9.52505E-05-2.85979E-05-2.85653E-05 2.48875E-08 5.63373E-19 1.82189E-18
 -1      2547 9.52522E-05-2.86007E-05-2.85649E-05 2.19988E-08-2.79885E-19-8.93114E-19
 -1      2548 9.52528E-05-2.85947E-05-2.85678E-05 2.18804E-08 3.67693E-19-7.97171E-19
 -1      2549 9.52462E-05-2.85926E-05-2.85658E-05 2.93374E-08-3.19032E-20 1.55408E-18
 -1      2550 9.52487E-05-2.85961E-05-2.85653E-05 2.76612E-08-2.75144E-19 2.90234E-18
 -1      2551 9.52495E-05-2.85917E-05-2.85676E-05 2.87183E-08 2.90538E-19 9.41988E-19
 -1      2552 9.52403E-05-2.85859E-05-2.85662E-05 3.04442E-08-1.44593E-18-3.90861E-19
 -1      2553 9.52436E-05-2.85900E-05-2.85658E-05 3.06078E-08-7.14363E-19 5.52408E-19
 -1      2554 9.52444E-05-2.85873E-05-2.85673E-05 3.28694E-08-1.00119E-18 5.14093E-19
 -1      2555 9.87739E-05-5.28329E-05-1.96568E-05 4.03298E-05 1.00098E-18 6.51633E-19
 -1      2556 8.05849E-05-4.73609E-05-1.40634E-05 4.14380E-05 3.80741E-19 7.03514E-19
 -1      2557 9.52350E-05-2.85810E-05-2.85660E-05 2.55593E-08-8.08007E-19 1.13170E-18
 -1      2558 1.45911E-04-4.66032E-05-4.30424E-05 4.42128E-06 3.17351E-18-2.13008E-18
 -1      2559 1.38084E-04-5.28957E-05-3.66229E-05 1.42755E-05 2.79219E-18-2.03013E-18
 -1      2560 1.00122E-04-2.90917E-05-3.04227E-05-3.93551E-06 9.54841E-19 9.84105E-19
 -1      2561 9.96307E-05-2.86966E-05-3.03545E-05-3.18304E-06 1.22249E-18 1.16740E-18
 -1      2562 9.98221E-05-2.87440E-05-3.04842E-05-4.81289E-06 1.07620E-18 3.30657E-19
 -1      2563 2.30259E-05-2.11139E-05-6.49053E-07 1.95194E-05-6.47239E-19 4.09964E-18
 -1      2564 1.77260E-05-1.95902E-05 8.68820E-07 6.76247E-06-6.56927E-19 4.47572E-18
 -1      2565 1.36355E-04-5.75197E-05-3.41665E-05 1.81737E-05-2.21234E-18 5.00808E-19
 -1      2566 1.21511E-04-5.83221E-05-2.69991E-05 2.89092E-05-1.39062E-18-1.23879E-18
 -1      2567 1.28717E-04-5.65906E-05-3.11664E-05 2.60740E-05 2.13939E-18-1.51174E-18
 -1      2568 1.14627E-04-5.64846E-05-2.49517E-05 3.16669E-05 1.32116E-18-9.16596E-19
 -1      2569 9.53316E-05-5.29189E-05-1.80918E-05-3.96813E-05-1.20533E-18-4.33046E-18
 -1      2570 1.12506E-04-5.63479E-05-2.42668E-05-3.63588E-05-6.68309E-19-4.15237E-18
 -1      2571 8.33480E-05-7.36231E-06-3.25969E-05-7.37145E-07 5.49756E-19-3.50536E-18
 -1      2572 8.37098E-05-7.60708E-06-3.26401E-05-1.34156E-06 2.69824E-19-3.59478E-18
 -1      2573 8.48615E-05-9.38495E-06-3.23396E-05-1.21585E-06 1.69418E-19-3.39144E-18
 -1      2574 8.40526E-05-8.73103E-06-3.22733E-05-4.45442E-07 5.69160E-19-3.30981E-18
 -1      2575 1.46598E-04-1.29010E-05-5.77273E-05-3.99059E-06 5.11735E-18-1.25641E-18
 -1      2576 1.48593E-04-1.86828E-05-5.59161E-05-4.95367E-06 5.06970E-18-1.46219E-18
 -1      2577 1.50252E-04-1.44360E-05-5.83872E-05 2.44345E-06 5.41762E-18-1.39040E-18
 -1      2578 1.47497E-04-1.10595E-05-5.88259E-05 6.19204E-07 5.44515E-18-1.08855E-18
 -1      2579 1.49102E-04-2.68160E-05-5.26970E-05 3.23323E-06 4.00774E-18-1.09310E-18
 -1      2580 1.52047E-04-2.05122E-05-5.66078E-05 3.34453E-06 4.86536E-18-1.69491E-18
 -1      2581 1.44817E-04-4.60799E-05-4.24880E-05-4.29660E-06 1.22942E-18-9.27289E-19
 -1      2582 1.49112E-04-3.86435E-05-4.77659E-05 2.74301E-07 2.45851E-18-4.35163E-19
 -1      2583 1.27167E-04-5.68727E-05-3.01366E-05-2.50585E-05-4.38975E-19-2.89961E-18
 -1      2584 1.39804E-04-5.41243E-05-3.71041E-05-1.69499E-05 4.80585E-19-1.98036E-18
 -1      2585 1.46303E-04-1.87006E-05-5.50095E-05 6.91871E-06-5.23805E-18-6.98802E-20
 -1      2586 1.44862E-04-1.28223E-05-5.70766E-05 4.54971E-06-6.10203E-18-1.58819E-20
 -1      2587 5.89103E-05-3.96530E-05-8.06338E-06-4.03833E-05-1.36648E-18-4.85689E-18
 -1      2588 7.58271E-05-4.57322E-05-1.29697E-05-4.42571E-05-9.64135E-19-4.79114E-18
 -1      2589 1.88479E-05-1.80892E-05-5.98858E-08 3.83032E-06-2.19699E-20-6.08636E-18
 -1      2590 1.94953E-05-1.96055E-05 3.27439E-07-1.01883E-05-1.02967E-19-6.32395E-18
 -1      2591 3.43619E-05-2.84099E-05-2.55684E-06 3.14380E-05-3.58295E-19-4.90474E-18
 -1      2592 2.43632E-05-2.21985E-05-6.93810E-07 1.98486E-05 2.81533E-19-5.65564E-18
 -1      2593 1.04808E-04-5.52769E-05-2.14332E-05 3.88492E-05-5.98005E-19-2.01234E-18
 -1      2594 8.83169E-05-5.09868E-05-1.58877E-05 4.07631E-05-3.07049E-19-2.23310E-18
 -1      2595 1.44808E-04-1.11570E-05-5.77850E-05-4.91551E-07-6.47853E-18 7.52370E-19
 -1      2596 1.46780E-04-1.37398E-05-5.73290E-05-3.90962E-06-6.86012E-18 8.29033E-19
 -1      2597 1.47525E-04-3.76174E-05-4.73366E-05 4.23353E-06-2.69896E-18-1.83383E-19
 -1      2598 1.48901E-04-2.94779E-05-5.17603E-05 6.66989E-06-3.85315E-18-6.98802E-20
 -1      2599 1.51600E-04-2.67521E-05-5.36889E-05-3.63273E-06 5.27998E-18-1.97676E-18
 -1      2600 1.47396E-04-3.38551E-05-4.89387E-05-2.48074E-06 4.81263E-18-1.64600E-18
 -1      2601 6.87745E-05-4.27041E-05-1.11781E-05 4.32838E-05-1.78089E-19-2.60664E-18
 -1      2602 5.07639E-05-3.59859E-05-6.19740E-06 3.78286E-05 3.30343E-20-3.46902E-18
 -1      2603 1.40000E-04-5.41022E-05-3.68086E-05-1.24159E-05-5.72700E-19 6.44169E-19
 -1      2604 1.46598E-04-4.85675E-05-4.25488E-05-4.97348E-06-1.59856E-18-2.26581E-19
 -1      2605 7.69004E-05-4.60824E-05-1.29864E-05-4.11529E-05 1.80884E-18 5.66617E-18
 -1      2606 9.37007E-05-5.14547E-05-1.79184E-05-4.13524E-05 1.61932E-18 5.29613E-18
 -1      2607 1.86126E-05-1.87743E-05 3.11675E-07-5.08910E-06-1.38053E-19 4.77472E-18
 -1      2608 2.34269E-05-2.02657E-05-1.09321E-06-1.77812E-05 1.64960E-19 5.22492E-18
 -1      2609 9.98291E-05-2.60257E-05-3.16414E-05 4.66196E-06 2.49991E-18 2.31874E-18
 -1      2610 1.00500E-04-2.46519E-05-3.25228E-05 7.86651E-06 2.69701E-18 2.72021E-18
 -1      2611 9.86953E-05-2.20754E-05-3.28931E-05 8.80397E-06 2.95054E-18 1.85148E-18
 -1      2612 9.89626E-05-2.48326E-05-3.18061E-05 4.16735E-06 2.57845E-18 1.22685E-18
 -1      2613 1.49587E-04-4.17216E-05-4.65117E-05-1.56565E-07-5.18919E-18 2.12055E-18
 -1      2614 1.43586E-04-4.91093E-05-4.06908E-05 4.44678E-06-3.73526E-18 1.71439E-18
 -1      2615 1.40512E-04-2.12321E-05-5.13117E-05-9.48172E-06 4.93164E-18-1.22915E-18
 -1      2616 8.89778E-05-1.29059E-05-3.25890E-05-3.27904E-06-9.62514E-19-3.25889E-18
 -1      2617 8.85406E-05-1.16446E-05-3.30171E-05-4.55222E-06-1.06303E-18-3.41066E-18
 -1      2618 8.99774E-05-1.27666E-05-3.31370E-05-5.57413E-06-1.42424E-18-3.21444E-18
 -1      2619 2.43843E-05-1.56508E-05-3.22872E-06 7.44219E-07-1.44116E-18 4.06978E-18
 -1      2620 9.65397E-05-1.95688E-05-3.30332E-05 8.28901E-06 2.97019E-18 7.06174E-19
 -1      2621 1.43303E-04-3.58153E-05-4.63299E-05-8.99205E-06-5.09480E-18 3.45145E-18
 -1      2622 8.45037E-05-4.73714E-05-1.54873E-05 4.08678E-05 1.25763E-18-1.79110E-18
 -1      2623 9.30975E-05-1.59496E-05-3.31106E-05-6.70958E-06-1.82239E-18-2.48894E-18
 -1      2624 1.43583E-04-4.43863E-05-4.26327E-05 5.03668E-06-1.22439E-18-9.50583E-19
 -1      2625 7.25585E-05-4.28752E-05-1.24031E-05 4.17462E-05-4.13352E-19 1.03984E-18
 -1      2626 6.42575E-05-3.63389E-05-1.13910E-05 3.98848E-05-1.59052E-18 1.76119E-18
 -1      2627 8.70821E-05-4.72849E-05-1.69382E-05 3.93574E-05-9.80017E-19 7.90758E-19
 -1      2628 1.35597E-04-5.74861E-05-3.33115E-05 1.39398E-05 1.70995E-18-2.64835E-18
 -1      2629 1.36121E-04-1.13968E-05-5.37975E-05 2.76596E-06-5.92457E-18-5.90805E-20
 -1      2630 9.52330E-05-2.85785E-05-2.85663E-05-2.72517E-08-8.63860E-19 1.97817E-19
 -1      2631 9.52357E-05-2.85816E-05-2.85660E-05-2.92188E-08-5.99431E-19 4.24760E-19
 -1      2632 1.18050E-04-5.90505E-05-2.49304E-05 3.00232E-05 2.62157E-19-7.22572E-19
 -1      2633 1.12223E-04-5.72504E-05-2.33942E-05 3.26073E-05 2.16840E-19-1.10363E-18
 -1      2634 9.52313E-05-2.85767E-05-2.85663E-05 2.85837E-08-3.59508E-19 2.80508E-18
 -1      2635 9.52370E-05-2.85827E-05-2.85661E-05 3.07451E-08-1.37333E-18 2.79598E-19
 -1      2636 9.52372E-05-2.85812E-05-2.85668E-05 3.40263E-08-1.62731E-18 8.36367E-19
 -1      2637 9.52282E-05-2.85744E-05-2.85659E-05 3.17400E-08-1.74065E-18 3.11704E-18
 -1      2638 5.00636E-05-3.06828E-05-7.83536E-06 3.54916E-05 1.24937E-18-3.67485E-18
 -1      2639 1.45021E-04-4.20202E-05-4.43307E-05-3.09171E-06 3.31523E-18-2.01806E-18
 -1      2640 1.39978E-04-4.79344E-05-3.95099E-05-2.57947E-06 2.54973E-18-2.33358E-18
 -1      2641 1.39686E-04-3.64846E-05-4.48848E-05-1.00987E-05 3.70979E-18-2.80040E-18
 -1      2642 9.91818E-05-2.77867E-05-3.06185E-05-2.74586E-06 1.49155E-18 5.00663E-19
 -1      2643 3.35324E-05-2.39211E-05-3.71964E-06 2.67846E-05-1.55272E-18 3.41693E-18
 -1      2644 3.23671E-05-1.83418E-05-5.62277E-06 2.11579E-05-1.88317E-18 3.05567E-18
 -1      2645 4.50230E-05-2.63546E-05-7.71020E-06 3.27594E-05-2.04315E-18 2.78017E-18
 -1      2646 2.56782E-05-1.81388E-05-2.74672E-06 1.20641E-05 6.30775E-19-5.56458E-18
 -1      2647 2.85344E-05-1.38110E-05-5.77942E-06 4.72901E-06 8.27631E-19-5.59868E-18
 -1      2648 3.34368E-05-1.79900E-05-6.34349E-06 1.99610E-05 1.35409E-18-5.16118E-18
 -1      2649 5.40425E-05-3.40158E-05-8.12753E-06-3.84504E-05-1.50052E-18-5.09977E-18
 -1      2650 3.26499E-05-2.27808E-05-3.81907E-06-2.45725E-05 3.73542E-19 5.17198E-18
 -1      2651 4.32788E-05-2.49912E-05-7.53525E-06-3.04802E-05 8.13681E-19 5.78375E-18
 -1      2652 3.34415E-05-1.71783E-05-6.40972E-06-1.89062E-05-4.13564E-19 4.82004E-18
 -1      2653 9.66930E-05-2.07862E-05-3.24901E-05 6.03965E-06 2.77890E-18 4.10871E-19
 -1      2654 6.89801E-05-4.12275E-05-1.15388E-05-4.09277E-05 1.61995E-18 6.34279E-18
 -1      2655 8.31618E-05-4.54833E-05-1.60950E-05-3.91972E-05 2.18672E-18 4.68134E-18
 -1      2656 6.10095E-05-3.45329E-05-1.07331E-05-3.86284E-05 1.68898E-18 6.20833E-18
 -1      2657 1.35579E-04-5.77961E-05-3.30998E-05-1.59187E-05 6.46392E-19 5.31090E-19
 -1      2658 1.08506E-04-5.67993E-05-2.21407E-05-3.39954E-05 2.22431E-18 3.71599E-18
 -1      2659 1.39624E-04-2.37201E-05-5.00131E-05 1.09784E-05-3.82626E-18-1.42513E-18
 -1      2660 1.24123E-04-5.93543E-05-2.75364E-05-2.62636E-05-1.63382E-18-2.23617E-18
 -1      2661 1.41304E-04-5.22689E-05-3.81436E-05-5.04493E-06-3.50764E-19 4.07635E-19
 -1      2662 1.43140E-04-3.28963E-05-4.74669E-05 8.13943E-06 2.06041E-18 6.31251E-19
 -1      2663 2.81044E-05-1.97462E-05-3.19101E-06-1.72653E-05-4.52739E-19-6.08699E-18
 -1      2664 9.21602E-05-5.07403E-05-1.74129E-05-4.04187E-05-2.02356E-18-4.06952E-18
 -1      2665 1.41096E-04-5.53987E-05-3.67538E-05 8.30525E-06-2.73851E-18 1.60322E-18
 -1      2666 1.34966E-04-5.86287E-05-3.26720E-05 1.21190E-05-1.39554E-18 1.76966E-18
 -1      2667 1.40033E-04-5.10311E-05-3.84691E-05-1.90261E-06-2.94143E-18 3.06732E-18
 -1      2668 1.38879E-04-1.71233E-05-5.24689E-05-7.82190E-06-6.34110E-18 2.12584E-18
 -1      2669 1.40576E-04-1.54444E-05-5.37365E-05 6.49227E-06 4.61866E-18-5.35748E-20
 -1      2670 9.52320E-05-2.85761E-05-2.85668E-05 3.53556E-08-1.80648E-18 1.54515E-18
 -1      2671 1.37520E-04-1.05853E-05-5.45982E-05-2.68297E-06 5.31746E-18-5.37813E-19
 -1      2672 9.52357E-05-2.85803E-05-2.85666E-05-3.31639E-08-2.97493E-19 1.42168E-18
 -1      2673 8.59691E-05-1.12853E-05-3.20213E-05 7.88914E-07 1.52247E-18-2.54513E-18
 -1      2674 8.52696E-05-1.07224E-05-3.19743E-05 3.86921E-07 1.29457E-18-2.69981E-18
 -1      2675 8.47422E-05-1.02439E-05-3.19433E-05 2.52684E-07 1.10200E-18-2.81737E-18
 -1      2676 8.44680E-05-1.00258E-05-3.19248E-05-8.18229E-08 9.04870E-19-2.84655E-18
 -1      2677 8.56148E-05-1.17890E-05-3.16188E-05-4.16213E-08 1.10215E-18-2.61021E-18
 -1      2678 9.07519E-05-1.56133E-05-3.22277E-05 2.48300E-06 2.32056E-18-1.55687E-18
 -1      2679 8.93314E-05-1.43220E-05-3.21781E-05 1.88415E-06 2.20774E-18-1.90800E-18
 -1      2680 9.40504E-05-1.89454E-05-3.22180E-05 3.41782E-06 2.55902E-18-7.70620E-19
 -1      2681 9.23456E-05-1.71936E-05-3.22340E-05 2.87623E-06 2.38027E-18-1.12552E-18
 -1      2682 9.23705E-05-1.80186E-05-3.18438E-05 1.31975E-06 2.19159E-18-1.20052E-18
 -1      2683 9.69127E-05-2.34745E-05-3.14571E-05-4.57692E-07-1.48581E-18-1.57597E-18
 -1      2684 9.71210E-05-2.44723E-05-3.11415E-05 1.45433E-06-1.18209E-18-1.52345E-18
 -1      2685 9.50141E-05-4.99172E-05-1.94238E-05 3.77385E-05 1.65743E-18-1.43847E-18
 -1      2686 7.88523E-05-4.13674E-05-1.54732E-05 3.85168E-05 2.00196E-18-1.66400E-18
 -1      2687 9.81175E-05-2.56043E-05-3.10781E-05-5.25391E-07 1.89351E-18 1.96918E-19
 -1      2688 9.80799E-05-2.47145E-05-3.14085E-05 1.40447E-06 2.10821E-18 2.93597E-19
 -1      2689 1.04207E-04-3.30923E-05-3.05005E-05-6.90755E-06-7.74845E-20 5.91624E-20
 -1      2690 1.03070E-04-3.20071E-05-3.04228E-05-7.36529E-06 1.59044E-19-2.03826E-20
 -1      2691 9.73845E-05-2.53084E-05-3.08633E-05 3.05733E-06-1.12107E-18-1.35665E-18
 -1      2692 9.76131E-05-2.59832E-05-3.06986E-05 4.50119E-06-9.69556E-19-1.30376E-18
 -1      2693 9.59948E-05-2.34985E-05-3.10752E-05 2.22942E-06-1.14194E-18-1.63746E-18
 -1      2694 9.78160E-05-2.65736E-05-3.05099E-05 5.79672E-06-8.19160E-19-1.18842E-18
 -1      2695 9.82250E-05-2.71922E-05-3.04384E-05 6.85382E-06-6.84091E-19-1.30121E-18
 -1      2696 9.64476E-05-2.51282E-05-3.05768E-05 5.23352E-06-9.09911E-19-1.39781E-18
 -1      2697 9.85529E-05-2.77918E-05-3.03050E-05 7.86928E-06-4.30118E-19-1.21960E-18
 -1      2698 9.92229E-05-2.85411E-05-3.02871E-05 8.57172E-06-2.94105E-19-1.04618E-18
 -1      2699 9.69748E-05-2.65179E-05-3.02133E-05 7.65349E-06-5.56383E-19-1.29392E-18
 -1      2700 9.98422E-05-2.93518E-05-3.01842E-05 9.29654E-06-3.77246E-19-9.40262E-19
 -1      2701 1.00849E-04-3.03924E-05-3.01942E-05 9.59532E-06-3.79362E-19-1.18437E-18
 -1      2702 9.79074E-05-2.81381E-05-2.99278E-05 9.51470E-06-3.36984E-19-1.09792E-18
 -1      2703 1.01957E-04-3.16006E-05-3.01141E-05 9.94587E-06-3.33680E-19-1.11925E-18
 -1      2704 1.03382E-04-3.30605E-05-3.01456E-05 9.70944E-06-2.49747E-19-1.10359E-18
 -1      2705 9.95982E-05-3.04220E-05-2.96892E-05 1.07517E-05-4.15625E-19-1.15656E-18
 -1      2706 1.05206E-04-3.48057E-05-3.01129E-05 9.48949E-06 5.25251E-20-7.54316E-19
 -1      2707 1.07080E-04-3.66950E-05-3.01919E-05 8.51402E-06 1.09385E-19-6.04497E-19
 -1      2708 1.02475E-04-3.37563E-05-2.95168E-05 1.11273E-05 3.70101E-20-6.43422E-19
 -1      2709 1.09794E-04-3.89355E-05-3.02868E-05 7.37934E-06 2.58992E-19-1.44355E-19
 -1      2710 1.11958E-04-4.09484E-05-3.04875E-05 5.44830E-06 7.36158E-20 4.02096E-19
 -1      2711 1.06968E-04-3.82998E-05-2.95220E-05 1.01381E-05 5.41194E-19 2.49868E-19
 -1      2712 1.15425E-04-4.31867E-05-3.08730E-05 2.95963E-06-2.17222E-19 9.65108E-19
 -1      2713 1.17343E-04-4.44292E-05-3.13274E-05 5.23224E-08-1.57869E-19 1.35174E-18
 -1      2714 1.13189E-04-4.35149E-05-2.99666E-05 6.97028E-06 3.82935E-19 1.35218E-18
 -1      2715 1.20623E-04-4.53114E-05-3.22476E-05-3.89860E-06-3.10312E-19 1.88395E-18
 -1      2716 1.21317E-04-4.43187E-05-3.30842E-05-7.08015E-06-9.34310E-19 1.91078E-18
 -1      2717 1.20162E-04-4.73158E-05-3.13169E-05 7.07611E-07-1.21993E-19 2.17248E-18
 -1      2718 1.22994E-04-4.22367E-05-3.47068E-05-1.14829E-05-1.75245E-18 2.23255E-18
 -1      2719 1.21512E-04-3.76905E-05-3.59683E-05-1.33511E-05-2.23433E-18 2.04231E-18
 -1      2720 1.25486E-04-4.61723E-05-3.41233E-05-7.67277E-06-1.37894E-18 3.20559E-18
 -1      2721 1.19943E-04-3.18126E-05-3.81080E-05-1.46026E-05-2.94262E-18 1.22136E-18
 -1      2722 1.17275E-04-2.56872E-05-3.93589E-05-1.27026E-05-3.48745E-18 4.91888E-19
 -1      2723 1.25426E-04-3.65064E-05-3.82202E-05-1.40901E-05-3.25594E-18 2.47548E-18
 -1      2724 1.14790E-04-2.01085E-05-4.09390E-05-8.32601E-06-3.88370E-18-2.11758E-19
 -1      2725 1.13390E-04-1.72143E-05-4.14623E-05-2.73011E-06-3.86141E-18-9.45031E-19
 -1      2726 1.20888E-04-2.21678E-05-4.26455E-05-1.14470E-05-4.27434E-18 7.59524E-19
 -1      2727 1.13661E-04-1.76177E-05-4.13929E-05 4.74145E-06-3.31783E-18-1.88260E-18
 -1      2728 1.15126E-04-2.08463E-05-4.08156E-05 9.96843E-06-2.56503E-18-2.62090E-18
 -1      2729 1.18118E-04-1.53017E-05-4.45103E-05 1.14042E-06-4.32537E-18-8.81037E-19
 -1      2730 1.17823E-04-2.66615E-05-3.91469E-05 1.41729E-05-1.78152E-18-3.40775E-18
 -1      2731 1.20493E-04-3.29107E-05-3.78785E-05 1.55618E-05-1.08297E-18-3.86763E-18
 -1      2732 1.21292E-04-2.28147E-05-4.24374E-05 1.32903E-05-2.71146E-18-2.47598E-18
 -1      2733 1.21825E-04-3.84404E-05-3.57830E-05 1.39629E-05 9.29354E-20-3.56045E-18
 -1      2734 1.23020E-04-4.26608E-05-3.45785E-05 1.18612E-05 7.05390E-19-3.11760E-18
 -1      2735 1.25726E-04-3.73290E-05-3.79686E-05 1.49310E-05-4.12558E-19-3.49663E-18
 -1      2736 1.21359E-04-4.45245E-05-3.30066E-05 7.60825E-06 1.17762E-18-2.24857E-18
 -1      2737 1.20542E-04-4.53516E-05-3.22065E-05 4.29525E-06 1.72814E-18-1.65790E-18
 -1      2738 1.25160E-04-4.62993E-05-3.38249E-05 7.97210E-06 1.44660E-18-2.05227E-18
 -1      2739 1.17153E-04-4.41953E-05-3.13410E-05 4.87409E-07 1.62901E-18-1.13168E-18
 -1      2740 1.15200E-04-4.28590E-05-3.09219E-05-2.34603E-06 1.75904E-18-1.07175E-18
 -1      2741 1.19676E-04-4.70113E-05-3.11961E-05-4.04009E-07 1.88187E-18-7.22951E-19
 -1      2742 1.11798E-04-4.05996E-05-3.05601E-05-4.67073E-06 1.77232E-18-1.47090E-18
 -1      2743 1.09673E-04-3.86171E-05-3.03744E-05-6.52840E-06 2.08637E-18-1.00699E-18
 -1      2744 1.12630E-04-4.29375E-05-2.99379E-05-6.23161E-06 1.59211E-18-6.42235E-19
 -1      2745 1.07019E-04-3.64313E-05-3.02757E-05-7.58663E-06 2.16154E-18-1.16090E-18
 -1      2746 1.05201E-04-3.46306E-05-3.01912E-05-8.53246E-06 1.68774E-18-1.82026E-18
 -1      2747 1.06536E-04-3.78392E-05-2.95138E-05-9.20106E-06 1.88277E-18-1.22691E-18
 -1      2748 1.03414E-04-3.29881E-05-3.01898E-05-8.76327E-06 1.51265E-18-2.13748E-18
 -1      2749 1.02026E-04-3.16551E-05-3.01276E-05-9.04811E-06 9.82517E-19-1.64691E-18
 -1      2750 1.02147E-04-3.35142E-05-2.94655E-05-1.01555E-05 1.43457E-18-1.95561E-18
 -1      2751 1.00924E-04-3.05887E-05-3.01415E-05-8.81821E-06 2.26072E-19-1.90082E-18
 -1      2752 9.99105E-05-2.97125E-05-3.00691E-05-8.68425E-06-5.81832E-19-1.77834E-18
 -1      2753 9.93284E-05-3.05008E-05-2.95290E-05-9.94735E-06 3.18957E-19-1.53103E-18
 -1      2754 9.92678E-05-2.90987E-05-3.00655E-05-8.22261E-06-7.81928E-19-1.04769E-18
 -1      2755 9.85303E-05-2.85726E-05-2.99758E-05-7.85318E-06-1.59242E-19-7.45802E-19
 -1      2756 9.76388E-05-2.86491E-05-2.95844E-05-9.13734E-06-2.64127E-19-1.20470E-18
 -1      2757 9.81684E-05-2.82677E-05-2.99482E-05-7.29564E-06 3.98820E-19-1.15597E-18
 -1      2758 9.76221E-05-2.79798E-05-2.98461E-05-6.81753E-06 2.16595E-19-1.13157E-18
 -1      2759 9.66708E-05-2.76459E-05-2.95910E-05-8.05250E-06 2.27111E-19-5.13608E-19
 -1      2760 9.74206E-05-2.78663E-05-2.97988E-05-6.24379E-06 1.14261E-19-1.01868E-18
 -1      2761 9.70055E-05-2.77282E-05-2.96924E-05-5.73862E-06-3.73669E-19-9.82880E-19
 -1      2762 9.61301E-05-2.71979E-05-2.95469E-05-6.88305E-06 4.98362E-19-1.95742E-18
 -1      2763 9.68911E-05-2.77234E-05-2.96332E-05-5.19424E-06-9.11098E-19-6.19667E-19
 -1      2764 9.65688E-05-2.76737E-05-2.95297E-05-4.71069E-06-9.03425E-19-5.59623E-19
 -1      2765 9.58287E-05-2.70831E-05-2.94648E-05-5.73978E-06-3.58184E-19-5.55472E-19
 -1      2766 9.65002E-05-2.77243E-05-2.94658E-05-4.21981E-06-1.09841E-18 1.96482E-19
 -1      2767 9.62465E-05-2.77237E-05-2.93703E-05-3.78390E-06-1.15874E-18-1.66946E-19
 -1      2768 9.56555E-05-2.71512E-05-2.93604E-05-4.68511E-06-7.15446E-19 3.08906E-19
 -1      2769 9.62015E-05-2.77977E-05-2.93073E-05-3.35711E-06-8.59256E-19-3.63134E-19
 -1      2770 9.60011E-05-2.78220E-05-2.92228E-05-2.98005E-06-2.79974E-19-3.00727E-19
 -1      2771 9.55492E-05-2.73076E-05-2.92476E-05-3.75057E-06-9.98479E-19-1.06625E-19
 -1      2772 9.59687E-05-2.79015E-05-2.91641E-05-2.61939E-06-9.22073E-20-3.13933E-19
 -1      2773 9.58108E-05-2.79365E-05-2.90917E-05-2.30323E-06 1.72649E-19-2.06986E-19
 -1      2774 9.54779E-05-2.74961E-05-2.91362E-05-2.94772E-06-4.06635E-19-8.98532E-19
 -1      2775 9.57857E-05-2.80118E-05-2.90395E-05-2.00560E-06-2.70311E-19-5.28993E-19
 -1      2776 9.56624E-05-2.80496E-05-2.89791E-05-1.74705E-06-2.24580E-20-1.31000E-20
 -1      2777 9.54256E-05-2.76853E-05-2.90326E-05-2.27536E-06 2.63942E-19-1.45403E-18
 -1      2778 9.56420E-05-2.81164E-05-2.89342E-05-1.50645E-06-3.52785E-19-5.15105E-19
 -1      2779 9.55470E-05-2.81526E-05-2.88851E-05-1.29948E-06-4.86609E-19-5.20228E-19
 -1      2780 9.53847E-05-2.78593E-05-2.89405E-05-1.72446E-06-5.27158E-19-1.73487E-18
 -1      2781 9.55303E-05-2.82094E-05-2.88474E-05-1.10860E-06-5.21631E-19-8.95449E-19
 -1      2782 9.54581E-05-2.82420E-05-2.88082E-05-9.46081E-07-8.37983E-19-1.16914E-18
 -1      2783 9.53516E-05-2.80111E-05-2.88612E-05-1.28183E-06-6.81697E-19-1.90814E-18
 -1      2784 9.54444E-05-2.82889E-05-2.87774E-05-7.97313E-07-5.48816E-19-4.41733E-19
 -1      2785 9.53905E-05-2.83171E-05-2.87468E-05-6.72004E-07 2.68331E-19-6.55994E-20
 -1      2786 9.53247E-05-2.81388E-05-2.87949E-05-9.32616E-07-5.53412E-19-1.09017E-18
 -1      2787 9.53795E-05-2.83549E-05-2.87221E-05-5.58080E-07 2.29707E-19-4.55403E-19
 -1      2788 9.53402E-05-2.83785E-05-2.86986E-05-4.63184E-07-3.02813E-19-1.18846E-18
 -1      2789 9.53030E-05-2.82434E-05-2.87406E-05-6.61910E-07-4.46363E-20-9.54962E-19
 -1      2790 9.53314E-05-2.84083E-05-2.86792E-05-3.77485E-07-2.44033E-19-1.00404E-18
 -1      2791 9.53034E-05-2.84277E-05-2.86615E-05-3.06939E-07-6.89923E-19-1.26868E-18
 -1      2792 9.52857E-05-2.83273E-05-2.86971E-05-4.55715E-07-5.39327E-19-1.00860E-18
 -1      2793 9.52966E-05-2.84508E-05-2.86466E-05-2.43670E-07-9.88455E-21-1.43565E-18
 -1      2794 9.52772E-05-2.84664E-05-2.86336E-05-1.92255E-07 3.96264E-19-1.11102E-18
 -1      2795 9.52721E-05-2.83932E-05-2.86629E-05-3.01464E-07-9.23693E-20-9.08370E-20
 -1      2796 9.52720E-05-2.84840E-05-2.86222E-05-1.46493E-07 5.54928E-19-1.29635E-18
 -1      2797 9.52591E-05-2.84964E-05-2.86129E-05-1.09848E-07 1.19598E-18-1.26808E-18
 -1      2798 9.52617E-05-2.84441E-05-2.86366E-05-1.88268E-07 1.10392E-19 3.33055E-19
 -1      2799 9.52553E-05-2.85096E-05-2.86044E-05-7.75226E-08 2.09342E-18-1.79555E-18
 -1      2800 9.52472E-05-2.85192E-05-2.85979E-05-5.20945E-08 2.13543E-18-9.69875E-19
 -1      2801 9.52539E-05-2.84828E-05-2.86166E-05-1.06960E-07 1.47508E-18-2.65174E-18
 -1      2802 9.52444E-05-2.85290E-05-2.85917E-05-2.99205E-08 2.05822E-18-9.16972E-19
 -1      2803 9.52398E-05-2.85365E-05-2.85873E-05-1.28904E-08 1.74335E-18-1.19119E-18
 -1      2804 9.52482E-05-2.85117E-05-2.86017E-05-5.00218E-08 2.04445E-18-3.21206E-18
 -1      2805 9.52379E-05-2.85436E-05-2.85828E-05 1.71401E-09 4.40728E-19-4.22929E-19
 -1      2806 9.52358E-05-2.85495E-05-2.85799E-05 1.25183E-08 1.09290E-18-9.91114E-19
 -1      2807 9.52442E-05-2.85330E-05-2.85907E-05-1.14391E-08 1.36783E-18-3.30688E-18
 -1      2808 9.52345E-05-2.85548E-05-2.85768E-05 2.15176E-08 9.57822E-19-1.15955E-18
 -1      2809 9.52341E-05-2.85595E-05-2.85749E-05 2.77066E-08 3.61718E-19-6.49620E-19
 -1      2810 9.52416E-05-2.85488E-05-2.85828E-05 1.34641E-08 2.45075E-19-1.88522E-18
 -1      2811 9.52334E-05-2.85635E-05-2.85726E-05 3.25544E-08 7.33112E-20 1.30024E-20
 -1      2812 9.52341E-05-2.85675E-05-2.85715E-05 3.52796E-08-4.70832E-19-4.65740E-19
 -1      2813 9.52401E-05-2.85606E-05-2.85770E-05 2.81919E-08 4.54336E-20-1.31240E-18
 -1      2814 9.52340E-05-2.85709E-05-2.85698E-05 3.69492E-08-6.15587E-19-5.99610E-19
 -1      2815 9.52354E-05-2.85744E-05-2.85690E-05 3.69049E-08-8.76045E-19-5.53606E-19
 -1      2816 9.52396E-05-2.85700E-05-2.85728E-05 3.53486E-08-5.37456E-19-1.46578E-18
 -1      2817 1.01998E-04-3.10206E-05-3.04280E-05-7.36253E-06 2.77454E-19 8.49585E-20
 -1      2818 1.01080E-04-3.01647E-05-3.03653E-05-7.29304E-06 4.33322E-19 9.75426E-20
 -1      2819 1.01415E-04-3.12980E-05-3.00841E-05-8.30423E-06 2.68684E-19-3.86347E-19
 -1      2820 6.05476E-05-3.20177E-05-1.21071E-05 3.69962E-05 1.96120E-18-2.25099E-18
 -1      2821 4.67639E-05-2.40010E-05-9.00972E-06 2.96508E-05 2.02483E-18-4.01472E-18
 -1      2822 1.00380E-04-2.94402E-05-3.04034E-05-6.83769E-06 5.08797E-19 3.44298E-20
 -1      2823 9.97025E-05-2.87696E-05-3.03737E-05-6.33933E-06 7.59618E-19 3.41096E-20
 -1      2824 9.96380E-05-2.92956E-05-3.01729E-05-7.71535E-06 5.73724E-19-2.08149E-19
 -1      2825 1.07012E-04-3.56329E-05-3.06314E-05-5.19447E-06-3.55408E-19 2.78489E-19
 -1      2826 1.05733E-04-3.43827E-05-3.05373E-05-6.30265E-06-2.29229E-19 1.36773E-19
 -1      2827 1.04017E-04-3.39461E-05-3.00742E-05-7.85322E-06-1.37318E-19-1.81912E-19
 -1      2828 1.10192E-04-3.82522E-05-3.08885E-05-1.96553E-06 3.54626E-19-4.76671E-20
 -1      2829 1.08969E-04-3.71101E-05-3.07507E-05-3.78623E-06-8.74036E-20 2.08972E-19
 -1      2830 1.07524E-04-3.71670E-05-3.02028E-05-6.00673E-06-1.00014E-19-3.02188E-19
 -1      2831 1.13108E-04-3.99634E-05-3.14060E-05 2.74913E-06 1.81053E-20 5.39106E-19
 -1      2832 1.12322E-04-3.95101E-05-3.11687E-05 3.72625E-07 1.86437E-19 4.05392E-19
 -1      2833 1.11686E-04-4.03669E-05-3.06055E-05-2.39673E-06 1.52313E-20 1.61162E-19
 -1      2834 1.14590E-04-3.91786E-05-3.23501E-05 8.08213E-06-9.25781E-21 1.31020E-18
 -1      2835 1.14730E-04-4.01943E-05-3.19536E-05 5.77896E-06-6.12643E-20 1.14508E-18
 -1      2836 1.15578E-04-4.20860E-05-3.14963E-05 3.02355E-06-3.35973E-19 9.01208E-19
 -1      2837 1.13501E-04-3.46412E-05-3.37558E-05 1.17967E-05 6.51547E-19 1.39483E-18
 -1      2838 1.14766E-04-3.74731E-05-3.32149E-05 1.07711E-05 2.66834E-19 1.42906E-18
 -1      2839 1.17548E-04-4.03216E-05-3.30787E-05 9.16595E-06 7.93895E-20 1.63560E-18
 -1      2840 1.10017E-04-2.73972E-05-3.53674E-05 1.08892E-05 8.45445E-19 1.06923E-18
 -1      2841 1.11890E-04-3.11448E-05-3.48013E-05 1.22204E-05 8.54524E-19 1.29835E-18
 -1      2842 1.16006E-04-3.36611E-05-3.52800E-05 1.30935E-05 7.82619E-19 2.16568E-18
 -1      2843 1.06758E-04-2.17812E-05-3.64784E-05 4.02150E-06 1.50931E-18 4.90040E-19
 -1      2844 1.07939E-04-2.39643E-05-3.61809E-05 7.64929E-06 1.14402E-18 6.89266E-19
 -1      2845 1.12103E-04-2.50920E-05-3.72615E-05 1.04207E-05 1.46444E-18 1.57526E-18
 -1      2846 1.06959E-04-2.23256E-05-3.64749E-05-5.60322E-06 1.45540E-18-3.37754E-19
 -1      2847 1.06488E-04-2.11854E-05-3.66132E-05-1.61659E-06 1.64245E-18-6.22768E-20
 -1      2848 1.09333E-04-1.95092E-05-3.84599E-05 1.11756E-06 1.82792E-18 5.36848E-19
 -1      2849 1.10733E-04-2.85747E-05-3.53938E-05-1.23793E-05 1.17356E-18-6.31016E-19
 -1      2850 1.08873E-04-2.50240E-05-3.58714E-05-1.01359E-05 1.25288E-18-1.00694E-18
 -1      2851 1.10555E-04-2.19140E-05-3.79896E-05-9.19108E-06 1.71304E-18-6.87334E-19
 -1      2852 1.14393E-04-3.57897E-05-3.38226E-05-1.26609E-05 6.89644E-19-8.91375E-19
 -1      2853 1.12767E-04-3.24158E-05-3.43819E-05-1.30063E-05 1.14331E-18-7.13060E-19
 -1      2854 1.15205E-04-3.08134E-05-3.60935E-05-1.40346E-05 1.10441E-18-1.20395E-18
 -1      2855 1.15377E-04-3.96716E-05-3.24806E-05-8.60101E-06 1.22251E-19-1.44299E-18
 -1      2856 1.14831E-04-3.80635E-05-3.28984E-05-1.05278E-05 3.44896E-19-1.29444E-18
 -1      2857 1.17482E-04-3.83616E-05-3.38842E-05-1.22022E-05 9.24338E-19-1.68679E-18
 -1      2858 1.13763E-04-4.00465E-05-3.15704E-05-3.14391E-06-4.49037E-19-1.47504E-18
 -1      2859 1.14205E-04-4.00662E-05-3.18360E-05-5.55431E-06-6.14377E-19-1.57749E-18
 -1      2860 1.16680E-04-4.19328E-05-3.20702E-05-6.27773E-06 1.09641E-19-1.81359E-18
 -1      2861 1.10668E-04-3.80918E-05-3.10601E-05 1.48933E-06-3.55605E-19-9.17969E-19
 -1      2862 1.11720E-04-3.90455E-05-3.12111E-05-5.33019E-07 3.81330E-21-1.22272E-18
 -1      2863 1.13319E-04-4.11684E-05-3.09566E-05-3.51384E-07-4.60236E-19-1.53591E-18
 -1      2864 1.07381E-04-3.54436E-05-3.07890E-05 4.55829E-06 1.41606E-19-4.87132E-19
 -1      2865 1.08612E-04-3.66501E-05-3.08892E-05 3.20262E-06-2.56433E-19-9.24038E-19
 -1      2866 1.09123E-04-3.82997E-05-3.03994E-05 3.88893E-06-1.10793E-19-1.07788E-18
 -1      2867 1.04530E-04-3.30267E-05-3.06140E-05 6.17294E-06-4.79854E-19 7.94040E-20
 -1      2868 1.05693E-04-3.41105E-05-3.07078E-05 5.45116E-06 3.09509E-19-4.94149E-20
 -1      2869 1.05351E-04-3.50784E-05-3.01588E-05 6.34705E-06-1.39633E-19-5.53249E-19
 -1      2870 1.02280E-04-3.11782E-05-3.04532E-05 6.70385E-06-4.83082E-19-1.10920E-18
 -1      2871 1.03283E-04-3.20091E-05-3.05600E-05 6.46720E-06-5.20809E-19-2.21364E-19
 -1      2872 1.02418E-04-3.23703E-05-3.00521E-05 7.40163E-06-5.88442E-20 2.50460E-19
 -1      2873 1.00575E-04-2.99100E-05-3.02748E-05 6.53022E-06-1.48276E-19-1.78701E-18
 -1      2874 1.01408E-04-3.04900E-05-3.03965E-05 6.61594E-06-2.96930E-19-1.69637E-18
 -1      2875 1.00311E-04-3.04187E-05-2.99748E-05 7.50960E-06-1.83610E-19-5.53676E-19
 -1      2876 9.92960E-05-2.91071E-05-3.00762E-05 5.95203E-06 6.19298E-20-1.54353E-18
 -1      2877 9.99774E-05-2.94867E-05-3.02065E-05 6.22518E-06-1.56361E-19-1.48251E-18
 -1      2878 9.88515E-05-2.91570E-05-2.98822E-05 7.04733E-06-1.44099E-19-1.61836E-18
 -1      2879 9.83296E-05-2.86359E-05-2.98673E-05 5.18107E-06 2.40323E-19-6.82118E-19
 -1      2880 9.88842E-05-2.88713E-05-2.99978E-05 5.54323E-06 6.50341E-19-1.03827E-18
 -1      2881 9.78486E-05-2.84182E-05-2.97641E-05 6.28244E-06 2.88718E-20-9.39252E-19
 -1      2882 9.75905E-05-2.83836E-05-2.96604E-05 4.35595E-06-4.97635E-19-1.71119E-19
 -1      2883 9.80402E-05-2.85218E-05-2.97841E-05 4.74191E-06-3.23780E-19-3.03933E-19
 -1      2884 9.71519E-05-2.80363E-05-2.96264E-05 5.39406E-06-4.17394E-19-5.26050E-19
 -1      2885 9.70191E-05-2.82678E-05-2.94660E-05 3.56070E-06-1.81824E-19-2.35752E-19
 -1      2886 9.73816E-05-2.83432E-05-2.95779E-05 3.93094E-06-2.43972E-19-7.96118E-20
 -1      2887 9.66569E-05-2.78801E-05-2.94797E-05 4.49567E-06-3.27843E-19-4.66910E-19
 -1      2888 9.65745E-05-2.82325E-05-2.92908E-05 2.84108E-06-7.44556E-20 4.44954E-19
 -1      2889 9.68642E-05-2.82689E-05-2.93884E-05 3.17436E-06-1.92325E-19-2.56586E-19
 -1      2890 9.62960E-05-2.78568E-05-2.93342E-05 3.65427E-06-5.39320E-19 3.55968E-20
 -1      2891 9.62285E-05-2.82421E-05-2.91383E-05 2.21760E-06 5.39508E-19 4.71528E-19
 -1      2892 9.64573E-05-2.82549E-05-2.92210E-05 2.50475E-06 6.02648E-19 3.60752E-19
 -1      2893 9.60268E-05-2.79050E-05-2.91977E-05 2.90493E-06 2.49805E-19 1.72002E-19
 -1      2894 9.59604E-05-2.82742E-05-2.90095E-05 1.69488E-06 4.99217E-19 9.73509E-20
 -1      2895 9.61387E-05-2.82735E-05-2.90776E-05 1.93424E-06 2.91611E-19 4.10993E-19
 -1      2896 9.58230E-05-2.79867E-05-2.90750E-05 2.26175E-06 4.71417E-19 9.72790E-20
 -1      2897 9.57545E-05-2.83155E-05-2.89034E-05 1.26813E-06 9.55119E-19 9.45333E-19
 -1      2898 9.58914E-05-2.83075E-05-2.89582E-05 1.46241E-06 7.77832E-19 5.44682E-19
 -1      2899 9.56674E-05-2.80792E-05-2.89684E-05 1.72557E-06 5.80832E-19-1.70558E-19
 -1      2900 9.55984E-05-2.83583E-05-2.88179E-05 9.27610E-07-3.53278E-19 2.33315E-18
 -1      2901 9.57017E-05-2.83470E-05-2.88611E-05 1.08172E-06 3.85208E-19 1.76101E-18
 -1      2902 9.55486E-05-2.81696E-05-2.88785E-05 1.28938E-06-2.99748E-19-2.48207E-20
 -1      2903 9.54817E-05-2.83986E-05-2.87505E-05 6.61439E-07-1.23803E-19 2.07270E-18
 -1      2904 9.55582E-05-2.83863E-05-2.87838E-05 7.81161E-07-1.21714E-19 2.58164E-18
 -1      2905 9.54583E-05-2.82516E-05-2.88044E-05 9.42097E-07-1.73941E-19 1.47285E-18
 -1      2906 9.53962E-05-2.84344E-05-2.86983E-05 4.57434E-07 1.37022E-18 8.56168E-19
 -1      2907 9.54516E-05-2.84224E-05-2.87236E-05 5.48610E-07 4.85577E-19 1.25368E-18
 -1      2908 9.53905E-05-2.83224E-05-2.87448E-05 6.71031E-07 5.99049E-19 7.74809E-19
 -1      2909 9.53349E-05-2.84649E-05-2.86588E-05 3.04099E-07 5.67613E-19 8.41979E-19
 -1      2910 9.53739E-05-2.84539E-05-2.86775E-05 3.72165E-07 1.70980E-18 1.37123E-18
 -1      2911 9.53402E-05-2.83814E-05-2.86977E-05 4.63475E-07 1.05526E-18 8.69131E-20
 -1      2912 9.52921E-05-2.84903E-05-2.86295E-05 1.91159E-07-1.44378E-19 2.46613E-18
 -1      2913 9.53187E-05-2.84806E-05-2.86430E-05 2.40921E-07-3.65897E-19 1.73566E-18
 -1      2914 9.53036E-05-2.84293E-05-2.86613E-05 3.07577E-07-1.56321E-19 1.48690E-18
 -1      2915 9.52633E-05-2.85108E-05-2.86083E-05 1.09783E-07-3.85490E-19 2.37937E-18
 -1      2916 9.52807E-05-2.85026E-05-2.86178E-05 1.45334E-07 1.70161E-19 3.01286E-18
 -1      2917 9.52776E-05-2.84674E-05-2.86336E-05 1.92811E-07-3.85210E-19 2.56229E-18
 -1      2918 9.52449E-05-2.85272E-05-2.85934E-05 5.26159E-08 3.74097E-19 1.73784E-18
 -1      2919 9.52555E-05-2.85204E-05-2.85998E-05 7.73337E-08-1.19086E-19 2.02294E-18
 -1      2920 9.52597E-05-2.84970E-05-2.86131E-05 1.10162E-07-1.81769E-19 3.21301E-18
 -1      2921 9.52341E-05-2.85402E-05-2.85831E-05 1.37104E-08 5.10069E-19 7.33052E-20
 -1      2922 9.52398E-05-2.85345E-05-2.85873E-05 3.03026E-08 8.70224E-19 1.25616E-18
 -1      2923 9.52477E-05-2.85197E-05-2.85982E-05 5.21487E-08 1.07311E-18 2.27332E-18
 -1      2924 9.52286E-05-2.85504E-05-2.85764E-05-1.16031E-08 3.42864E-19-1.06978E-18
 -1      2925 9.52310E-05-2.85457E-05-2.85790E-05-1.03442E-09 1.77505E-19-1.11958E-18
 -1      2926 9.52403E-05-2.85368E-05-2.85875E-05 1.27320E-08 1.33163E-18-6.98556E-19
 -1      2927 9.52269E-05-2.85585E-05-2.85722E-05-2.68632E-08 8.66108E-19-8.49962E-19
 -1      2928 9.52270E-05-2.85546E-05-2.85736E-05-2.07483E-08 6.84239E-19-1.13011E-18
 -1      2929 9.52362E-05-2.85498E-05-2.85801E-05-1.28163E-08 5.39606E-19-2.29532E-18
 -1      2930 9.52276E-05-2.85653E-05-2.85696E-05-3.46204E-08 1.12813E-18 1.79981E-18
 -1      2931 9.52263E-05-2.85618E-05-2.85703E-05-3.18545E-08 1.12908E-18 8.82401E-19
 -1      2932 9.52344E-05-2.85598E-05-2.85750E-05-2.80730E-08-1.24587E-20-1.04793E-18
 -1      2933 9.52300E-05-2.85714E-05-2.85680E-05-3.65322E-08 2.54584E-19 2.08526E-18
 -1      2934 9.52278E-05-2.85682E-05-2.85683E-05-3.64695E-08 1.25236E-18 2.80306E-18
 -1      2935 9.52343E-05-2.85678E-05-2.85715E-05-3.56372E-08 3.55042E-19 2.67814E-18
 -1      2936 9.52340E-05-2.85772E-05-2.85673E-05-3.44431E-08-6.39295E-19 2.60389E-18
 -1      2937 9.52315E-05-2.85740E-05-2.85675E-05-3.64636E-08 9.50617E-20 2.44375E-18
 -1      2938 9.52367E-05-2.85748E-05-2.85694E-05-3.73857E-08 5.41955E-19 4.08862E-18
 -1      2939 9.52398E-05-2.85813E-05-2.85679E-05-3.56848E-08 1.64257E-19 1.65660E-18
 -1      2940 9.52563E-05-2.85896E-05-2.85715E-05-2.35303E-09 1.32004E-18-1.69935E-18
 -1      2941 9.52561E-05-2.85894E-05-2.85714E-05-6.94159E-09 1.77184E-18-1.23339E-18
 -1      2942 9.52542E-05-2.85888E-05-2.85708E-05-2.03107E-08 2.37644E-18 1.18187E-18
 -1      2943 9.52527E-05-2.85876E-05-2.85707E-05-2.41310E-08 2.00626E-18-1.57117E-19
 -1      2944 9.52561E-05-2.85894E-05-2.85714E-05 6.95926E-09-1.98569E-20-2.74581E-19
 -1      2945 9.52563E-05-2.85896E-05-2.85714E-05 2.36459E-09 1.77672E-19-9.38232E-19
 -1      2946 9.52568E-05-2.85815E-05-2.85751E-05-7.99201E-12 6.48785E-19-2.05192E-18
 -1      2947 9.52557E-05-2.85895E-05-2.85713E-05-1.15792E-08 1.61863E-18-5.53000E-19
 -1      2948 9.52550E-05-2.85888E-05-2.85712E-05-1.59393E-08 1.64840E-18 1.36889E-18
 -1      2949 9.52551E-05-2.85818E-05-2.85742E-05-1.83042E-08 2.52306E-18 6.54560E-19
 -1      2950 9.52564E-05-2.85816E-05-2.85749E-05-9.31673E-09 1.62815E-18-7.25782E-19
 -1      2951 9.92741E-05-2.81975E-05-3.04582E-05-5.51440E-06 1.04021E-18-5.64078E-20
 -1      2952 9.88384E-05-2.76153E-05-3.04936E-05-4.62366E-06 1.19557E-18-1.61511E-20
 -1      2953 9.84988E-05-2.77533E-05-3.03397E-05-6.30679E-06 9.68870E-19-2.65106E-19
 -1      2954 9.52550E-05-2.85889E-05-2.85712E-05 1.58391E-08 3.09559E-19-8.15255E-19
 -1      2955 9.52558E-05-2.85895E-05-2.85713E-05 1.15369E-08 2.44293E-19-2.19864E-19
 -1      2956 9.52565E-05-2.85817E-05-2.85749E-05 9.24136E-09 3.27374E-19-1.02605E-18
 -1      2957 9.52528E-05-2.85878E-05-2.85707E-05 2.40890E-08 8.17921E-19-4.03595E-19
 -1      2958 9.52543E-05-2.85889E-05-2.85708E-05 2.02329E-08 5.18587E-19-1.15319E-18
 -1      2959 9.52551E-05-2.85819E-05-2.85742E-05 1.82101E-08 4.44289E-19-4.90587E-19
 -1      2960 9.52487E-05-2.85857E-05-2.85699E-05 3.07604E-08 3.64226E-19 4.83373E-19
 -1      2961 9.52512E-05-2.85875E-05-2.85701E-05 2.78583E-08 1.17037E-18 5.20533E-19
 -1      2962 9.52524E-05-2.85817E-05-2.85731E-05 2.64611E-08 1.03296E-18 1.23746E-19
 -1      2963 1.35795E-04-5.55039E-05-3.48363E-05 5.65199E-06 1.12822E-18-2.76175E-18
 -1      2964 1.29821E-04-5.86857E-05-3.03832E-05 1.49316E-05 2.71686E-19-3.18050E-18
 -1      2965 1.29246E-04-9.79145E-06-5.18722E-05 1.22146E-06 5.27447E-18 6.66244E-19
 -1      2966 1.28625E-04-1.09912E-05-5.09309E-05-6.21384E-06 4.95832E-18 2.26105E-19
 -1      2967 9.67895E-05-2.20068E-05-3.20527E-05 3.96748E-06 2.53928E-18 1.46540E-19
 -1      2968 1.19958E-04-5.87330E-05-2.64232E-05 2.60910E-05-2.65015E-19-2.88637E-18
 -1      2969 1.06216E-04-5.45106E-05-2.19177E-05 3.28327E-05-5.10126E-19-1.87577E-18
 -1      2970 1.05023E-04-5.45402E-05-2.14222E-05-3.32871E-05 2.66858E-18 2.97643E-18
 -1      2971 1.20086E-04-5.94969E-05-2.61130E-05-2.75919E-05 2.32955E-18 1.75526E-18
 -1      2972 1.30388E-04-5.91345E-05-3.03859E-05-1.62674E-05 1.93256E-18 4.59515E-20
 -1      2973 1.37545E-04-5.68089E-05-3.51930E-05-4.96330E-06 1.16582E-18-5.37866E-19
 -1      2974 1.26833E-04-5.90484E-05-2.89330E-05-1.67780E-05 2.76742E-18-1.49184E-19
 -1      2975 9.52367E-05-2.85789E-05-2.85676E-05 3.52126E-08-4.48823E-19 1.28982E-18
 -1      2976 9.52404E-05-2.85819E-05-2.85680E-05 3.53517E-08-7.34894E-19 6.22093E-19
 -1      2977 9.52355E-05-2.85766E-05-2.85680E-05 3.65532E-08-4.40364E-19-2.17998E-19
 -1      2978 2.96800E-05-1.35219E-05-6.15269E-06 8.30540E-06-2.05104E-18 3.10925E-18
 -1      2979 2.97735E-05-1.29036E-05-6.69996E-06-3.97109E-06-1.45359E-18 3.23312E-18
 -1      2980 1.36646E-04-5.62236E-05-3.43850E-05-6.81141E-06-1.27140E-18 6.72968E-19
 -1      2981 1.38519E-04-4.90464E-05-3.88923E-05 2.90018E-06-5.74394E-19 1.14847E-18
 -1      2982 1.39382E-04-4.92144E-05-3.87324E-05 5.25202E-06 3.22931E-21-1.07827E-18
 -1      2983 1.38319E-04-4.01109E-05-4.27537E-05 1.10333E-05-1.27018E-18-1.04947E-18
 -1      2984 8.80186E-05-1.30820E-05-3.21324E-05 1.53864E-06 2.06250E-18-2.17303E-18
 -1      2985 8.69215E-05-1.21588E-05-3.20705E-05 1.02546E-06 1.76472E-18-2.40168E-18
 -1      2986 8.71461E-05-1.31339E-05-3.16995E-05 2.34649E-07 1.55459E-18-2.26387E-18
 -1      2987 8.94641E-05-1.52292E-05-3.17940E-05 7.14472E-07 1.92735E-18-1.84068E-18
 -1      2988 8.66027E-05-1.18443E-05-3.20685E-05-1.11712E-06-1.70175E-19-3.13894E-18
 -1      2989 8.76717E-05-1.27344E-05-3.21334E-05-1.58033E-06-5.43540E-19-3.07799E-18
 -1      2990 3.16761E-05-1.51942E-05-6.52170E-06-1.28969E-05-1.88518E-19-5.55103E-18
 -1      2991 3.75498E-05-2.07125E-05-6.77832E-06-2.61559E-05-7.67941E-19-5.07352E-18
 -1      2992 1.37005E-04-3.65240E-05-4.34425E-05 9.75439E-06 1.14222E-18 1.61836E-18
 -1      2993 1.36422E-04-2.65995E-05-4.76181E-05 1.09803E-05 2.47651E-18 1.50560E-18
 -1      2994 1.24186E-04-5.97390E-05-2.79046E-05 2.23362E-05 3.83600E-19 4.86673E-19
 -1      2995 1.11421E-04-5.63511E-05-2.32503E-05 3.05725E-05 1.43297E-18-5.77968E-19
 -1      2996 8.54656E-05-4.59002E-05-1.64363E-05-3.95180E-05-2.30859E-18-3.91266E-18
 -1      2997 1.01802E-04-5.36430E-05-2.08600E-05-3.69844E-05-2.32786E-18-3.14853E-18
 -1      2998 5.05879E-05-2.78794E-05-9.22415E-06-3.38396E-05-1.41190E-18-4.50664E-18
 -1      2999 6.84179E-05-3.69872E-05-1.33483E-05-4.00925E-05-1.93695E-18-4.17143E-18
 -1      3000 5.31256E-05-2.41551E-05-1.18233E-05-2.91358E-05-1.32899E-18-4.23739E-18
 -1      3001 9.33732E-05-1.72428E-05-3.26248E-05-4.87582E-06-1.62327E-18-2.39157E-18
 -1      3002 1.33567E-04-1.91402E-05-4.95776E-05 1.05803E-05 3.52387E-18 1.43657E-18
 -1      3003 1.30939E-04-1.29751E-05-5.11839E-05 6.70976E-06 4.69426E-18 1.19622E-18
 -1      3004 1.29265E-04-2.41094E-05-4.53913E-05 1.26764E-05 2.36661E-18 2.11218E-18
 -1      3005 1.18348E-04-5.83797E-05-2.52959E-05-2.75517E-05-2.35454E-18-1.71175E-18
 -1      3006 1.29662E-04-5.99227E-05-3.03309E-05-1.88639E-05-1.62498E-18-2.68933E-19
 -1      3007 9.85754E-05-2.70419E-05-3.06535E-05-3.43696E-06 1.43214E-18-1.76148E-20
 -1      3008 9.83593E-05-2.64028E-05-3.08005E-05-2.10410E-06 1.62564E-18 4.80964E-20
 -1      3009 9.72536E-05-2.47175E-05-3.10926E-05-1.24515E-06 1.91419E-18-2.70170E-19
 -1      3010 9.77819E-05-2.63585E-05-3.06243E-05-4.15768E-06 1.42697E-18-5.00091E-19
 -1      3011 1.36307E-04-2.98628E-05-4.59132E-05 1.43370E-05-2.72787E-18-1.51195E-18
 -1      3012 1.32615E-04-2.04349E-05-4.88154E-05 1.21092E-05-4.25168E-18-1.61624E-18
 -1      3013 1.33820E-04-3.61944E-05-4.20483E-05 1.38876E-05-1.51243E-18-1.84643E-18
 -1      3014 1.36021E-04-3.03186E-05-4.59775E-05-1.25515E-05-5.27416E-18 3.46733E-18
 -1      3015 1.37783E-04-3.98541E-05-4.22939E-05-1.03843E-05-4.40224E-18 3.49581E-18
 -1      3016 1.31092E-04-1.80763E-05-4.93099E-05-1.07141E-05 3.90482E-18-4.04564E-19
 -1      3017 1.35729E-04-2.59111E-05-4.74853E-05-1.27729E-05 3.78433E-18-1.89418E-18
 -1      3018 8.89729E-05-1.39513E-05-3.21851E-05-1.85173E-06-7.63756E-19-3.10066E-18
 -1      3019 9.03789E-05-1.52146E-05-3.22436E-05-2.41510E-06-1.02854E-18-2.99175E-18
 -1      3020 8.90489E-05-1.48068E-05-3.17992E-05-7.31886E-07-5.56052E-19-2.85167E-18
 -1      3021 8.50163E-05-1.12641E-05-3.15865E-05-1.59372E-07 7.57038E-19-2.74396E-18
 -1      3022 8.44199E-05-9.97663E-06-3.19238E-05-1.61449E-07 6.96731E-19-3.07214E-18
 -1      3023 8.46106E-05-1.01235E-05-3.19402E-05-4.81000E-07 4.33773E-19-3.24015E-18
 -1      3024 9.52398E-05-2.85769E-05-2.85699E-05 3.68741E-08 3.23412E-19-3.47988E-19
 -1      3025 8.79119E-05-4.49727E-05-1.81296E-05-3.62979E-05 2.17793E-18 3.54393E-18
 -1      3026 9.73793E-05-5.08282E-05-1.95801E-05-3.58919E-05 2.63554E-18 2.99741E-18
 -1      3027 1.08671E-04-5.42515E-05-2.31881E-05-2.92626E-05 3.40057E-18 1.33327E-18
 -1      3028 7.42945E-05-3.56088E-05-1.60795E-05 3.48412E-05 2.24125E-18-1.94055E-18
 -1      3029 4.55282E-05-1.97679E-05-1.04228E-05 2.32086E-05 1.89365E-18-4.16634E-18
 -1      3030 1.24048E-04-1.27470E-05-4.80433E-05 4.43587E-06 4.11055E-18 1.63300E-18
 -1      3031 9.87299E-05-5.09733E-05-2.02008E-05 3.57005E-05-9.28666E-19-1.05932E-18
 -1      3032 8.94444E-05-4.52139E-05-1.86334E-05 3.60613E-05-1.73515E-18 8.99973E-21
 -1      3033 1.07321E-04-5.28188E-05-2.31967E-05 2.91119E-05-1.27129E-18-2.54615E-18
 -1      3034 9.52436E-05-2.85830E-05-2.85688E-05-3.40301E-08 1.13447E-18-6.42610E-19
 -1      3035 9.52422E-05-2.85794E-05-2.85698E-05-3.56281E-08-9.47124E-20 3.81131E-19
 -1      3036 9.52469E-05-2.85855E-05-2.85691E-05-3.27583E-08-2.96226E-23-1.85419E-18
 -1      3037 1.24603E-04-5.78101E-05-2.85290E-05 1.73128E-05-5.62536E-19-3.41513E-18
 -1      3038 1.36686E-04-5.23487E-05-3.63315E-05-7.71453E-07 1.04313E-18-2.75476E-18
 -1      3039 1.32205E-04-5.40339E-05-3.34717E-05 1.73934E-06-4.07648E-19-3.20912E-18
 -1      3040 1.33687E-04-4.71773E-05-3.77068E-05-7.23018E-06 1.44573E-18-3.28527E-18
 -1      3041 9.52440E-05-2.85843E-05-2.85684E-05 3.39411E-08-5.70752E-19 2.30193E-19
 -1      3042 1.24996E-04-1.51256E-05-4.73352E-05-9.38949E-06 4.04617E-18 1.53525E-21
 -1      3043 9.56751E-05-2.10471E-05-3.19964E-05 2.93544E-06 2.46727E-18-3.97258E-19
 -1      3044 1.34042E-04-3.30237E-05-4.35792E-05-1.23893E-05 2.91485E-18-2.38344E-18
 -1      3045 8.11419E-05-4.06520E-05-1.68381E-05-3.69453E-05-2.24697E-18-3.78041E-18
 -1      3046 5.83763E-05-3.12630E-05-1.10502E-05 3.62993E-05-2.20070E-18 2.94979E-18
 -1      3047 5.32302E-05-2.55538E-05-1.15017E-05 3.17500E-05-2.68891E-18 2.55910E-18
 -1      3048 7.15053E-05-3.61173E-05-1.49302E-05 3.66619E-05-2.32436E-18 1.76839E-18
 -1      3049 1.30291E-04-5.93579E-05-3.02657E-05 1.43044E-05-7.25272E-21 1.48972E-18
 -1      3050 1.24297E-04-5.72211E-05-2.84496E-05 1.64815E-05 1.06260E-18 1.18888E-18
 -1      3051 1.32279E-04-5.74135E-05-3.26422E-05 5.97577E-06-6.60381E-19 2.29144E-18
 -1      3052 3.46055E-05-1.40740E-05-8.07869E-06-1.07692E-05-7.90970E-19 3.83177E-18
 -1      3053 4.10553E-05-1.60682E-05-1.02623E-05-1.74455E-05-3.66977E-19 4.12124E-18
 -1      3054 3.79909E-05-1.25022E-05-1.05679E-05-4.03695E-06-1.78101E-18 2.17762E-18
 -1      3055 1.36655E-04-4.37845E-05-4.00898E-05 8.64474E-06-5.74394E-21 1.57993E-18
 -1      3056 1.30455E-04-3.64368E-05-4.06224E-05 1.30841E-05 5.63330E-19 2.29572E-18
 -1      3057 1.33268E-04-4.81986E-05-3.65657E-05 5.58265E-06-9.70700E-19 1.65727E-18
 -1      3058 5.59280E-05-2.92309E-05-1.08603E-05-3.41843E-05 1.03571E-18 6.06963E-18
 -1      3059 6.85198E-05-3.38053E-05-1.47556E-05-3.48932E-05 1.27918E-18 5.19199E-18
 -1      3060 5.24928E-05-2.35695E-05-1.18970E-05-2.89892E-05-4.24575E-20 5.13164E-18
 -1      3061 1.35875E-04-5.24518E-05-3.58766E-05 2.49949E-06 9.77529E-19-9.16807E-19
 -1      3062 1.31736E-04-5.73548E-05-3.18302E-05-9.82698E-06-1.75561E-18 6.72915E-19
 -1      3063 3.61975E-05-1.28667E-05-9.71837E-06 3.01665E-06 1.07140E-18-4.76054E-18
 -1      3064 3.30385E-05-1.34175E-05-7.67134E-06-4.82709E-06 3.84950E-19-5.48750E-18
 -1      3065 4.04146E-05-1.44096E-05-1.06403E-05-1.26845E-05-2.79203E-19-4.68865E-18
 -1      3066 1.28247E-04-1.19155E-05-5.03160E-05 6.55378E-06-4.92656E-18-5.19231E-19
 -1      3067 1.28139E-04-1.06561E-05-5.09660E-05-9.15372E-07-5.68783E-18 6.61692E-19
 -1      3068 3.72040E-05-1.58726E-05-8.57134E-06 1.52217E-05-2.62932E-18 3.47898E-18
 -1      3069 9.52513E-05-2.85878E-05-2.85701E-05-2.73815E-08 2.47485E-19-1.15843E-18
 -1      3070 9.52490E-05-2.85860E-05-2.85699E-05-3.02031E-08-9.84715E-20-1.35968E-18
 -1      3071 9.52486E-05-2.85816E-05-2.85716E-05-3.16003E-08 4.47151E-19-1.32909E-18
 -1      3072 9.52525E-05-2.85819E-05-2.85731E-05-2.58766E-08 2.30434E-18 7.20852E-19
 -1      3073 8.50516E-05-1.05120E-05-3.19699E-05-5.75689E-07 2.91197E-19-3.12515E-18
 -1      3074 8.56998E-05-1.10283E-05-3.20175E-05-9.44131E-07 6.33367E-21-3.14175E-18
 -1      3075 8.68049E-05-1.27985E-05-3.16962E-05-4.00417E-07-8.23922E-20-2.86177E-18
 -1      3076 8.54213E-05-1.16012E-05-3.16152E-05-2.36600E-07 3.17397E-19-3.02626E-18
 -1      3077 1.05640E-04-5.18967E-05-2.26652E-05 3.04056E-05 1.91159E-18-7.37944E-19
 -1      3078 9.54910E-05-2.16931E-05-3.16181E-05 1.07041E-06 2.28501E-18-5.38709E-19
 -1      3079 9.23578E-05-1.71487E-05-3.22470E-05-2.76260E-06-1.18274E-18-2.50887E-18
 -1      3080 9.53533E-05-2.03661E-05-3.21600E-05-3.40026E-06-1.71715E-18-1.94132E-18
 -1      3081 9.61353E-05-2.21768E-05-3.16897E-05-1.40994E-06-1.59805E-18-1.71911E-18
 -1      3082 9.23151E-05-1.79496E-05-3.18506E-05-1.19408E-06-1.06711E-18-2.46164E-18
 -1      3083 1.11687E-04-5.52974E-05-2.39044E-05-2.92708E-05-2.69769E-18-1.81305E-18
 -1      3084 9.49636E-05-2.12105E-05-3.16088E-05-4.67243E-07-1.27159E-18-1.70431E-18
 -1      3085 9.52433E-05-2.85788E-05-2.85705E-05 3.53967E-08 1.02752E-18 5.33152E-19
 -1      3086 9.52468E-05-2.85837E-05-2.85699E-05 3.31355E-08 2.03086E-19 6.33730E-19
 -1      3087 9.52483E-05-2.85793E-05-2.85723E-05 3.22407E-08 3.69126E-19 3.84528E-19
 -1      3088 9.52430E-05-2.85757E-05-2.85716E-05 3.54013E-08 9.54665E-19-4.40955E-19
 -1      3089 1.29864E-04-1.37918E-05-5.03995E-05-7.21087E-06-5.99805E-18 1.68215E-18
 -1      3090 1.32542E-04-2.03123E-05-4.85323E-05-1.15748E-05-5.64060E-18 2.56831E-18
 -1      3091 1.23522E-04-1.39193E-05-4.74585E-05-4.30209E-06-5.09924E-18 7.09761E-19
 -1      3092 1.29205E-04-2.63007E-05-4.45396E-05-1.32742E-05-4.94688E-18 2.88409E-18
 -1      3093 9.36240E-05-2.01457E-05-3.15052E-05 8.28046E-08 2.06363E-18-9.80705E-19
 -1      3094 9.20624E-05-1.85772E-05-3.15058E-05-1.43874E-07 1.89237E-18-1.34695E-18
 -1      3095 1.26475E-04-2.90100E-05-4.21182E-05-1.49821E-05 2.78028E-18-2.05654E-18
 -1      3096 1.32137E-04-3.89938E-05-4.00230E-05-1.30988E-05 2.44613E-18-3.17574E-18
 -1      3097 1.03512E-04-3.44885E-05-2.95894E-05-9.05663E-06-3.35214E-19-6.11600E-19
 -1      3098 1.01945E-04-3.27926E-05-2.95895E-05-9.45906E-06-2.10117E-19-6.24223E-19
 -1      3099 9.49458E-05-2.34937E-05-3.06120E-05 4.45759E-06-8.41186E-19-1.61646E-18
 -1      3100 9.51547E-05-2.42566E-05-3.03869E-05 5.83038E-06-6.83483E-19-1.53982E-18
 -1      3101 9.52393E-05-2.49392E-05-3.01178E-05 7.10493E-06-6.03382E-19-1.35459E-18
 -1      3102 9.55790E-05-2.57038E-05-2.99397E-05 8.20746E-06-3.39210E-19-1.34117E-18
 -1      3103 9.36484E-05-2.33636E-05-3.01239E-05 6.41355E-06-5.54570E-19-1.56802E-18
 -1      3104 9.57637E-05-2.64649E-05-2.96860E-05 9.33212E-06-3.73926E-19-1.29840E-18
 -1      3105 9.63982E-05-2.74567E-05-2.95320E-05 1.01723E-05-4.54142E-19-1.36312E-18
 -1      3106 9.38883E-05-2.49375E-05-2.95621E-05 8.87033E-06-4.11590E-19-1.39368E-18
 -1      3107 9.69149E-05-2.85421E-05-2.92797E-05 1.11623E-05-3.78183E-19-1.23343E-18
 -1      3108 9.80476E-05-2.99962E-05-2.91438E-05 1.16942E-05-1.37979E-19-1.15224E-18
 -1      3109 9.45306E-05-2.69122E-05-2.90065E-05 1.10943E-05-3.55152E-19-1.24085E-18
 -1      3110 9.92080E-05-3.16650E-05-2.89028E-05 1.24968E-05 2.63766E-19-9.63205E-19
 -1      3111 1.01081E-04-3.37974E-05-2.88127E-05 1.25811E-05 4.55493E-19-5.11395E-19
 -1      3112 9.61024E-05-2.98427E-05-2.84500E-05 1.30944E-05 1.35140E-19-1.03748E-18
 -1      3113 1.03304E-04-3.62728E-05-2.86442E-05 1.29805E-05 8.07363E-19-7.63918E-20
 -1      3114 1.06103E-04-3.91418E-05-2.86880E-05 1.23306E-05 9.27005E-19 1.55601E-19
 -1      3115 9.93250E-05-3.43101E-05-2.79577E-05 1.46938E-05 8.96445E-19-5.96563E-19
 -1      3116 1.09837E-04-4.24056E-05-2.87566E-05 1.17744E-05 1.01359E-18 7.28723E-19
 -1      3117 1.13465E-04-4.55503E-05-2.91169E-05 9.92649E-06 7.90262E-19 1.32158E-18
 -1      3118 1.05105E-04-4.07130E-05-2.77513E-05 1.52437E-05 1.32961E-18-1.84163E-20
 -1      3119 1.26581E-04-5.25234E-05-3.16705E-05 1.99541E-06 9.90632E-20 2.82758E-18
 -1      3120 1.29135E-04-5.07889E-05-3.36070E-05-2.37633E-06-1.17420E-18 3.05948E-18
 -1      3121 1.29103E-04-3.97399E-05-3.86832E-05-1.28200E-05-3.67647E-18 3.47254E-18
 -1      3122 1.27841E-04-3.17384E-05-4.14082E-05-1.49874E-05-4.37731E-18 2.57911E-18
 -1      3123 1.24310E-04-2.00827E-05-4.49182E-05 1.23640E-05-3.53562E-18-2.11001E-18
 -1      3124 1.27234E-04-2.93247E-05-4.26353E-05 1.58993E-05-2.55380E-18-2.83295E-18
 -1      3125 1.28488E-04-4.89374E-05-3.42365E-05 6.29910E-06 1.67944E-18-2.40588E-18
 -1      3126 1.26722E-04-5.10873E-05-3.23977E-05 1.98227E-06 1.99911E-18-1.61222E-18
 -1      3127 1.21464E-04-4.99859E-05-3.07383E-05-2.84629E-06 2.17319E-18-5.30176E-19
 -1      3128 1.17918E-04-4.80387E-05-2.98168E-05-6.24372E-06 2.23438E-18-5.45921E-19
 -1      3129 1.24276E-04-5.26500E-05-3.07878E-05-4.62087E-06 2.74514E-18-9.45203E-19
 -1      3130 1.12858E-04-4.48111E-05-2.91924E-05-8.55728E-06 1.27645E-18-3.66835E-19
 -1      3131 1.09395E-04-4.17759E-05-2.88477E-05-1.03444E-05 9.25001E-19-1.04237E-18
 -1      3132 1.13684E-04-4.70530E-05-2.86060E-05-1.08871E-05 1.77267E-18-7.97991E-19
 -1      3133 1.05729E-04-3.86526E-05-2.87551E-05-1.10222E-05 1.38366E-18-7.25574E-19
 -1      3134 1.03038E-04-3.58994E-05-2.87007E-05-1.16379E-05 1.82202E-18-1.10563E-18
 -1      3135 1.05125E-04-4.02319E-05-2.79482E-05-1.33443E-05 1.09940E-18-5.24098E-19
 -1      3136 1.00842E-04-3.36088E-05-2.88037E-05-1.14010E-05 1.55784E-18-1.34382E-18
 -1      3137 9.90301E-05-3.16335E-05-2.88485E-05-1.13691E-05 1.35984E-18-1.48195E-18
 -1      3138 9.94246E-05-3.41868E-05-2.80380E-05-1.31406E-05 1.54769E-18-9.87697E-19
 -1      3139 9.78551E-05-3.01683E-05-2.89936E-05-1.07755E-05 7.55419E-19-1.38835E-18
 -1      3140 9.67385E-05-2.89218E-05-2.90504E-05-1.04081E-05-2.09431E-19-1.30011E-18
 -1      3141 9.61671E-05-3.01247E-05-2.83462E-05-1.19836E-05 1.03516E-18-1.68516E-18
 -1      3142 9.62018E-05-2.80981E-05-2.91734E-05-9.70559E-06-3.77840E-19-1.00717E-18
 -1      3143 9.55501E-05-2.73944E-05-2.92071E-05-9.17868E-06-8.45937E-21-6.84599E-19
 -1      3144 9.45200E-05-2.76939E-05-2.86600E-05-1.05256E-05 1.66896E-19-1.42531E-18
 -1      3145 9.53776E-05-2.70092E-05-2.92889E-05-8.47042E-06 2.34152E-20-4.40356E-19
 -1      3146 9.50094E-05-2.66683E-05-2.92923E-05-7.88477E-06 2.90043E-19-5.69384E-19
 -1      3147 9.38393E-05-2.64238E-05-2.89000E-05-9.04537E-06 1.98380E-19-1.01965E-18
 -1      3148 9.50260E-05-2.65566E-05-2.93339E-05-7.21529E-06 4.36877E-19-1.67280E-18
 -1      3149 9.48200E-05-2.64399E-05-2.93117E-05-6.63002E-06-8.63513E-20-1.71836E-18
 -1      3150 9.36895E-05-2.59070E-05-2.90508E-05-7.64400E-06-1.14815E-19-1.09575E-18
 -1      3151 9.49214E-05-2.64843E-05-2.93213E-05-6.01992E-06 6.82920E-21-1.37003E-18
 -1      3152 9.48040E-05-2.64957E-05-2.92818E-05-5.46984E-06-2.15234E-19-1.18994E-18
 -1      3153 9.38019E-05-2.58433E-05-2.91234E-05-6.36103E-06-1.62927E-20-2.27578E-18
 -1      3154 9.49323E-05-2.66189E-05-2.92693E-05-4.92849E-06-4.18404E-19-5.18357E-19
 -1      3155 9.48616E-05-2.66964E-05-2.92204E-05-4.43289E-06-4.09272E-19 2.34153E-19
 -1      3156 9.40209E-05-2.60284E-05-2.91370E-05-5.21317E-06 8.29685E-20-1.49819E-18
 -1      3157 9.49874E-05-2.68509E-05-2.91943E-05-3.96333E-06-1.40736E-18 3.05340E-19
 -1      3158 9.49412E-05-2.69567E-05-2.91424E-05-3.53106E-06-1.35072E-18 1.67543E-19
 -1      3159 9.42632E-05-2.63314E-05-2.91110E-05-4.20668E-06-8.21350E-19-7.32908E-19
 -1      3160 9.50517E-05-2.71152E-05-2.91095E-05-3.13220E-06-1.46371E-18-1.38403E-19
 -1      3161 9.50185E-05-2.72272E-05-2.90588E-05-2.76513E-06-4.17890E-19-6.19078E-19
 -1      3162 9.44884E-05-2.66734E-05-2.90614E-05-3.34118E-06-1.67879E-18 2.83136E-19
 -1      3163 9.51096E-05-2.73750E-05-2.90237E-05-2.43293E-06 2.06478E-19-1.22359E-18
 -1      3164 9.50841E-05-2.74815E-05-2.89771E-05-2.12832E-06-3.77329E-20-1.92515E-18
 -1      3165 9.46805E-05-2.70095E-05-2.90001E-05-2.61108E-06-5.63429E-19-3.96882E-19
 -1      3166 9.51559E-05-2.76116E-05-2.89429E-05-1.85672E-06-5.71113E-19-2.62366E-18
 -1      3167 9.51354E-05-2.77067E-05-2.89018E-05-1.60902E-06-1.16933E-18-2.57382E-18
 -1      3168 9.48356E-05-2.73160E-05-2.89357E-05-2.00658E-06-6.98621E-19-2.03124E-18
 -1      3169 9.51902E-05-2.78170E-05-2.88704E-05-1.39081E-06-7.81570E-19-2.65956E-18
 -1      3170 9.51735E-05-2.78986E-05-2.88352E-05-1.19312E-06-1.99180E-19-2.17351E-18
 -1      3171 9.49562E-05-2.75828E-05-2.88735E-05-1.51487E-06-6.59322E-19-2.71384E-18
 -1      3172 9.52143E-05-2.79895E-05-2.88074E-05-1.02078E-06-4.62222E-19-1.87191E-18
 -1      3173 9.52008E-05-2.80574E-05-2.87781E-05-8.65792E-07-4.32272E-19-2.02395E-18
 -1      3174 9.50473E-05-2.78074E-05-2.88166E-05-1.12173E-06-8.29922E-20-2.83612E-18
 -1      3175 9.52303E-05-2.81307E-05-2.87544E-05-7.31978E-07-1.47805E-19-1.56835E-18
 -1      3176 9.52194E-05-2.81859E-05-2.87305E-05-6.12569E-07 1.81955E-19-1.72351E-18
 -1      3177 9.51144E-05-2.79916E-05-2.87666E-05-8.12692E-07 1.71405E-20-2.77176E-18
 -1      3178 9.52403E-05-2.82437E-05-2.87108E-05-5.10439E-07-5.83715E-20-2.18924E-18
 -1      3179 9.52317E-05-2.82877E-05-2.86917E-05-4.20052E-07-6.87286E-19-1.55180E-18
 -1      3180 9.51624E-05-2.81394E-05-2.87240E-05-5.73875E-07 7.25881E-20-2.77500E-18
 -1      3181 9.52459E-05-2.83325E-05-2.86756E-05-3.43476E-07-5.12583E-19-1.30906E-18
 -1      3182 9.52393E-05-2.83669E-05-2.86606E-05-2.76301E-07 3.79298E-19-1.19302E-18
 -1      3183 9.51959E-05-2.82558E-05-2.86886E-05-3.92484E-07-2.78873E-19-2.75335E-18
 -1      3184 9.52486E-05-2.84009E-05-2.86478E-05-2.19961E-07 1.78297E-19-8.60833E-19
 -1      3185 9.52435E-05-2.84274E-05-2.86362E-05-1.71022E-07-6.00366E-19-1.05059E-18
 -1      3186 9.52184E-05-2.83457E-05-2.86598E-05-2.57173E-07 4.06645E-19-1.70241E-18
 -1      3187 9.52493E-05-2.84528E-05-2.86261E-05-1.30435E-07-1.05185E-19-9.10090E-19
 -1      3188 9.52455E-05-2.84728E-05-2.86174E-05-9.55824E-08 1.30249E-18-2.03944E-18
 -1      3189 9.52328E-05-2.84140E-05-2.86367E-05-1.58186E-07-1.62697E-19-1.02256E-18
 -1      3190 9.52487E-05-2.84915E-05-2.86096E-05-6.70608E-08 1.79558E-18-3.14896E-18
 -1      3191 9.52461E-05-2.85064E-05-2.86031E-05-4.29236E-08 1.44283E-18-3.14473E-18
 -1      3192 9.52414E-05-2.84649E-05-2.86186E-05-8.73600E-08 1.17668E-18-1.56021E-18
 -1      3193 9.52475E-05-2.85199E-05-2.85971E-05-2.35048E-08 1.65732E-18-4.15387E-18
 -1      3194 9.52457E-05-2.85309E-05-2.85923E-05-7.41431E-09 1.10605E-18-4.77892E-18
 -1      3195 9.52459E-05-2.85023E-05-2.86045E-05-3.80278E-08 7.88900E-19-3.35174E-18
 -1      3196 9.52461E-05-2.85406E-05-2.85877E-05 5.21724E-09 5.30716E-19-3.67370E-18
 -1      3197 9.52449E-05-2.85488E-05-2.85842E-05 1.53064E-08 4.90644E-19-3.12918E-18
 -1      3198 9.52477E-05-2.85294E-05-2.85936E-05-4.87591E-09 1.59656E-18-5.31655E-18
 -1      3199 9.52446E-05-2.85558E-05-2.85807E-05 2.28893E-08 1.88458E-19-2.54208E-18
 -1      3200 9.52441E-05-2.85620E-05-2.85781E-05 2.84590E-08 1.76664E-19-2.18912E-18
 -1      3201 9.52479E-05-2.85491E-05-2.85853E-05 1.61544E-08 5.84964E-19-3.37323E-18
 -1      3202 9.52435E-05-2.85666E-05-2.85756E-05 3.19900E-08-5.36474E-19-1.23154E-18
 -1      3203 9.52434E-05-2.85717E-05-2.85736E-05 3.42117E-08-3.80832E-19-1.33462E-18
 -1      3204 9.52464E-05-2.85734E-05-2.85743E-05 3.30110E-08 6.63906E-19 1.17105E-19
 -1      3205 9.52472E-05-2.85631E-05-2.85790E-05 2.77965E-08 1.23930E-19-1.58653E-18
 -1      3206 1.00592E-04-3.12945E-05-2.96974E-05-9.23729E-06 9.18890E-20-5.65116E-19
 -1      3207 9.94905E-05-3.00079E-05-2.97466E-05-9.08451E-06 4.09907E-19-4.74759E-19
 -1      3208 9.96728E-05-3.16297E-05-2.92129E-05-1.04599E-05 2.13235E-20-5.98963E-19
 -1      3209 5.34016E-05-2.07177E-05-1.40086E-05 2.44183E-05 2.21510E-18-3.20718E-18
 -1      3210 4.40420E-05-1.49162E-05-1.16774E-05 1.49224E-05 1.69084E-18-4.31034E-18
 -1      3211 9.52565E-05-2.85735E-05-2.85784E-05 1.07725E-08 1.33814E-18-9.64473E-19
 -1      3212 9.52569E-05-2.85734E-05-2.85787E-05 6.42608E-09 1.60347E-18-3.80837E-19
 -1      3213 1.12789E-04-4.25548E-05-3.01542E-05-4.02006E-06-5.87002E-19 4.56438E-20
 -1      3214 1.10607E-04-4.07426E-05-2.98554E-05-6.10124E-06-4.40671E-19-3.18650E-19
 -1      3215 1.17954E-04-4.49150E-05-3.13550E-05 1.74341E-06-5.62767E-19 6.89352E-19
 -1      3216 1.16259E-04-4.44229E-05-3.07137E-05-1.23489E-06-5.81018E-19 4.55942E-19
 -1      3217 1.14648E-04-4.51905E-05-2.98760E-05-5.46029E-06-8.07600E-19-6.51562E-20
 -1      3218 1.20957E-04-4.27071E-05-3.35776E-05 8.53980E-06-2.47668E-19 1.35566E-18
 -1      3219 1.20663E-04-4.47599E-05-3.25440E-05 5.68543E-06-6.09404E-19 1.08777E-18
 -1      3220 1.21124E-04-4.72802E-05-3.16879E-05 1.47795E-06-9.11421E-19 7.07038E-19
 -1      3221 1.21650E-04-3.48851E-05-3.72804E-05 1.26373E-05 5.91229E-19 2.35253E-18
 -1      3222 1.23471E-04-4.03802E-05-3.57691E-05 1.16715E-05-1.23826E-19 1.96146E-18
 -1      3223 1.16147E-04-1.83121E-05-4.23710E-05 9.26565E-06 2.43585E-18 2.13701E-18
 -1      3224 1.18415E-04-2.35760E-05-4.10942E-05 1.21351E-05 2.14961E-18 2.41327E-18
 -1      3225 1.13881E-04-1.46445E-05-4.31398E-05-2.94353E-06 3.08632E-18 1.40330E-19
 -1      3226 1.13895E-04-1.48545E-05-4.29510E-05 2.79886E-06 2.99733E-18 8.97120E-19
 -1      3227 1.20532E-04-3.54992E-05-3.68983E-05-1.43241E-05 1.33953E-18-2.00244E-18
 -1      3228 1.18345E-04-2.99767E-05-3.80847E-05-1.35502E-05 1.55057E-18-1.65521E-18
 -1      3229 1.24375E-04-4.58329E-05-3.37642E-05-7.68470E-06 4.77330E-19-2.38342E-18
 -1      3230 1.24246E-04-4.21241E-05-3.52818E-05-1.05619E-05 1.00675E-18-2.46484E-18
 -1      3231 1.12487E-04-4.20257E-05-3.01076E-05 3.66083E-06-7.59001E-19-1.59254E-18
 -1      3232 1.14622E-04-4.35442E-05-3.05128E-05 1.25598E-06-8.32931E-19-1.50367E-18
 -1      3233 1.07144E-04-3.78311E-05-2.96306E-05 6.94260E-06-5.63981E-19-8.57376E-19
 -1      3234 1.09259E-04-3.98034E-05-2.98006E-05 5.47883E-06-4.85400E-19-1.03369E-18
 -1      3235 1.09950E-04-4.18770E-05-2.92652E-05 7.20078E-06-9.40198E-19-9.48194E-19
 -1      3236 1.02973E-04-3.40193E-05-2.95016E-05 8.36622E-06-5.21755E-19 3.23141E-19
 -1      3237 1.04705E-04-3.57604E-05-2.95597E-05 7.66972E-06-4.78704E-19-3.55200E-19
 -1      3238 1.04288E-04-3.69816E-05-2.89240E-05 9.30967E-06-9.91948E-19 1.34586E-19
 -1      3239 1.00071E-04-3.11626E-05-2.95037E-05 8.59303E-06-4.52646E-19 4.56429E-19
 -1      3240 1.01349E-04-3.24536E-05-2.95261E-05 8.42975E-06-2.95460E-19 6.27115E-19
 -1      3241 1.00292E-04-3.29310E-05-2.89233E-05 9.77016E-06-5.37378E-19 5.93119E-19
 -1      3242 9.81966E-05-2.92758E-05-2.95236E-05 8.13141E-06 3.57125E-19-3.86113E-19
 -1      3243 9.90876E-05-3.01286E-05-2.95477E-05 8.29847E-06 3.46911E-19 5.61968E-20
 -1      3244 9.77491E-05-3.00815E-05-2.90341E-05 9.33352E-06 4.11685E-19 5.31243E-19
 -1      3245 9.70388E-05-2.81552E-05-2.95166E-05 7.31492E-06-1.77894E-19-7.44295E-19
 -1      3246 9.76475E-05-2.86668E-05-2.95548E-05 7.66779E-06 2.24690E-19-7.50233E-19
 -1      3247 9.62657E-05-2.83029E-05-2.91455E-05 8.45955E-06 6.34702E-19-9.68703E-20
 -1      3248 9.63442E-05-2.75739E-05-2.94733E-05 6.34747E-06-4.40247E-19-3.83887E-19
 -1      3249 9.67613E-05-2.78469E-05-2.95258E-05 6.78711E-06-4.88503E-19-8.75227E-19
 -1      3250 9.54700E-05-2.73205E-05-2.92162E-05 7.40603E-06-2.34168E-19-3.85942E-19
 -1      3251 9.59333E-05-2.73414E-05-2.93995E-05 5.35427E-06-5.36166E-19-2.62637E-19
 -1      3252 9.62245E-05-2.74601E-05-2.94616E-05 5.81609E-06-3.96717E-19-6.42642E-19
 -1      3253 9.50901E-05-2.68767E-05-2.92385E-05 6.31435E-06-5.54140E-19-1.55502E-19
 -1      3254 9.56901E-05-2.73180E-05-2.93065E-05 4.40991E-06-7.65133E-19-2.48719E-19
 -1      3255 9.58988E-05-2.73435E-05-2.93725E-05 4.85389E-06-5.03881E-19-3.66955E-20
 -1      3256 9.49448E-05-2.67698E-05-2.92194E-05 5.26491E-06-4.87490E-19-7.69790E-20
 -1      3257 9.55436E-05-2.74088E-05-2.92050E-05 3.55560E-06-5.58111E-20 6.74602E-21
 -1      3258 9.56973E-05-2.73824E-05-2.92700E-05 3.95911E-06 9.92036E-20 3.16661E-19
 -1      3259 9.49216E-05-2.68566E-05-2.91711E-05 4.30282E-06-2.16741E-19 6.40929E-19
 -1      3260 9.54523E-05-2.75532E-05-2.91037E-05 2.81043E-06-6.87163E-20-7.57163E-19
 -1      3261 9.55679E-05-2.75013E-05-2.91644E-05 3.16270E-06-2.01731E-19-4.84941E-19
 -1      3262 9.49551E-05-2.70417E-05-2.91057E-05 3.45096E-06 1.70561E-19-8.96413E-19
 -1      3263 9.53929E-05-2.77146E-05-2.90086E-05 2.17912E-06 5.62878E-19-3.94122E-19
 -1      3264 9.54809E-05-2.76532E-05-2.90629E-05 2.47717E-06-8.00019E-20-6.82979E-19
 -1      3265 9.50090E-05-2.72656E-05-2.90328E-05 2.71762E-06-1.43011E-19-2.18891E-18
 -1      3266 9.53523E-05-2.78721E-05-2.89231E-05 1.65729E-06 2.94929E-19 1.93883E-19
 -1      3267 9.54197E-05-2.78105E-05-2.89700E-05 1.90301E-06 7.60140E-19 4.88808E-19
 -1      3268 9.50650E-05-2.74929E-05-2.89595E-05 2.10150E-06 1.43449E-19-7.34703E-19
 -1      3269 9.53232E-05-2.80147E-05-2.88489E-05 1.23518E-06-6.13262E-19 2.03868E-19
 -1      3270 9.53746E-05-2.79580E-05-2.88884E-05 1.43328E-06-3.48385E-19 9.26219E-20
 -1      3271 9.51147E-05-2.77039E-05-2.88904E-05 1.59499E-06 4.94911E-20 5.82365E-19
 -1      3272 9.53015E-05-2.81379E-05-2.87863E-05 9.00398E-07 1.09605E-20-2.26981E-19
 -1      3273 9.53405E-05-2.80883E-05-2.88187E-05 1.05689E-06-2.60044E-19-2.56157E-20
 -1      3274 9.51551E-05-2.78895E-05-2.88283E-05 1.18671E-06-3.32591E-19 1.52650E-19
 -1      3275 9.52851E-05-2.82407E-05-2.87348E-05 6.39817E-07 5.91176E-19 1.09856E-18
 -1      3276 9.53143E-05-2.81989E-05-2.87608E-05 7.61087E-07-2.91746E-20 7.81013E-19
 -1      3277 9.51861E-05-2.80465E-05-2.87744E-05 8.63680E-07-3.58437E-19 4.52770E-19
 -1      3278 9.52726E-05-2.83242E-05-2.86933E-05 4.40717E-07 1.53489E-19 2.70801E-18
 -1      3279 9.52941E-05-2.82899E-05-2.87137E-05 5.32931E-07 8.09004E-19 2.42793E-18
 -1      3280 9.52087E-05-2.81754E-05-2.87288E-05 6.12692E-07-9.71904E-20 2.26666E-18
 -1      3281 9.52630E-05-2.83905E-05-2.86604E-05 2.91433E-07-6.82837E-19 3.15112E-18
 -1      3282 9.52785E-05-2.83630E-05-2.86762E-05 3.60212E-07-4.25632E-19 3.31772E-18
 -1      3283 9.52245E-05-2.82788E-05-2.86913E-05 4.21182E-07-7.28212E-19 4.42955E-18
 -1      3284 9.52557E-05-2.84420E-05-2.86350E-05 1.81708E-07-7.01340E-19 3.47375E-18
 -1      3285 9.52666E-05-2.84204E-05-2.86470E-05 2.31962E-07-4.99086E-19 3.15174E-18
 -1      3286 9.52348E-05-2.83599E-05-2.86610E-05 2.77747E-07-6.68510E-19 5.10320E-18
 -1      3287 9.52502E-05-2.84813E-05-2.86157E-05 1.02817E-07 6.52661E-19 1.45779E-18
 -1      3288 9.52577E-05-2.84647E-05-2.86245E-05 1.38699E-07-1.71997E-20 2.36110E-18
 -1      3289 9.52412E-05-2.84222E-05-2.86370E-05 1.72428E-07-6.43527E-20 2.97961E-18
 -1      3290 9.52462E-05-2.85107E-05-2.86012E-05 4.75509E-08 1.94901E-18-2.66608E-20
 -1      3291 9.52510E-05-2.84981E-05-2.86076E-05 7.24676E-08 1.56474E-18 9.72652E-19
 -1      3292 9.52446E-05-2.84692E-05-2.86183E-05 9.67896E-08 1.57545E-18 9.47712E-20
 -1      3293 9.52433E-05-2.85325E-05-2.85905E-05 1.01157E-08 9.95520E-19 5.88931E-19
 -1      3294 9.52462E-05-2.85230E-05-2.85951E-05 2.67851E-08 1.70549E-18 5.22467E-19
 -1      3295 9.52460E-05-2.85040E-05-2.86039E-05 4.38848E-08 1.83613E-18 2.43710E-19
 -1      3296 9.52414E-05-2.85486E-05-2.85827E-05-1.40093E-08-1.87499E-19 5.75582E-19
 -1      3297 9.52429E-05-2.85414E-05-2.85860E-05-3.48747E-09 9.90515E-19 7.65246E-19
 -1      3298 9.52462E-05-2.85295E-05-2.85930E-05 8.14382E-09 7.21929E-19 2.53127E-18
 -1      3299 9.52403E-05-2.85606E-05-2.85771E-05-2.82342E-08-5.22405E-20 5.96072E-19
 -1      3300 9.52408E-05-2.85550E-05-2.85794E-05-2.22959E-08-2.85676E-19-6.69042E-19
 -1      3301 9.52456E-05-2.85481E-05-2.85848E-05-1.47678E-08 3.12790E-19 2.21593E-18
 -1      3302 9.52400E-05-2.85700E-05-2.85729E-05-3.49322E-08 4.17854E-19 1.49956E-18
 -1      3303 9.52398E-05-2.85656E-05-2.85745E-05-3.25371E-08-1.27935E-19 3.89862E-19
 -1      3304 9.52448E-05-2.85619E-05-2.85785E-05-2.81233E-08-2.46827E-19-6.61555E-19
 -1      3305 9.52418E-05-2.85763E-05-2.85709E-05-3.56086E-08-7.63663E-19 1.16961E-18
 -1      3306 9.52403E-05-2.85728E-05-2.85717E-05-3.58478E-08 6.83916E-20 1.18675E-18
 -1      3307 9.52450E-05-2.85711E-05-2.85746E-05-3.33408E-08-5.64279E-19-1.15548E-18
 -1      3308 9.52459E-05-2.85779E-05-2.85720E-05-3.41597E-08-1.01599E-19-9.81194E-19
 -1      3309 9.75321E-05-2.71567E-05-3.01596E-05-6.97828E-06 7.95962E-19-3.25255E-19
 -1      3310 9.70820E-05-2.63689E-05-3.02876E-05-6.03426E-06 1.11517E-18-4.00944E-19
 -1      3311 1.11822E-04-5.31960E-05-2.53279E-05 2.47364E-05 1.78308E-18 8.53121E-20
 -1      3312 9.90914E-05-4.64161E-05-2.20914E-05 3.01495E-05 2.15573E-18-8.19848E-19
 -1      3313 9.52569E-05-2.85730E-05-2.85789E-05 2.16862E-09 8.68232E-19-1.88660E-18
 -1      3314 9.52569E-05-2.85730E-05-2.85789E-05-2.29278E-09 1.54239E-18-3.19092E-18
 -1      3315 9.52570E-05-2.85641E-05-2.85825E-05 3.91445E-09 2.30992E-18-1.54094E-18
 -1      3316 1.26049E-04-5.63063E-05-3.00565E-05 1.09496E-05-7.25775E-19-3.28899E-18
 -1      3317 1.18512E-04-5.58021E-05-2.67428E-05 2.00961E-05-9.08972E-19-3.24673E-18
 -1      3318 9.52520E-05-2.85756E-05-2.85756E-05 2.71105E-08 8.64505E-19 4.29186E-19
 -1      3319 9.52540E-05-2.85758E-05-2.85764E-05 2.33374E-08 1.04206E-18 2.60413E-19
 -1      3320 5.12124E-05-1.92785E-05-1.32129E-05-2.25470E-05-9.23081E-19-3.90037E-18
 -1      3321 6.20080E-05-2.63295E-05-1.51538E-05-3.03405E-05-1.36584E-18-3.28850E-18
 -1      3322 1.16479E-04-1.88982E-05-4.21746E-05-9.36340E-06 2.86318E-18-8.76732E-19
 -1      3323 1.26958E-04-5.71498E-05-2.96157E-05-1.29794E-05-2.12657E-18 5.52689E-19
 -1      3324 1.31074E-04-5.47581E-05-3.30224E-05-3.23314E-06-1.86067E-18 1.09400E-18
 -1      3325 8.27774E-05-3.80929E-05-1.93256E-05 3.30752E-05 2.21129E-18-1.56775E-18
 -1      3326 6.89082E-05-2.88299E-05-1.64973E-05 3.04737E-05 2.44327E-18-2.03928E-18
 -1      3327 1.26225E-04-1.80206E-05-4.68385E-05 9.89661E-06-3.99143E-18-9.95211E-19
 -1      3328 9.52551E-05-2.85746E-05-2.85774E-05 1.92601E-08 9.10969E-19-3.62569E-19
 -1      3329 9.52561E-05-2.85745E-05-2.85779E-05 1.50092E-08 1.36354E-18-6.42122E-19
 -1      3330 9.52565E-05-2.85656E-05-2.85817E-05 1.20045E-08 2.17911E-18-4.56919E-19
 -1      3331 9.52548E-05-2.85679E-05-2.85801E-05 2.01518E-08 9.81678E-19 6.84174E-20
 -1      3332 9.86994E-05-2.89336E-05-2.98961E-05-8.46496E-06 5.60490E-19-4.84166E-19
 -1      3333 9.79777E-05-2.79725E-05-2.99792E-05-7.88880E-06 6.69820E-19-3.48303E-19
 -1      3334 9.63831E-05-2.66774E-05-2.98927E-05-7.74813E-06 7.65006E-19-5.94923E-19
 -1      3335 9.44905E-05-2.16197E-05-3.12241E-05 1.35941E-06-1.08755E-18-1.89939E-18
 -1      3336 9.47650E-05-2.26370E-05-3.09189E-05 3.01629E-06-9.82982E-19-1.83616E-18
 -1      3337 9.34190E-05-2.17211E-05-3.07275E-05 3.66290E-06-8.44715E-19-1.84365E-18
 -1      3338 1.38518E-04-4.57570E-05-4.01204E-05-8.72822E-06-3.82160E-18 3.37119E-18
 -1      3339 1.35772E-04-4.98212E-05-3.68123E-05-5.15984E-06-2.77252E-18 3.05551E-18
 -1      3340 4.59005E-05-1.82871E-05-1.11386E-05 2.33336E-05-2.71553E-18 2.73549E-18
 -1      3341 4.17732E-05-1.38897E-05-1.15657E-05 1.15896E-05-2.26010E-18 2.62676E-18
 -1      3342 1.07645E-04-3.84717E-05-2.96740E-05-7.49672E-06-4.91800E-20-6.59691E-19
 -1      3343 1.05637E-04-3.64753E-05-2.95726E-05-8.65001E-06-1.29154E-19-4.79720E-19
 -1      3344 1.03091E-04-3.55204E-05-2.90355E-05-1.05840E-05-2.54668E-19-7.93995E-19
 -1      3345 1.29799E-04-3.70891E-05-3.99386E-05 1.40517E-05-9.50318E-19-2.66530E-18
 -1      3346 1.24196E-04-2.37035E-05-4.36530E-05-1.29907E-05-4.67530E-18 1.76410E-18
 -1      3347 8.61249E-05-1.31717E-05-3.12751E-05-4.42614E-07 1.17920E-18-2.39924E-18
 -1      3348 8.55493E-05-1.26945E-05-3.12435E-05-4.81567E-07 8.60765E-19-2.49338E-18
 -1      3349 9.62992E-05-2.34850E-05-3.12054E-05-8.17062E-07 1.97471E-18-4.64333E-19
 -1      3350 9.47695E-05-2.14646E-05-3.14109E-05-2.49077E-07 2.08356E-18-6.69416E-19
 -1      3351 9.44555E-05-2.18816E-05-3.10901E-05-1.72836E-06 1.77673E-18-7.82687E-19
 -1      3352 9.65562E-05-2.44425E-05-3.09122E-05-2.50657E-06 1.71683E-18-5.02613E-19
 -1      3353 1.32136E-04-5.59366E-05-3.25549E-05-2.96090E-06 2.60312E-18-9.64453E-19
 -1      3354 1.32897E-04-5.00855E-05-3.56880E-05 5.78613E-06 1.38207E-18-1.64912E-18
 -1      3355 9.30539E-05-1.92560E-05-3.16396E-05-4.01230E-07-1.08934E-18-2.24704E-18
 -1      3356 9.38083E-05-2.04785E-05-3.14210E-05 5.33668E-07-1.09142E-18-2.01582E-18
 -1      3357 9.11237E-05-1.73165E-05-3.16438E-05-2.46235E-07-8.08584E-19-2.72097E-18
 -1      3358 1.31264E-04-4.50363E-05-3.72226E-05 1.17692E-05 9.29817E-19-2.56063E-18
 -1      3359 7.64259E-05-3.49265E-05-1.73132E-05-3.37785E-05-1.97322E-18-3.17606E-18
 -1      3360 9.02285E-05-4.38563E-05-1.99929E-05-3.46616E-05-2.38535E-18-2.95350E-18
 -1      3361 1.04706E-04-5.05822E-05-2.27721E-05-2.98170E-05-2.64190E-18-2.04245E-18
 -1      3362 1.17383E-04-5.62622E-05-2.65251E-05-2.28318E-05-2.39096E-18-5.71764E-19
 -1      3363 1.19114E-04-2.43918E-05-4.10295E-05-1.35577E-05 2.49652E-18-1.31344E-18
 -1      3364 8.52115E-05-1.23854E-05-3.12244E-05-2.16625E-07 8.06708E-19-2.54948E-18
 -1      3365 8.51529E-05-1.23361E-05-3.12231E-05-2.01779E-07 6.17771E-19-2.73454E-18
 -1      3366 8.56911E-05-1.35884E-05-3.08751E-05-5.83995E-07 7.70346E-19-2.43031E-18
 -1      3367 8.10950E-05-3.94561E-05-1.72810E-05-3.51312E-05 1.65426E-18 3.62472E-18
 -1      3368 9.26326E-05-4.51640E-05-2.04131E-05-3.24913E-05 2.65555E-18 1.59727E-18
 -1      3369 7.43133E-05-3.35623E-05-1.71879E-05-3.24923E-05 1.01416E-18 4.12807E-18
 -1      3370 1.30004E-04-4.31669E-05-3.71210E-05-1.09494E-05 1.05879E-18-3.13021E-18
 -1      3371 9.52486E-05-2.85737E-05-2.85750E-05 3.11150E-08 9.64823E-19 6.27505E-19
 -1      3372 9.52506E-05-2.85753E-05-2.85752E-05 2.92991E-08 6.05880E-19 5.79934E-19
 -1      3373 9.52523E-05-2.85688E-05-2.85785E-05 2.58773E-08 1.66987E-18-5.33604E-19
 -1      3374 9.52491E-05-2.85684E-05-2.85773E-05 2.94731E-08 9.09259E-19-2.47683E-19
 -1      3375 4.89631E-05-1.63594E-05-1.35250E-05-1.74516E-05-5.26431E-19-3.97216E-18
 -1      3376 5.81162E-05-1.86103E-05-1.66277E-05-1.86665E-05-6.83132E-19-3.14969E-18
 -1      3377 4.75864E-05-1.38929E-05-1.42736E-05-9.86356E-06 6.77362E-20-3.58930E-18
 -1      3378 4.56897E-05-1.37276E-05-1.31818E-05 6.53231E-06 1.07115E-18-4.04914E-18
 -1      3379 1.13033E-04-5.37397E-05-2.53615E-05 2.38587E-05-1.08156E-18-3.37347E-18
 -1      3380 1.05816E-04-4.98375E-05-2.38485E-05 2.62763E-05-1.42357E-18-2.85432E-18
 -1      3381 1.16389E-04-5.29384E-05-2.70833E-05 1.71622E-05-1.28813E-18-3.37969E-18
 -1      3382 1.22865E-04-5.07774E-05-3.08647E-05 3.77705E-06 3.16542E-19 2.38506E-18
 -1      3383 1.23249E-04-5.46136E-05-2.98022E-05 1.00297E-05 8.69086E-19 2.02726E-18
 -1      3384 1.20382E-04-5.48694E-05-2.78271E-05 1.66412E-05 1.38632E-18 1.07199E-18
 -1      3385 1.18977E-04-4.91037E-05-2.97836E-05 7.55670E-06 6.02532E-19 1.89696E-18
 -1      3386 1.21858E-04-1.62527E-05-4.56024E-05-8.98221E-06-4.81506E-18 8.30066E-19
 -1      3387 9.94548E-05-4.55970E-05-2.28006E-05-2.83545E-05-2.36852E-18-1.95336E-18
 -1      3388 9.75815E-05-2.87791E-05-2.95194E-05-9.41614E-06 4.64500E-19-6.54343E-19
 -1      3389 1.13962E-04-5.08527E-05-2.69635E-05 1.82052E-05 1.39678E-18 7.53525E-19
 -1      3390 1.08150E-04-4.03582E-05-2.91535E-05-9.20193E-06-4.97722E-19-5.83090E-19
 -1      3391 1.26514E-04-4.50209E-05-3.51215E-05 8.35072E-06-7.06558E-19 1.55227E-18
 -1      3392 1.20193E-04-5.46929E-05-2.80490E-05-1.58880E-05-2.13188E-18 4.89823E-20
 -1      3393 1.18113E-04-4.49660E-05-3.12702E-05-1.89881E-06-2.38661E-19-1.87641E-18
 -1      3394 1.19480E-04-4.48726E-05-3.19975E-05-5.02321E-06 1.23693E-19-1.61673E-18
 -1      3395 9.52560E-05-2.85744E-05-2.85779E-05-1.51534E-08 2.68777E-18 1.05864E-18
 -1      3396 9.52550E-05-2.85744E-05-2.85774E-05-1.93358E-08 2.75672E-18 1.19579E-18
 -1      3397 9.26541E-05-4.04920E-05-2.20856E-05 2.80519E-05 2.16147E-18-1.10020E-18
 -1      3398 8.65778E-05-1.35561E-05-3.13138E-05 3.31372E-07 5.89779E-20-2.75915E-18
 -1      3399 8.75366E-05-1.43705E-05-3.13654E-05 2.73926E-07-2.04256E-19-2.65067E-18
 -1      3400 1.28713E-04-5.52844E-05-3.14734E-05 5.23405E-06-4.06020E-19-3.43962E-18
 -1      3401 1.23082E-04-5.39663E-05-2.96662E-05 9.03135E-06-8.78022E-19-2.93020E-18
 -1      3402 1.28849E-04-5.26663E-05-3.27788E-05-5.24722E-07-4.15028E-19-3.04109E-18
 -1      3403 9.52568E-05-2.85733E-05-2.85787E-05-6.51890E-09 1.92207E-18-2.07002E-18
 -1      3404 9.52564E-05-2.85734E-05-2.85784E-05-1.09186E-08 2.62022E-18-9.01724E-19
 -1      3405 9.52564E-05-2.85655E-05-2.85817E-05-1.21617E-08 2.92619E-18-2.80989E-19
 -1      3406 9.52570E-05-2.85641E-05-2.85825E-05-4.12162E-09 1.24255E-18-2.73530E-18
 -1      3407 9.29028E-05-4.41363E-05-2.07173E-05 3.17353E-05-2.37445E-18-5.61874E-19
 -1      3408 8.29828E-05-4.05988E-05-1.77515E-05 3.56666E-05-2.43511E-18 8.51692E-19
 -1      3409 7.56694E-05-3.48932E-05-1.72705E-05 3.35282E-05-2.74269E-18 1.14318E-18
 -1      3410 7.31714E-05-2.99327E-05-1.81887E-05-2.90117E-05-1.45457E-18-2.95313E-18
 -1      3411 8.85377E-05-1.51249E-05-3.14838E-05 1.98443E-07-3.66729E-19-2.64704E-18
 -1      3412 8.98672E-05-1.63085E-05-3.15354E-05 4.19120E-08-6.18808E-19-2.81107E-18
 -1      3413 9.06343E-05-1.74900E-05-3.13311E-05 7.68423E-07-6.74046E-19-2.51292E-18
 -1      3414 8.83445E-05-1.57234E-05-3.11032E-05 1.02245E-06-2.46230E-19-2.50328E-18
 -1      3415 1.25742E-04-5.10297E-05-3.20760E-05-6.46303E-07-1.48813E-18 8.96227E-19
 -1      3416 1.29796E-04-5.04128E-05-3.40632E-05 3.38714E-06-1.40311E-18 1.33127E-18
 -1      3417 4.16354E-05-1.21617E-05-1.18900E-05 5.17825E-06-1.80873E-18 1.60301E-18
 -1      3418 4.37546E-05-1.26813E-05-1.29102E-05-1.41267E-06-1.24679E-18 1.92944E-18
 -1      3419 4.79474E-05-1.45344E-05-1.40530E-05 1.24628E-05-2.05552E-18 2.88288E-18
 -1      3420 4.95878E-05-1.92263E-05-1.24086E-05-2.28043E-05-2.77033E-19 4.39060E-18
 -1      3421 5.91045E-05-2.32898E-05-1.51800E-05-2.58498E-05-8.84355E-20 4.84990E-18
 -1      3422 4.86216E-05-1.60093E-05-1.37187E-05-1.60726E-05-5.50413E-19 3.82933E-18
 -1      3423 9.05757E-05-1.71706E-05-3.14703E-05-2.46123E-07 1.83657E-18-1.70240E-18
 -1      3424 8.92178E-05-1.59387E-05-3.14261E-05-4.76274E-07 1.62479E-18-1.81938E-18
 -1      3425 9.18214E-05-1.90933E-05-3.11497E-05-1.41830E-06 1.67948E-18-1.48943E-18
 -1      3426 1.20025E-04-5.68479E-05-2.68847E-05-1.98745E-05 3.23837E-18-2.99188E-19
 -1      3427 1.27101E-04-5.69673E-05-3.02698E-05-1.05703E-05 2.99997E-18-4.08667E-19
 -1      3428 1.06937E-04-5.05681E-05-2.37011E-05-2.66490E-05 3.44772E-18 7.93988E-19
 -1      3429 1.14137E-04-5.46007E-05-2.54157E-05-2.40751E-05 3.36521E-18 3.09445E-19
 -1      3430 1.16764E-04-5.33988E-05-2.70947E-05-1.71468E-05 3.20785E-18-1.77043E-19
 -1      3431 5.67283E-05-2.30800E-05-1.40103E-05 2.64395E-05-3.06959E-18 2.60812E-18
 -1      3432 9.25523E-05-1.96650E-05-3.12460E-05 1.33727E-06-8.94691E-19-2.09053E-18
 -1      3433 1.32444E-04-3.97762E-05-4.00883E-05-1.25659E-05-4.06586E-18 3.46389E-18
 -1      3434 1.26165E-04-5.52065E-05-3.04940E-05-7.27902E-06 3.15983E-18-8.15507E-19
 -1      3435 9.52540E-05-2.85758E-05-2.85764E-05-2.29045E-08 2.74494E-18 9.41431E-19
 -1      3436 9.52524E-05-2.85759E-05-2.85756E-05-2.60748E-08 1.70853E-18 7.16503E-19
 -1      3437 9.52549E-05-2.85679E-05-2.85801E-05-1.96416E-08 2.34925E-18 1.12089E-18
 -1      3438 8.79818E-05-1.48033E-05-3.13708E-05-4.61169E-07 1.60007E-18-1.99520E-18
 -1      3439 8.69637E-05-1.39320E-05-3.13214E-05-5.99654E-07 1.32135E-18-2.25287E-18
 -1      3440 8.69196E-05-1.46591E-05-3.09441E-05-1.12083E-06 1.11997E-18-2.19301E-18
 -1      3441 8.90586E-05-1.65532E-05-3.10516E-05-1.39647E-06 1.42290E-18-1.81525E-18
 -1      3442 1.32343E-04-5.21014E-05-3.44648E-05-1.90140E-06-1.52463E-18 2.89733E-18
 -1      3443 1.14145E-04-4.83950E-05-2.83749E-05 1.31979E-05 1.06797E-18 1.32756E-18
 -1      3444 1.19822E-04-1.29586E-05-4.61592E-05-1.74941E-06-4.89024E-18-3.38694E-19
 -1      3445 1.16702E-04-4.61237E-05-3.03271E-05 2.56826E-06-6.28139E-19-1.24771E-18
 -1      3446 9.69755E-05-2.58420E-05-3.04868E-05-5.00914E-06 1.31298E-18-5.48192E-19
 -1      3447 9.66838E-05-2.50637E-05-3.06791E-05-3.71177E-06 1.44936E-18-5.57490E-19
 -1      3448 9.56669E-05-2.39139E-05-3.07622E-05-3.37964E-06 1.59322E-18-5.83317E-19
 -1      3449 9.58621E-05-2.51595E-05-3.03119E-05-5.70556E-06 1.15380E-18-6.52869E-19
 -1      3450 8.53640E-05-1.25151E-05-3.12385E-05 9.46244E-08 4.54639E-19-2.83514E-18
 -1      3451 8.58348E-05-1.29055E-05-3.12684E-05 9.79615E-08 1.75263E-19-2.82972E-18
 -1      3452 8.65124E-05-1.42881E-05-3.09334E-05 7.45931E-07 9.07440E-20-2.64485E-18
 -1      3453 1.20093E-04-1.40478E-05-4.61003E-05 5.81588E-06-4.36698E-18-8.08222E-19
 -1      3454 9.19286E-05-2.31930E-05-2.94610E-05 7.98424E-06-2.64444E-19-1.54364E-18
 -1      3455 9.21120E-05-2.40267E-05-2.91650E-05 9.15650E-06-2.56517E-19-1.41790E-18
 -1      3456 9.19580E-05-2.48366E-05-2.87685E-05 1.04381E-05-3.03299E-19-1.17769E-18
 -1      3457 9.24737E-05-2.59891E-05-2.84632E-05 1.15346E-05-1.56262E-19-1.09496E-18
 -1      3458 8.99298E-05-2.30794E-05-2.86501E-05 9.56846E-06-1.27695E-19-1.28871E-18
 -1      3459 9.26007E-05-2.71982E-05-2.80234E-05 1.29420E-05 1.04312E-19-9.06142E-19
 -1      3460 9.37683E-05-2.89765E-05-2.77162E-05 1.39707E-05 5.26982E-19-6.93670E-19
 -1      3461 8.98133E-05-2.50757E-05-2.77601E-05 1.23218E-05 2.03285E-19-8.80827E-19
 -1      3462 9.45554E-05-3.09115E-05-2.72417E-05 1.55590E-05 7.78422E-19-5.57083E-19
 -1      3463 9.68156E-05-3.36730E-05-2.69863E-05 1.64174E-05 1.16657E-18-5.37710E-19
 -1      3464 9.05572E-05-2.81964E-05-2.67686E-05 1.55077E-05 6.77993E-19-5.21835E-19
 -1      3465 9.89003E-05-3.66676E-05-2.65512E-05 1.80515E-05 1.52197E-18-4.32079E-19
 -1      3466 1.02766E-04-4.07117E-05-2.65047E-05 1.84063E-05 1.53825E-18-6.19277E-20
 -1      3467 9.30935E-05-3.32779E-05-2.57276E-05 1.92135E-05 1.30618E-18-5.57983E-19
 -1      3468 9.34959E-05-4.03613E-05-2.24379E-05-2.78749E-05-2.11253E-18-1.92255E-18
 -1      3469 1.04593E-04-4.70811E-05-2.48053E-05-2.42504E-05-2.28001E-18-1.01942E-18
 -1      3470 1.02649E-04-4.02745E-05-2.67060E-05-1.65468E-05 9.22088E-19-8.92271E-19
 -1      3471 9.91221E-05-3.63946E-05-2.67391E-05-1.62219E-05 1.14671E-18-8.27432E-19
 -1      3472 9.69199E-05-3.36423E-05-2.70636E-05-1.49295E-05 1.49069E-18-1.02187E-18
 -1      3473 9.46786E-05-3.10506E-05-2.72334E-05-1.42801E-05 1.43590E-18-1.05111E-18
 -1      3474 9.35002E-05-3.34895E-05-2.58334E-05-1.76961E-05 9.13972E-19-7.53244E-19
 -1      3475 9.37716E-05-2.92831E-05-2.75884E-05-1.29089E-05 9.08792E-19-1.32170E-18
 -1      3476 9.25700E-05-2.77271E-05-2.77852E-05-1.21284E-05 4.63066E-19-1.41404E-18
 -1      3477 9.06063E-05-2.85642E-05-2.66348E-05-1.44918E-05 9.59935E-19-1.25024E-18
 -1      3478 9.23721E-05-2.67716E-05-2.80834E-05-1.09765E-05 8.91740E-19-1.18286E-18
 -1      3479 9.18252E-05-2.59296E-05-2.82471E-05-1.01993E-05 7.78356E-19-6.70004E-19
 -1      3480 8.96861E-05-2.58880E-05-2.73589E-05-1.17990E-05 8.20122E-19-8.97173E-19
 -1      3481 9.19881E-05-2.55099E-05-2.84711E-05-9.24980E-06 3.48153E-19-6.38593E-19
 -1      3482 9.18105E-05-2.51343E-05-2.85854E-05-8.52398E-06 2.19206E-19-1.78914E-19
 -1      3483 8.97473E-05-2.45861E-05-2.79285E-05-9.64541E-06 8.19665E-19 6.53452E-20
 -1      3484 9.21360E-05-2.50481E-05-2.87396E-05-7.73532E-06-8.70752E-19-1.81923E-19
 -1      3485 9.21497E-05-2.49587E-05-2.88069E-05-7.07394E-06-6.04495E-19-7.94207E-19
 -1      3486 9.02866E-05-2.41474E-05-2.83407E-05-7.91216E-06-3.45191E-20 2.54983E-19
 -1      3487 9.25259E-05-2.50643E-05-2.89039E-05-6.41034E-06 4.09392E-20-1.31293E-18
 -1      3488 9.26254E-05-2.51376E-05-2.89337E-05-5.81700E-06 1.72397E-19-1.33197E-18
 -1      3489 9.10140E-05-2.42239E-05-2.86169E-05-6.48782E-06-5.75573E-19 1.77916E-19
 -1      3490 9.29926E-05-2.53415E-05-2.89874E-05-5.25372E-06 6.20834E-19-1.29780E-18
 -1      3491 9.31198E-05-2.54971E-05-2.89905E-05-4.72951E-06 3.92994E-19-7.12780E-19
 -1      3492 9.17695E-05-2.45828E-05-2.87865E-05-5.29447E-06 3.95569E-19-5.46323E-19
 -1      3493 9.34493E-05-2.57402E-05-2.90135E-05-4.25086E-06-9.80961E-20-1.40478E-18
 -1      3494 9.35744E-05-2.59286E-05-2.89993E-05-3.79542E-06-8.16164E-19-8.56859E-19
 -1      3495 9.24714E-05-2.50739E-05-2.88776E-05-4.28388E-06 1.12692E-19-3.24120E-19
 -1      3496 9.38556E-05-2.61754E-05-2.90018E-05-3.39103E-06-1.28694E-18-2.26509E-19
 -1      3497 9.39657E-05-2.63676E-05-2.89776E-05-3.00238E-06-1.01445E-18 2.79128E-19
 -1      3498 9.30841E-05-2.56042E-05-2.89140E-05-3.42700E-06-4.25186E-19-2.86878E-19
 -1      3499 9.41971E-05-2.65985E-05-2.89674E-05-2.66453E-06-9.34533E-19 1.82706E-20
 -1      3500 9.42879E-05-2.67783E-05-2.89386E-05-2.33897E-06-5.41338E-19 2.39573E-19
 -1      3501 9.35974E-05-2.61194E-05-2.89143E-05-2.70524E-06-9.44978E-19 1.50922E-18
 -1      3502 9.44732E-05-2.69832E-05-2.89213E-05-2.06057E-06-7.95385E-19-2.06907E-19
 -1      3503 9.45449E-05-2.71426E-05-2.88915E-05-1.79269E-06-8.52653E-19-8.33448E-19
 -1      3504 9.40143E-05-2.65894E-05-2.88926E-05-2.10437E-06-7.11786E-19 3.91271E-19
 -1      3505 9.46899E-05-2.73179E-05-2.88710E-05-1.56659E-06-1.24305E-18-6.08189E-19
 -1      3506 9.47447E-05-2.74542E-05-2.88426E-05-1.34994E-06-7.36808E-19-1.15302E-18
 -1      3507 9.43445E-05-2.70003E-05-2.88589E-05-1.61095E-06-9.31007E-19-2.25674E-19
 -1      3508 9.48558E-05-2.76002E-05-2.88215E-05-1.16913E-06-4.09195E-19-1.69702E-18
 -1      3509 9.48966E-05-2.77135E-05-2.87958E-05-9.96892E-07-3.65814E-19-1.93527E-18
 -1      3510 9.46006E-05-2.73485E-05-2.88202E-05-1.21165E-06-9.36262E-19-7.98798E-19
 -1      3511 9.49801E-05-2.78323E-05-2.87757E-05-8.54628E-07 3.12028E-19-1.63240E-18
 -1      3512 9.50097E-05-2.79244E-05-2.87532E-05-7.20023E-07 8.98998E-19-1.36931E-18
 -1      3513 9.47955E-05-2.76363E-05-2.87810E-05-8.93617E-07-1.62492E-19 9.66026E-20
 -1      3514 9.50712E-05-2.80191E-05-2.87350E-05-6.09939E-07-5.31045E-19-2.15939E-18
 -1      3515 9.50920E-05-2.80925E-05-2.87159E-05-5.06524E-07-5.23523E-19-2.55397E-18
 -1      3516 9.49408E-05-2.78691E-05-2.87439E-05-6.44455E-07-1.42035E-19-7.67984E-19
 -1      3517 9.51362E-05-2.81666E-05-2.87000E-05-4.22774E-07 2.63785E-19-3.20427E-18
 -1      3518 9.51505E-05-2.82240E-05-2.86841E-05-3.44698E-07 1.28383E-21-2.58460E-18
 -1      3519 9.50467E-05-2.80539E-05-2.87105E-05-4.52478E-07-2.57940E-19-1.72288E-18
 -1      3520 9.51814E-05-2.82809E-05-2.86706E-05-2.82106E-07 6.94423E-19-2.34576E-18
 -1      3521 9.51908E-05-2.83250E-05-2.86578E-05-2.24241E-07 7.07840E-19-2.19990E-18
 -1      3522 9.51222E-05-2.81977E-05-2.86814E-05-3.07079E-07 5.37814E-19-2.12075E-18
 -1      3523 9.52117E-05-2.83679E-05-2.86465E-05-1.78357E-07 1.99134E-19-1.78001E-18
 -1      3524 9.52174E-05-2.84012E-05-2.86363E-05-1.36336E-07 9.17549E-19-1.25371E-18
 -1      3525 9.51743E-05-2.83078E-05-2.86568E-05-1.98942E-07 3.00662E-19-2.00061E-18
 -1      3526 9.52309E-05-2.84330E-05-2.86271E-05-1.03428E-07 1.52711E-18-2.11568E-18
 -1      3527 9.52342E-05-2.84576E-05-2.86190E-05-7.36307E-08 1.05703E-18-2.55160E-18
 -1      3528 9.52090E-05-2.83905E-05-2.86363E-05-1.20115E-07 7.26305E-19-2.81063E-18
 -1      3529 9.52423E-05-2.84808E-05-2.86116E-05-5.06412E-08 3.84028E-19-2.50097E-18
 -1      3530 9.52438E-05-2.84988E-05-2.86054E-05-3.01365E-08 2.96017E-19-3.34147E-18
 -1      3531 9.52308E-05-2.84516E-05-2.86196E-05-6.39682E-08 5.21824E-19-3.08106E-18
 -1      3532 9.52482E-05-2.85154E-05-2.85994E-05-1.46303E-08 7.16811E-19-3.38653E-18
 -1      3533 9.52486E-05-2.85285E-05-2.85946E-05-1.12002E-09 1.09830E-18-3.87278E-18
 -1      3534 9.52435E-05-2.84959E-05-2.86061E-05-2.51197E-08 5.18063E-19-2.33152E-18
 -1      3535 9.52505E-05-2.85404E-05-2.85898E-05 8.91391E-09 1.91234E-18-3.76714E-18
 -1      3536 9.52504E-05-2.85499E-05-2.85860E-05 1.70011E-08 1.77093E-18-2.17559E-18
 -1      3537 9.52499E-05-2.85277E-05-2.85952E-05 7.50002E-10 1.87257E-18-3.23840E-18
 -1      3538 1.08132E-04-4.60971E-05-2.63694E-05 1.93746E-05 1.69506E-18 2.70084E-19
 -1      3539 6.49309E-05-2.38177E-05-1.72465E-05 2.41155E-05 2.08926E-18-2.57371E-18
 -1      3540 1.15519E-04-4.76447E-05-2.91327E-05-8.68476E-06-1.16647E-18-1.32498E-20
 -1      3541 1.12007E-04-4.47989E-05-2.86414E-05-1.07548E-05-1.17939E-18-3.13549E-19
 -1      3542 1.21665E-04-2.97799E-05-3.97158E-05 1.40705E-05 1.40745E-18 2.49801E-18
 -1      3543 1.06420E-04-4.03795E-05-2.81892E-05 1.12478E-05-1.43906E-18-5.89261E-19
 -1      3544 1.09755E-04-4.33351E-05-2.84662E-05 9.97358E-06-1.46326E-18-1.18293E-18
 -1      3545 9.51847E-05-2.84458E-05-2.85917E-05 9.74088E-06 6.70587E-19-3.65294E-19
 -1      3546 9.61810E-05-2.96004E-05-2.85108E-05 1.01706E-05 2.58992E-19-7.15935E-20
 -1      3547 9.42151E-05-2.70050E-05-2.88032E-05 8.45288E-06 7.97227E-20 2.54965E-19
 -1      3548 9.47698E-05-2.76670E-05-2.87401E-05 8.98288E-06 7.82571E-19 5.04600E-19
 -1      3549 9.29747E-05-2.71381E-05-2.82370E-05 9.77577E-06 2.60327E-19 3.55210E-20
 -1      3550 9.38497E-05-2.63105E-05-2.89494E-05 7.18818E-06-4.23585E-19 9.91099E-20
 -1      3551 9.41293E-05-2.66318E-05-2.89136E-05 7.74347E-06-8.54910E-20 5.41214E-19
 -1      3552 9.25296E-05-2.59781E-05-2.85300E-05 8.24178E-06-5.03363E-20 1.95464E-19
 -1      3553 9.38187E-05-2.60957E-05-2.90306E-05 6.00821E-06-6.39689E-19-9.53398E-21
 -1      3554 9.39385E-05-2.61996E-05-2.90206E-05 6.54816E-06-6.38884E-19 3.05380E-20
 -1      3555 9.25627E-05-2.55113E-05-2.87377E-05 6.87151E-06-5.86294E-19 4.14531E-19
 -1      3556 9.39537E-05-2.61670E-05-2.90586E-05 4.94078E-06-9.40747E-19 4.44721E-19
 -1      3557 9.39874E-05-2.61418E-05-2.90686E-05 5.44184E-06-8.55994E-19 1.31817E-19
 -1      3558 9.28347E-05-2.54746E-05-2.88668E-05 5.66588E-06-7.99415E-19 2.83278E-19
 -1      3559 9.41555E-05-2.63920E-05-2.90484E-05 3.99818E-06 3.29283E-19 5.58267E-20
 -1      3560 9.41470E-05-2.62976E-05-2.90717E-05 4.44739E-06-3.84369E-19 1.57397E-19
 -1      3561 9.32024E-05-2.56845E-05-2.89332E-05 4.61542E-06-7.55262E-19-4.38110E-19
 -1      3562 9.43688E-05-2.66851E-05-2.90137E-05 3.18327E-06 7.05293E-19-3.82356E-19
 -1      3563 9.43430E-05-2.65598E-05-2.90444E-05 3.57489E-06 8.97548E-19 4.90337E-19
 -1      3564 9.35846E-05-2.60179E-05-2.89539E-05 3.71008E-06 3.26631E-19 2.83490E-19
 -1      3565 9.45661E-05-2.69937E-05-2.89652E-05 2.49271E-06-7.28801E-19-5.76155E-19
 -1      3566 9.45360E-05-2.68609E-05-2.89988E-05 2.82586E-06 1.23684E-19-3.27436E-19
 -1      3567 9.39387E-05-2.63965E-05-2.89436E-05 2.93962E-06 6.41905E-19 1.52429E-18
 -1      3568 9.47356E-05-2.72876E-05-2.89110E-05 1.91884E-06-3.09589E-19 7.33484E-20
 -1      3569 9.47075E-05-2.71608E-05-2.89444E-05 2.19601E-06-9.53915E-19-8.45865E-19
 -1      3570 9.42459E-05-2.67730E-05-2.89144E-05 2.29356E-06-2.98471E-19 3.96061E-19
 -1      3571 9.48741E-05-2.75508E-05-2.88567E-05 1.45070E-06-3.89912E-19 3.36723E-19
 -1      3572 9.48505E-05-2.74372E-05-2.88879E-05 1.67670E-06-3.66816E-21 4.56760E-20
 -1      3573 9.45008E-05-2.71207E-05-2.88752E-05 1.76058E-06-4.63798E-19-5.05914E-21
 -1      3574 9.49830E-05-2.77770E-05-2.88056E-05 1.07545E-06-4.93222E-19 8.89130E-19
 -1      3575 9.49646E-05-2.76793E-05-2.88336E-05 1.25632E-06-4.94109E-19 8.41734E-19
 -1      3576 9.47050E-05-2.74264E-05-2.88322E-05 1.32793E-06-9.98896E-19 1.38338E-18
 -1      3577 9.50661E-05-2.79654E-05-2.87599E-05 7.79833E-07-4.58425E-19 1.03873E-18
 -1      3578 9.50524E-05-2.78840E-05-2.87840E-05 9.21967E-07-5.96165E-20 1.29987E-18
 -1      3579 9.48640E-05-2.76856E-05-2.87897E-05 9.82310E-07-5.37945E-19 2.01970E-18
 -1      3580 9.51277E-05-2.81183E-05-2.87202E-05 5.50972E-07-1.16728E-18 2.40672E-18
 -1      3581 9.51180E-05-2.80521E-05-2.87405E-05 6.60684E-07-1.14211E-18 1.46651E-18
 -1      3582 9.49847E-05-2.78996E-05-2.87500E-05 7.10761E-07-1.17037E-18 2.12163E-18
 -1      3583 9.51720E-05-2.82396E-05-2.86867E-05 3.76890E-07-1.14958E-18 2.76334E-18
 -1      3584 9.51655E-05-2.81871E-05-2.87034E-05 4.60058E-07-1.00618E-18 2.55458E-18
 -1      3585 9.50740E-05-2.80719E-05-2.87147E-05 5.00979E-07-1.74472E-18 2.46604E-18
 -1      3586 9.52028E-05-2.83339E-05-2.86592E-05 2.46884E-07-2.36973E-19 2.38119E-18
 -1      3587 9.51987E-05-2.82930E-05-2.86726E-05 3.08752E-07-8.14923E-19 2.68623E-18
 -1      3588 9.51382E-05-2.82078E-05-2.86841E-05 3.41687E-07-6.57737E-19 2.08931E-19
 -1      3589 9.52233E-05-2.84057E-05-2.86369E-05 1.51700E-07 9.27262E-19 8.88136E-19
 -1      3590 9.52209E-05-2.83745E-05-2.86475E-05 1.96790E-07 7.14900E-19 1.87510E-18
 -1      3591 9.51830E-05-2.83128E-05-2.86584E-05 2.22911E-07 9.30113E-19-8.79536E-19
 -1      3592 9.52362E-05-2.84594E-05-2.86191E-05 8.35591E-08 1.96319E-18 5.01569E-19
 -1      3593 9.52351E-05-2.84361E-05-2.86274E-05 1.15657E-07 1.43516E-18 3.08712E-19
 -1      3594 9.52129E-05-2.83924E-05-2.86373E-05 1.36085E-07 1.85997E-18-2.24329E-19
 -1      3595 9.52436E-05-2.84989E-05-2.86052E-05 3.60898E-08 1.53070E-19 1.90954E-18
 -1      3596 9.52433E-05-2.84817E-05-2.86116E-05 5.82813E-08 1.08143E-18 6.69107E-19
 -1      3597 9.52319E-05-2.84516E-05-2.86201E-05 7.40364E-08 1.11436E-18 8.58770E-19
 -1      3598 9.52472E-05-2.85275E-05-2.85944E-05 4.20619E-09 3.76305E-19 2.44144E-18
 -1      3599 9.52474E-05-2.85150E-05-2.85992E-05 1.89384E-08 5.40388E-19 2.65784E-18
 -1      3600 9.52431E-05-2.84949E-05-2.86064E-05 3.09127E-08-1.86671E-19 1.33749E-18
 -1      3601 9.52484E-05-2.85483E-05-2.85859E-05-1.60161E-08 6.86047E-19 1.95123E-18
 -1      3602 9.52488E-05-2.85390E-05-2.85896E-05-6.86583E-09 9.20335E-19 2.93195E-18
 -1      3603 9.52487E-05-2.85262E-05-2.85954E-05 2.06731E-09 7.55083E-19 1.61350E-18
 -1      3604 9.52482E-05-2.85635E-05-2.85792E-05-2.75437E-08 2.59147E-19 3.92924E-20
 -1      3605 9.52486E-05-2.85566E-05-2.85821E-05-2.25919E-08 2.67042E-19 1.26548E-18
 -1      3606 9.52507E-05-2.85487E-05-2.85866E-05-1.60996E-08 1.13005E-18 3.16925E-18
 -1      3607 1.07808E-04-4.15120E-05-2.84057E-05-1.17192E-05-8.68310E-19-7.20127E-19
 -1      3608 1.04746E-04-3.85554E-05-2.82646E-05-1.25498E-05-5.10491E-19-8.14167E-19
 -1      3609 1.07444E-04-4.33582E-05-2.76307E-05-1.47095E-05-1.23052E-18-7.83003E-19
 -1      3610 9.99715E-05-4.22395E-05-2.48947E-05 2.33151E-05 1.90892E-18-4.05941E-19
 -1      3611 8.77144E-05-3.43663E-05-2.26733E-05 2.50738E-05 2.09070E-18-1.09998E-18
 -1      3612 9.52559E-05-2.85542E-05-2.85865E-05 4.98200E-09 2.91144E-18 3.52346E-19
 -1      3613 9.52560E-05-2.85538E-05-2.85867E-05 1.37001E-09 2.12789E-18-9.49906E-19
 -1      3614 9.50707E-05-2.60196E-05-2.95859E-05-8.32932E-06 7.07356E-19-8.59423E-19
 -1      3615 9.46202E-05-2.50520E-05-2.98068E-05-7.32488E-06 8.63917E-19-8.72657E-19
 -1      3616 9.71691E-05-3.09728E-05-2.83395E-05 1.09266E-05-3.92339E-19-4.76916E-19
 -1      3617 9.88232E-05-3.27967E-05-2.82723E-05 1.11109E-05-1.05514E-18-5.61072E-19
 -1      3618 9.42747E-05-2.93459E-05-2.78729E-05 1.14433E-05-3.52618E-19-1.26875E-18
 -1      3619 1.00721E-04-3.49113E-05-2.81338E-05 1.16335E-05-1.02221E-18-4.58356E-19
 -1      3620 1.03198E-04-3.74423E-05-2.81617E-05 1.13253E-05-8.78740E-19-5.97839E-19
 -1      3621 1.01901E-04-3.83978E-05-2.72914E-05 1.40805E-05-1.21125E-18-1.25418E-18
 -1      3622 9.70399E-05-3.30454E-05-2.74966E-05 1.30680E-05-9.56749E-19-1.94706E-18
 -1      3623 1.25192E-04-4.92754E-05-3.26259E-05-2.50118E-06-2.84418E-20-1.85569E-18
 -1      3624 6.99134E-05-2.49192E-05-1.90215E-05-2.42459E-05-9.94377E-19-2.64399E-18
 -1      3625 8.13190E-05-3.30834E-05-2.07824E-05-2.81452E-05-1.39541E-18-2.49962E-18
 -1      3626 7.25824E-05-2.61052E-05-1.98808E-05 2.40080E-05 2.02148E-18-2.02388E-18
 -1      3627 6.11607E-05-1.85841E-05-1.77919E-05 1.83343E-05 1.75463E-18-2.81453E-18
 -1      3628 6.73551E-05-2.77740E-05-1.65013E-05 2.99990E-05-2.80971E-18 2.12065E-18
 -1      3629 5.91043E-05-2.11086E-05-1.61399E-05 2.28457E-05-2.71048E-18 2.38006E-18
 -1      3630 1.12200E-04-4.93149E-05-2.66315E-05-1.85797E-05-2.10711E-18-3.62064E-19
 -1      3631 1.19008E-04-5.15150E-05-2.90518E-05-1.11248E-05-1.75090E-18 4.21200E-19
 -1      3632 1.02062E-04-3.58304E-05-2.83655E-05-1.23292E-05-2.93237E-19-9.66480E-19
 -1      3633 9.98829E-05-3.34090E-05-2.84332E-05-1.23547E-05-2.95542E-19-9.01334E-19
 -1      3634 1.00703E-04-3.66582E-05-2.75702E-05-1.47368E-05-5.92817E-19-1.23544E-18
 -1      3635 1.22915E-04-5.12232E-05-3.06249E-05-4.63409E-06-1.48292E-18 5.12428E-19
 -1      3636 9.52508E-05-2.85775E-05-2.85743E-05-2.91099E-08 1.41751E-18 4.27112E-20
 -1      3637 9.52484E-05-2.85770E-05-2.85734E-05-3.15850E-08 6.00464E-19-1.23594E-18
 -1      3638 9.52481E-05-2.85736E-05-2.85748E-05-3.16525E-08 2.47505E-19-6.73316E-19
 -1      3639 9.52522E-05-2.85711E-05-2.85777E-05-2.62838E-08 1.92322E-18 8.19122E-19
 -1      3640 1.20711E-04-5.30971E-05-2.88269E-05-1.13138E-05 3.21596E-18-3.05650E-19
 -1      3641 5.31151E-05-1.47364E-05-1.65234E-05 1.07129E-05 1.27191E-18-3.20533E-18
 -1      3642 4.84192E-05-1.26444E-05-1.48723E-05-1.65246E-07 6.37300E-19-3.47162E-18
 -1      3643 5.52738E-05-1.41966E-05-1.72771E-05-4.40952E-06 2.21095E-19-3.03219E-18
 -1      3644 9.12073E-05-1.85496E-05-3.11379E-05 1.48984E-06-6.80460E-19-2.38143E-18
 -1      3645 9.18491E-05-1.96158E-05-3.09453E-05 2.30033E-06-7.23342E-19-2.14195E-18
 -1      3646 8.99131E-05-1.75569E-05-3.10287E-05 1.68087E-06-4.47152E-19-2.48980E-18
 -1      3647 9.62218E-05-2.82720E-05-2.91036E-05-1.01703E-05 3.14494E-19-8.30608E-19
 -1      3648 9.54159E-05-2.70180E-05-2.92976E-05-9.40608E-06 4.76656E-19-7.13577E-19
 -1      3649 9.34862E-05-2.54284E-05-2.91839E-05-9.06940E-06 5.07811E-19-9.15886E-19
 -1      3650 9.83651E-05-3.14122E-05-2.86699E-05-1.15922E-05-9.05837E-20-7.59718E-19
 -1      3651 9.69851E-05-2.96554E-05-2.88267E-05-1.11357E-05 2.53198E-19-6.81044E-19
 -1      3652 9.66674E-05-3.15059E-05-2.79952E-05-1.32538E-05 5.62814E-20-9.83920E-19
 -1      3653 9.20419E-05-2.17370E-05-3.01295E-05 5.45531E-06-5.04251E-19-1.72097E-18
 -1      3654 9.21203E-05-2.25162E-05-2.98285E-05 6.74165E-06-3.70570E-19-1.72956E-18
 -1      3655 9.03165E-05-2.15810E-05-2.94522E-05 7.04827E-06-2.88186E-19-1.59628E-18
 -1      3656 1.15632E-04-5.11569E-05-2.76389E-05-1.49289E-05 2.70522E-18-2.03116E-19
 -1      3657 6.85338E-05-2.81728E-05-1.67952E-05-2.90802E-05 9.78535E-19 5.08389E-18
 -1      3658 7.87180E-05-3.38892E-05-1.91049E-05-2.97852E-05 1.57252E-18 2.61146E-18
 -1      3659 6.37023E-05-2.35690E-05-1.70839E-05-2.43067E-05 4.32728E-19 3.73330E-18
 -1      3660 9.20257E-05-2.06178E-05-3.06126E-05 3.71499E-06-5.95726E-19-1.96807E-18
 -1      3661 1.10391E-04-4.70628E-05-2.69689E-05-1.64508E-05 1.71519E-18-3.42545E-19
 -1      3662 1.06339E-04-4.50811E-05-2.62049E-05-1.93627E-05-1.82392E-18-8.13903E-19
 -1      3663 8.90938E-05-3.53177E-05-2.28378E-05-2.47236E-05-1.36971E-18-1.88878E-18
 -1      3664 9.95678E-05-4.61376E-05-2.27768E-05-2.76035E-05 2.64962E-18 7.32803E-19
 -1      3665 6.32580E-05-1.87105E-05-1.90303E-05-1.65952E-05-2.57968E-19-2.68761E-18
 -1      3666 6.65011E-05-2.19155E-05-1.89156E-05-2.14670E-05-7.14155E-19-2.60381E-18
 -1      3667 7.50055E-05-2.48317E-05-2.12951E-05-2.08969E-05-6.82361E-19-2.34644E-18
 -1      3668 9.52501E-05-2.85567E-05-2.85827E-05 2.20528E-08 1.31216E-18-1.56112E-18
 -1      3669 9.52496E-05-2.85630E-05-2.85800E-05 2.61951E-08 1.15093E-18-9.76460E-19
 -1      3670 9.52514E-05-2.85631E-05-2.85808E-05 2.46444E-08 1.99153E-18-3.73504E-19
 -1      3671 9.52519E-05-2.85491E-05-2.85870E-05 1.57024E-08 2.54402E-18-1.83260E-18
 -1      3672 1.00541E-04-4.66894E-05-2.29111E-05 2.79260E-05-1.80304E-18-1.81532E-18
 -1      3673 9.34907E-05-4.18197E-05-2.20456E-05 2.82623E-05-2.06454E-18-1.16544E-18
 -1      3674 1.06028E-04-4.76410E-05-2.49288E-05 2.25532E-05-1.43010E-18-2.51072E-18
 -1      3675 9.46374E-05-2.44306E-05-3.00844E-05-6.27516E-06 1.00097E-18-8.75711E-19
 -1      3676 9.45339E-05-2.38027E-05-3.03102E-05-5.21012E-06 1.21383E-18-8.38566E-19
 -1      3677 9.32080E-05-2.37136E-05-2.97835E-05-6.88431E-06 9.28240E-19-1.09785E-18
 -1      3678 8.57424E-05-1.45965E-05-3.04989E-05-1.05156E-06 8.49656E-19-2.30576E-18
 -1      3679 8.53617E-05-1.42786E-05-3.04776E-05-6.65913E-07 7.42089E-19-2.47049E-18
 -1      3680 8.73578E-05-1.59731E-05-3.05981E-05-1.90127E-06 1.13158E-18-1.96489E-18
 -1      3681 8.64383E-05-1.52110E-05-3.05466E-05-1.64520E-06 9.14790E-19-2.09653E-18
 -1      3682 8.61313E-05-1.57344E-05-3.01440E-05-1.82342E-06 8.36859E-19-2.03137E-18
 -1      3683 9.52477E-05-2.85699E-05-2.85761E-05-3.06139E-08 8.25933E-19-5.95881E-19
 -1      3684 1.02596E-04-4.33286E-05-2.55125E-05-2.04411E-05 1.43744E-18-4.77568E-19
 -1      3685 9.52549E-05-2.85424E-05-2.85908E-05-1.30248E-10 1.23856E-18-5.87029E-19
 -1      3686 9.52559E-05-2.85538E-05-2.85867E-05-1.61792E-09 8.61600E-19-2.27167E-18
 -1      3687 9.52558E-05-2.85541E-05-2.85865E-05-5.21332E-09 9.44920E-19-2.84775E-18
 -1      3688 7.73590E-05-3.23697E-05-1.90200E-05 2.89856E-05-2.67594E-18 1.07144E-18
 -1      3689 8.76548E-05-1.58792E-05-3.07754E-05 1.60568E-06-1.11313E-19-2.34577E-18
 -1      3690 8.87079E-05-1.66086E-05-3.08987E-05 1.62651E-06-3.26872E-19-2.41976E-18
 -1      3691 8.92475E-05-1.75858E-05-3.07004E-05 2.33296E-06-3.46147E-19-2.28470E-18
 -1      3692 9.52527E-05-2.85627E-05-2.85815E-05 2.28842E-08 1.99471E-18-2.44781E-19
 -1      3693 9.52538E-05-2.85626E-05-2.85820E-05 2.10401E-08 1.51970E-18 2.63520E-20
 -1      3694 9.52530E-05-2.85558E-05-2.85844E-05 1.93529E-08 1.95962E-18-8.60946E-19
 -1      3695 8.55344E-05-1.34503E-05-3.08700E-05 9.86931E-08 5.12360E-19-2.60882E-18
 -1      3696 5.58470E-05-1.65795E-05-1.63828E-05 1.63036E-05-1.85959E-18 2.36979E-18
 -1      3697 5.36195E-05-1.46786E-05-1.65519E-05 1.05527E-05-1.43280E-18 2.05522E-18
 -1      3698 6.21888E-05-1.71561E-05-1.90333E-05 1.25122E-05 1.12047E-18-2.60026E-18
 -1      3699 6.42402E-05-2.08717E-05-1.84248E-05 1.97525E-05-2.34768E-18 2.03063E-18
 -1      3700 4.87022E-05-1.27812E-05-1.51867E-05 7.99598E-08-9.95310E-19 1.83023E-18
 -1      3701 4.69786E-05-1.29052E-05-1.40191E-05-8.09810E-06-8.70670E-19 2.31981E-18
 -1      3702 5.33549E-05-1.57723E-05-1.58092E-05-1.29883E-05-3.72774E-19 2.91136E-18
 -1      3703 9.52559E-05-2.85556E-05-2.85859E-05-8.31740E-09 1.40384E-18-2.06112E-18
 -1      3704 9.52555E-05-2.85566E-05-2.85853E-05-1.19969E-08 1.62049E-18 4.83425E-19
 -1      3705 9.52549E-05-2.85439E-05-2.85902E-05-5.35140E-09 7.34941E-19-3.26165E-18
 -1      3706 9.05536E-05-1.97669E-05-3.03310E-05 4.08902E-06-4.28190E-19-2.06074E-18
 -1      3707 9.28344E-05-2.08393E-05-3.08581E-05-2.60155E-06 1.62103E-18-1.25577E-18
 -1      3708 9.13034E-05-1.94273E-05-3.08171E-05-2.59424E-06 1.44314E-18-1.58229E-18
 -1      3709 9.52548E-05-2.85482E-05-2.85884E-05-1.07330E-08 1.46444E-18 1.07131E-20
 -1      3710 9.52553E-05-2.85592E-05-2.85841E-05-1.50744E-08 2.70167E-18 1.50849E-18
 -1      3711 9.52544E-05-2.85605E-05-2.85831E-05-1.83230E-08 2.32193E-18 9.60983E-19
 -1      3712 8.92482E-05-3.17120E-05-2.45138E-05 2.04709E-05 1.52079E-18-1.01915E-18
 -1      3713 8.06657E-05-2.94792E-05-2.18650E-05 2.43257E-05 1.85220E-18-1.85405E-18
 -1      3714 7.56932E-05-2.40639E-05-2.20491E-05 1.96515E-05 1.44407E-18-1.95000E-18
 -1      3715 8.69913E-05-2.85841E-05-2.50315E-05 1.84024E-05 1.10813E-18-1.11300E-18
 -1      3716 9.45141E-05-2.79323E-05-2.85713E-05-1.12554E-05 2.52134E-19-8.73807E-19
 -1      3717 9.52554E-05-2.85614E-05-2.85832E-05 1.69791E-08 1.44346E-18-4.03492E-19
 -1      3718 1.30070E-04-4.40154E-05-3.70312E-05-1.17150E-05-3.10205E-18 3.57236E-18
 -1      3719 9.52508E-05-2.85654E-05-2.85795E-05-2.61504E-08 1.07414E-18 8.92868E-19
 -1      3720 8.66706E-05-1.50265E-05-3.07112E-05 1.16160E-06 2.09445E-20-2.61929E-18
 -1      3721 8.70545E-05-1.58324E-05-3.05023E-05 1.73553E-06-3.47827E-20-2.40141E-18
 -1      3722 8.59222E-05-1.44070E-05-3.06638E-05 8.28852E-07 3.00877E-19-2.52896E-18
 -1      3723 9.52560E-05-2.85557E-05-2.85859E-05 8.16629E-09 3.15243E-18-1.84261E-18
 -1      3724 9.52551E-05-2.85440E-05-2.85902E-05 5.23212E-09 3.11203E-18-5.71708E-19
 -1      3725 9.52556E-05-2.85565E-05-2.85853E-05 1.17571E-08 2.10786E-18-1.95288E-18
 -1      3726 1.14443E-04-4.66384E-05-2.89225E-05 8.44221E-06-1.14735E-18-1.25246E-18
 -1      3727 1.18074E-04-4.88621E-05-2.97008E-05 5.69192E-06-4.80016E-19-1.39203E-18
 -1      3728 1.09710E-04-4.53570E-05-2.76574E-05 1.33036E-05-1.22259E-18-1.37921E-18
 -1      3729 1.17895E-04-5.20391E-05-2.81990E-05 1.31024E-05-1.30174E-18-2.19239E-18
 -1      3730 1.13077E-04-4.97307E-05-2.70473E-05 1.62158E-05-1.18506E-18-2.57768E-18
 -1      3731 8.79459E-05-2.12869E-05-2.85885E-05 8.11896E-06-1.66404E-20-1.63593E-18
 -1      3732 8.77668E-05-2.20403E-05-2.81490E-05 9.37673E-06 1.73855E-19-1.45955E-18
 -1      3733 8.69588E-05-2.26934E-05-2.75719E-05 1.07918E-05 2.99767E-19-1.37553E-18
 -1      3734 8.70555E-05-2.37819E-05-2.70727E-05 1.22372E-05 3.68780E-19-1.24152E-18
 -1      3735 8.50599E-05-2.08169E-05-2.75084E-05 9.24927E-06 2.68493E-19-1.56886E-18
 -1      3736 8.62754E-05-2.48194E-05-2.63684E-05 1.41089E-05 5.32111E-19-1.10516E-18
 -1      3737 8.70131E-05-2.66098E-05-2.58039E-05 1.58529E-05 8.33908E-19-1.19288E-18
 -1      3738 8.33859E-05-2.22411E-05-2.61689E-05 1.25015E-05 4.79064E-19-1.66316E-18
 -1      3739 9.25431E-05-2.70987E-05-2.80108E-05-1.18896E-05 2.45021E-19-1.22042E-18
 -1      3740 9.17806E-05-2.56552E-05-2.83384E-05-1.07698E-05 2.12697E-19-1.23529E-18
 -1      3741 8.92274E-05-3.17451E-05-2.45624E-05-1.92718E-05 5.42630E-19 3.29588E-19
 -1      3742 8.68665E-05-2.84755E-05-2.49670E-05-1.73213E-05 7.29044E-19-1.19779E-19
 -1      3743 9.84609E-05-3.62022E-05-2.66053E-05-1.69607E-05-6.92721E-19-1.04549E-18
 -1      3744 9.56671E-05-3.30106E-05-2.67875E-05-1.61228E-05-2.10976E-19-9.71457E-19
 -1      3745 1.01926E-04-4.08006E-05-2.60682E-05-1.91675E-05-1.47615E-18-1.26381E-18
 -1      3746 8.71115E-05-2.70075E-05-2.56883E-05-1.49974E-05 6.00699E-19 8.12800E-20
 -1      3747 8.62725E-05-2.53833E-05-2.61231E-05-1.34569E-05 4.12928E-19-3.91079E-19
 -1      3748 8.23335E-05-2.53220E-05-2.44326E-05-1.61746E-05 2.66339E-19 1.32987E-18
 -1      3749 8.69127E-05-2.45714E-05-2.66728E-05-1.17876E-05 7.30761E-19-6.73802E-19
 -1      3750 8.67501E-05-2.37652E-05-2.70235E-05-1.06025E-05 1.26981E-18-7.93955E-19
 -1      3751 8.32866E-05-2.30899E-05-2.57864E-05-1.21388E-05 7.25226E-19 3.61872E-19
 -1      3752 8.75294E-05-2.34719E-05-2.74289E-05-9.41711E-06 1.14965E-18-1.44979E-18
 -1      3753 8.77176E-05-2.31649E-05-2.76907E-05-8.49131E-06 1.00636E-18-1.07416E-18
 -1      3754 8.47964E-05-2.22405E-05-2.67927E-05-9.34575E-06 9.37212E-19-1.45686E-18
 -1      3755 8.85059E-05-2.31903E-05-2.79792E-05-7.61574E-06 9.52837E-19-8.08519E-19
 -1      3756 8.88486E-05-2.31863E-05-2.81614E-05-6.87361E-06 2.38864E-19-4.59205E-19
 -1      3757 8.63941E-05-2.21390E-05-2.75200E-05-7.36784E-06 8.50994E-19-1.95555E-18
 -1      3758 8.95823E-05-2.33951E-05-2.83588E-05-6.20042E-06-6.13684E-19 4.88317E-19
 -1      3759 8.99703E-05-2.35623E-05-2.84770E-05-5.58764E-06-5.64292E-19 4.80698E-19
 -1      3760 8.79232E-05-2.24834E-05-2.80289E-05-5.90516E-06 4.67697E-19-1.38175E-18
 -1      3761 9.06215E-05-2.38650E-05-2.86060E-05-5.04954E-06-3.23736E-20 2.43731E-19
 -1      3762 9.09972E-05-2.41180E-05-2.86759E-05-4.53285E-06 3.75185E-19 8.70491E-20
 -1      3763 8.93049E-05-2.30696E-05-2.83720E-05-4.77119E-06-3.13705E-19-4.43257E-19
 -1      3764 9.15576E-05-2.44569E-05-2.87550E-05-4.09100E-06 9.24391E-20 3.54455E-19
 -1      3765 9.18935E-05-2.47417E-05-2.87904E-05-3.65164E-06-5.44227E-20 4.07835E-19
 -1      3766 9.05095E-05-2.37652E-05-2.85924E-05-3.85594E-06 2.24035E-19-6.17693E-20
 -1      3767 9.23638E-05-2.50801E-05-2.88341E-05-3.28395E-06-6.04452E-19 3.63645E-19
 -1      3768 9.26499E-05-2.53640E-05-2.88460E-05-2.91085E-06-6.33598E-19 9.18269E-19
 -1      3769 9.15323E-05-2.44845E-05-2.87246E-05-3.09899E-06-4.49103E-19 4.42915E-19
 -1      3770 9.30368E-05-2.56808E-05-2.88653E-05-2.60455E-06-8.79564E-19 1.46924E-18
 -1      3771 9.32722E-05-2.59453E-05-2.88619E-05-2.29078E-06-9.05019E-19 1.68070E-18
 -1      3772 9.23821E-05-2.51751E-05-2.87947E-05-2.46624E-06-6.41065E-19 1.20121E-18
 -1      3773 9.35842E-05-2.62284E-05-2.88653E-05-2.03754E-06-1.33679E-18 1.48792E-18
 -1      3774 9.37727E-05-2.64635E-05-2.88529E-05-1.77701E-06-1.00891E-18 8.53140E-19
 -1      3775 9.30745E-05-2.58064E-05-2.88226E-05-1.93874E-06-1.31556E-18 1.64753E-18
 -1      3776 9.40196E-05-2.67079E-05-2.88465E-05-1.56972E-06-9.61029E-19 1.19119E-19
 -1      3777 9.41671E-05-2.69097E-05-2.88295E-05-1.35639E-06-1.05506E-18 1.37674E-19
 -1      3778 9.36279E-05-2.63614E-05-2.88234E-05-1.50257E-06-1.62376E-18 2.07632E-18
 -1      3779 9.43596E-05-2.71154E-05-2.88176E-05-1.18878E-06-8.21857E-19-5.57946E-19
 -1      3780 9.44727E-05-2.72844E-05-2.87989E-05-1.01684E-06-7.74972E-19-2.10809E-19
 -1      3781 9.40630E-05-2.68356E-05-2.88078E-05-1.14564E-06-1.70097E-18 4.40987E-19
 -1      3782 9.46202E-05-2.74537E-05-2.87845E-05-8.83450E-07-2.42719E-19-7.43007E-19
 -1      3783 9.47053E-05-2.75920E-05-2.87659E-05-7.47160E-07 1.31381E-19-3.61127E-19
 -1      3784 9.43995E-05-2.72314E-05-2.87833E-05-8.57710E-07-7.52426E-19-6.94907E-19
 -1      3785 9.48162E-05-2.77285E-05-2.87508E-05-6.42746E-07-2.15330E-19-9.63224E-19
 -1      3786 9.48789E-05-2.78395E-05-2.87336E-05-5.36488E-07-6.41398E-19-1.56266E-18
 -1      3787 9.46552E-05-2.75550E-05-2.87550E-05-6.29308E-07-5.96346E-19-6.66925E-19
 -1      3788 9.49605E-05-2.79474E-05-2.87190E-05-4.56069E-07-1.21709E-19-9.12301E-19
 -1      3789 9.50057E-05-2.80348E-05-2.87037E-05-3.74607E-07-3.39618E-20-9.68737E-19
 -1      3790 9.48457E-05-2.78143E-05-2.87261E-05-4.51028E-07-1.37785E-19-1.29659E-18
 -1      3791 9.50645E-05-2.81186E-05-2.86904E-05-3.13712E-07-4.98767E-19-3.41357E-19
 -1      3792 9.50962E-05-2.81862E-05-2.86771E-05-2.52343E-07-1.48911E-19-1.34852E-18
 -1      3793 9.49847E-05-2.80183E-05-2.86988E-05-3.14136E-07-2.81733E-19-2.25411E-19
 -1      3794 9.51374E-05-2.82501E-05-2.86654E-05-2.07065E-07 3.92670E-19-2.41186E-18
 -1      3795 9.51589E-05-2.83015E-05-2.86542E-05-1.61697E-07 4.52848E-19-2.39222E-18
 -1      3796 9.50838E-05-2.81759E-05-2.86740E-05-2.10835E-07-3.67692E-19-1.02191E-18
 -1      3797 9.51868E-05-2.83494E-05-2.86441E-05-1.28704E-07 1.50701E-19-2.19593E-18
 -1      3798 9.52007E-05-2.83877E-05-2.86349E-05-9.58648E-08 5.05832E-19-2.51284E-18
 -1      3799 9.51522E-05-2.82955E-05-2.86523E-05-1.34332E-07 1.06678E-19-1.88665E-18
 -1      3800 9.52188E-05-2.84229E-05-2.86264E-05-7.23761E-08 8.18684E-19-2.39575E-18
 -1      3801 9.52272E-05-2.84510E-05-2.86189E-05-4.91928E-08 8.24882E-19-2.64913E-18
 -1      3802 9.51978E-05-2.83847E-05-2.86338E-05-7.88618E-08 3.83069E-19-1.70671E-18
 -1      3803 9.52382E-05-2.84765E-05-2.86118E-05-3.29311E-08 6.95324E-19-3.29331E-18
 -1      3804 9.52427E-05-2.84969E-05-2.86057E-05-1.71080E-08 1.05343E-18-2.53989E-18
 -1      3805 9.52265E-05-2.84501E-05-2.86183E-05-3.95831E-08 9.81309E-19-2.02026E-18
 -1      3806 9.52487E-05-2.85151E-05-2.85999E-05-6.32211E-09 1.56808E-18-2.41884E-18
 -1      3807 9.52509E-05-2.85298E-05-2.85949E-05 4.20033E-09 2.89376E-18-2.03628E-18
 -1      3808 9.52432E-05-2.84973E-05-2.86053E-05-1.27413E-08 1.32795E-18-2.28041E-18
 -1      3809 9.12934E-05-2.46643E-05-2.85673E-05 6.23727E-06-4.84130E-19-5.28661E-19
 -1      3810 9.12002E-05-2.47314E-05-2.84741E-05 6.86656E-06-3.29753E-19-2.14603E-19
 -1      3811 9.08182E-05-2.47985E-05-2.83062E-05 7.62378E-06-2.83356E-19 1.42676E-19
 -1      3812 9.08990E-05-2.51277E-05-2.81673E-05 8.34691E-06 1.36156E-19 4.04478E-19
 -1      3813 8.95761E-05-2.39098E-05-2.81375E-05 6.94834E-06-2.54540E-19-6.24248E-19
 -1      3814 9.06446E-05-2.54904E-05-2.79333E-05 9.29239E-06-1.30799E-19 8.57187E-19
 -1      3815 9.10560E-05-2.62433E-05-2.77482E-05 1.01218E-05 1.87205E-19 4.25355E-20
 -1      3816 8.89024E-05-2.42498E-05-2.77082E-05 8.63533E-06 1.75236E-19 1.10104E-19
 -1      3817 9.18851E-05-2.48622E-05-2.87351E-05 5.07241E-06-9.22616E-19-4.37773E-19
 -1      3818 9.17131E-05-2.47744E-05-2.86800E-05 5.61865E-06-8.21152E-19-3.44627E-19
 -1      3819 9.03922E-05-2.40209E-05-2.84377E-05 5.60395E-06-3.60554E-19-1.28930E-18
 -1      3820 9.24885E-05-2.52387E-05-2.88312E-05 4.08936E-06-3.21441E-19-9.34258E-19
 -1      3821 9.22928E-05-2.50686E-05-2.88049E-05 4.56104E-06-8.24757E-19-4.42358E-19
 -1      3822 9.12238E-05-2.43923E-05-2.86347E-05 4.50997E-06-9.11561E-19-1.04113E-18
 -1      3823 9.30477E-05-2.56918E-05-2.88753E-05 3.26100E-06 7.46306E-20 3.61171E-19
 -1      3824 9.28583E-05-2.54869E-05-2.88694E-05 3.66462E-06-4.17701E-19-3.96525E-19
 -1      3825 9.20005E-05-2.48925E-05-2.87536E-05 3.60820E-06-8.04057E-19-3.53254E-19
 -1      3826 9.35365E-05-2.61575E-05-2.88839E-05 2.56698E-06-1.66522E-19 1.86075E-18
 -1      3827 9.33677E-05-2.59471E-05-2.88913E-05 2.90839E-06 4.18275E-19 1.04440E-18
 -1      3828 9.26871E-05-2.54355E-05-2.88159E-05 2.86085E-06-6.06291E-19 9.47029E-19
 -1      3829 9.39473E-05-2.65987E-05-2.88697E-05 1.99177E-06-6.18632E-20 1.01085E-18
 -1      3830 9.38045E-05-2.63998E-05-2.88850E-05 2.27620E-06 9.37564E-20 1.98700E-18
 -1      3831 9.32713E-05-2.59679E-05-2.88390E-05 2.24176E-06 4.32465E-20 1.31363E-18
 -1      3832 9.42818E-05-2.69945E-05-2.88423E-05 1.52153E-06-7.01800E-19 1.41661E-18
 -1      3833 9.41657E-05-2.68167E-05-2.88616E-05 1.75475E-06-8.29981E-20 1.41662E-18
 -1      3834 9.37540E-05-2.64592E-05-2.88364E-05 1.73325E-06-5.03140E-19 1.78958E-18
 -1      3835 9.45468E-05-2.73360E-05-2.88087E-05 1.14233E-06-1.24716E-18 2.15180E-18
 -1      3836 9.44554E-05-2.71829E-05-2.88291E-05 1.33063E-06-1.15598E-18 1.65922E-18
 -1      3837 9.41427E-05-2.68927E-05-2.88181E-05 1.32012E-06-1.10705E-18 2.18189E-18
 -1      3838 9.47522E-05-2.76221E-05-2.87732E-05 8.41053E-07-4.54871E-19 1.81682E-18
 -1      3839 9.46820E-05-2.74941E-05-2.87931E-05 9.90601E-07-6.63505E-19 1.47219E-18
 -1      3840 9.44487E-05-2.72625E-05-2.87915E-05 9.88334E-07-4.62723E-19 1.52629E-18
 -1      3841 9.49077E-05-2.78559E-05-2.87389E-05 6.05510E-07-1.44909E-18 1.83603E-18
 -1      3842 9.48551E-05-2.77516E-05-2.87573E-05 7.22328E-07-8.99504E-19 1.57588E-18
 -1      3843 9.46846E-05-2.75701E-05-2.87614E-05 7.25739E-07-5.22222E-19 1.18857E-18
 -1      3844 9.50226E-05-2.80428E-05-2.87075E-05 4.24331E-07-1.56998E-18 8.49536E-19
 -1      3845 9.49843E-05-2.79596E-05-2.87237E-05 5.14060E-07-1.20082E-18 9.90352E-19
 -1      3846 9.48625E-05-2.78199E-05-2.87311E-05 5.21057E-07-6.03495E-19 2.26127E-19
 -1      3847 9.51053E-05-2.81891E-05-2.86798E-05 2.87305E-07 9.08920E-19-2.05456E-18
 -1      3848 9.50783E-05-2.81241E-05-2.86937E-05 3.55036E-07-5.28386E-19-9.47275E-19
 -1      3849 9.49936E-05-2.80185E-05-2.87026E-05 3.64000E-07-6.85654E-20-1.76057E-18
 -1      3850 9.51632E-05-2.83016E-05-2.86560E-05 1.85528E-07 1.53611E-18-1.76424E-18
 -1      3851 9.51447E-05-2.82517E-05-2.86677E-05 2.35711E-07 1.09096E-18-1.64361E-18
 -1      3852 9.50877E-05-2.81734E-05-2.86769E-05 2.45467E-07 1.27148E-18-2.74257E-18
 -1      3853 9.52021E-05-2.83862E-05-2.86361E-05 1.11440E-07 7.98513E-19-3.46169E-19
 -1      3854 9.51901E-05-2.83488E-05-2.86457E-05 1.47857E-07 1.06863E-18-1.06016E-18
 -1      3855 9.51534E-05-2.82919E-05-2.86545E-05 1.57603E-07 4.03287E-19-1.75903E-18
 -1      3856 9.52270E-05-2.84489E-05-2.86197E-05 5.87478E-08 4.71737E-19 1.39250E-18
 -1      3857 9.52196E-05-2.84212E-05-2.86275E-05 8.45417E-08 9.92625E-19 5.42497E-19
 -1      3858 9.51974E-05-2.83808E-05-2.86354E-05 9.37885E-08 4.84117E-19-6.74697E-19
 -1      3859 9.52417E-05-2.84944E-05-2.86063E-05 2.23667E-08-4.14912E-19 2.82723E-18
 -1      3860 9.52377E-05-2.84743E-05-2.86126E-05 4.00567E-08-2.15809E-19 2.58228E-18
 -1      3861 9.52254E-05-2.84463E-05-2.86195E-05 4.84842E-08-7.30909E-19 2.40220E-18
 -1      3862 9.52494E-05-2.85271E-05-2.85955E-05-1.73351E-09 7.26138E-19 2.38643E-18
 -1      3863 9.52476E-05-2.85126E-05-2.86005E-05 9.80666E-09 5.58822E-19 2.06166E-18
 -1      3864 9.52419E-05-2.84937E-05-2.86063E-05 1.73120E-08 1.79967E-19 3.31376E-18
 -1      3865 8.61055E-05-3.04203E-05-2.37566E-05-2.11438E-05-6.51421E-19-1.62966E-18
 -1      3866 9.53968E-05-3.71201E-05-2.50833E-05-2.12877E-05-1.05407E-18-1.02146E-18
 -1      3867 9.10889E-05-2.70403E-05-2.74459E-05 1.12859E-05-3.47456E-19-6.36780E-19
 -1      3868 9.20728E-05-2.84314E-05-2.72255E-05 1.22563E-05-1.34493E-18-1.21471E-18
 -1      3869 8.86182E-05-2.53513E-05-2.71309E-05 1.07977E-05-7.15185E-19-1.53995E-19
 -1      3870 1.19989E-04-5.13214E-05-2.94741E-05 7.92315E-06-6.70387E-19-1.96023E-18
 -1      3871 8.54988E-05-3.61419E-05-2.09692E-05 2.84321E-05-2.40756E-18-7.34272E-20
 -1      3872 7.68894E-05-2.95383E-05-2.02653E-05 2.56086E-05-2.54126E-18 8.51400E-19
 -1      3873 9.26623E-05-3.87289E-05-2.29864E-05 2.49205E-05-1.80444E-18-7.45396E-19
 -1      3874 1.22613E-04-5.00490E-05-3.09794E-05 1.33458E-06-1.33699E-19-1.73537E-18
 -1      3875 8.91951E-05-1.88037E-05-3.01818E-05 3.93048E-06-2.27870E-19-2.01537E-18
 -1      3876 8.52905E-05-1.40511E-05-3.05455E-05-4.65705E-08 6.97043E-19-2.49954E-18
 -1      3877 8.54900E-05-1.41986E-05-3.05613E-05 3.53162E-07 4.69294E-19-2.45229E-18
 -1      3878 8.56820E-05-1.48445E-05-3.03351E-05 7.31666E-07 4.20767E-19-2.33986E-18
 -1      3879 8.53499E-05-1.49025E-05-3.01629E-05-4.62913E-07 7.27493E-19-2.36174E-18
 -1      3880 1.09470E-04-4.63904E-05-2.70163E-05 1.55540E-05-1.28393E-18-2.21757E-18
 -1      3881 1.07329E-04-4.70309E-05-2.58525E-05 1.98493E-05-1.21287E-18-3.06662E-18
 -1      3882 1.02166E-04-4.35042E-05-2.50153E-05 2.12745E-05-1.55806E-18-2.22441E-18
 -1      3883 1.04691E-04-4.22452E-05-2.66325E-05 1.62746E-05-1.51217E-18-2.23929E-18
 -1      3884 6.70425E-05-1.86076E-05-2.08952E-05 1.41187E-05 1.12740E-18-2.16758E-18
 -1      3885 6.18306E-05-1.48435E-05-1.98363E-05 6.87332E-06 6.99854E-19-2.36386E-18
 -1      3886 9.45504E-05-2.26065E-05-3.08339E-05-3.00427E-06 1.59343E-18-8.17660E-19
 -1      3887 9.40746E-05-2.28240E-05-3.05287E-05-4.22099E-06 1.46661E-18-9.74920E-19
 -1      3888 8.87880E-05-2.00428E-05-2.94728E-05 5.74105E-06-1.86503E-19-1.77706E-18
 -1      3889 8.85909E-05-2.07317E-05-2.90773E-05 6.92702E-06-1.45858E-19-1.67088E-18
 -1      3890 8.65278E-05-1.97214E-05-2.86102E-05 6.76734E-06 2.17564E-20-1.87857E-18
 -1      3891 8.98419E-05-1.81317E-05-3.07366E-05-2.41443E-06 1.36824E-18-1.69239E-18
 -1      3892 8.85243E-05-1.69953E-05-3.06743E-05-2.30091E-06 1.20088E-18-1.79422E-18
 -1      3893 8.80830E-05-1.73845E-05-3.02786E-05-2.92599E-06 1.05430E-18-1.68975E-18
 -1      3894 9.52528E-05-2.85637E-05-2.85810E-05-2.28804E-08 1.10821E-18 2.02098E-18
 -1      3895 5.98016E-05-1.53955E-05-1.89282E-05 8.71721E-06-3.23785E-19 1.21015E-18
 -1      3896 5.36761E-05-1.34114E-05-1.69005E-05 5.48986E-06-7.59431E-19 1.81932E-18
 -1      3897 5.51753E-05-1.35280E-05-1.77534E-05-6.15796E-07-7.64156E-19 1.56198E-18
 -1      3898 7.10130E-05-2.41825E-05-1.98125E-05 2.23684E-05-2.53345E-18 1.88520E-18
 -1      3899 6.60930E-05-1.97977E-05-1.98676E-05 1.66768E-05-1.55259E-18 1.58107E-18
 -1      3900 7.84216E-05-2.78441E-05-2.15491E-05 2.21303E-05-2.14057E-18 1.02830E-18
 -1      3901 5.91381E-05-1.42377E-05-1.93393E-05-1.30161E-06 4.30485E-19-2.67194E-18
 -1      3902 5.99011E-05-1.53624E-05-1.88474E-05-1.00568E-05 5.46270E-20-2.74163E-18
 -1      3903 6.73352E-05-1.82051E-05-2.08753E-05-1.26147E-05-4.50086E-20-2.50204E-18
 -1      3904 9.15689E-05-3.76816E-05-2.28560E-05-2.48913E-05 9.53584E-19 3.41248E-19
 -1      3905 9.52549E-05-2.85507E-05-2.85874E-05 1.30511E-08 2.43154E-18-1.19160E-18
 -1      3906 9.44667E-05-3.07383E-05-2.72507E-05-1.44747E-05-6.16727E-20-1.04390E-18
 -1      3907 9.29308E-05-2.85974E-05-2.75547E-05-1.33886E-05 1.52195E-19-1.02452E-18
 -1      3908 9.12939E-05-3.01840E-05-2.62982E-05-1.64106E-05-1.08214E-19-9.12142E-19
 -1      3909 9.08222E-05-1.97324E-05-3.04509E-05-3.59199E-06 1.24707E-18-1.53636E-18
 -1      3910 9.17799E-05-2.46187E-05-2.87631E-05-9.43109E-06 3.02223E-19-1.23361E-18
 -1      3911 9.14239E-05-2.35599E-05-2.90903E-05-8.29438E-06 5.43019E-19-1.34934E-18
 -1      3912 8.96091E-05-2.37631E-05-2.82278E-05-1.00149E-05 2.54246E-19-1.45385E-18
 -1      3913 9.52531E-05-2.85543E-05-2.85851E-05-1.80241E-08 1.65434E-18 2.31463E-18
 -1      3914 8.73285E-05-1.69552E-05-3.01602E-05 2.65947E-06-1.20048E-19-2.18498E-18
 -1      3915 8.84122E-05-1.89025E-05-2.97769E-05 4.47904E-06-1.67683E-19-1.98902E-18
 -1      3916 8.68094E-05-1.81865E-05-2.94304E-05 4.35052E-06 6.65053E-22-2.07446E-18
 -1      3917 8.62998E-05-1.61505E-05-3.00961E-05 2.13065E-06 3.84850E-20-2.34629E-18
 -1      3918 8.28037E-05-3.19659E-05-2.17410E-05-2.48167E-05 9.03903E-19 1.57088E-18
 -1      3919 9.27543E-05-2.20627E-05-3.03044E-05-4.81886E-06 1.18272E-18-1.23744E-18
 -1      3920 7.41934E-05-2.13266E-05-2.25710E-05 1.52042E-05 1.07140E-18-1.90736E-18
 -1      3921 8.23656E-05-2.50293E-05-2.45869E-05 1.72047E-05 9.94774E-19-1.61005E-18
 -1      3922 8.98901E-05-2.62802E-05-2.72897E-05-1.29594E-05 9.18419E-21-1.36336E-18
 -1      3923 9.11312E-05-2.07244E-05-3.01743E-05-4.55557E-06 1.08034E-18-1.52513E-18
 -1      3924 8.95880E-05-1.94440E-05-3.00778E-05-4.31678E-06 1.04774E-18-1.64583E-18
 -1      3925 9.15457E-05-2.17034E-05-2.99301E-05-5.58316E-06 8.74285E-19-1.38566E-18
 -1      3926 9.52532E-05-2.85487E-05-2.85877E-05 1.43213E-08 2.91225E-18-1.20935E-18
 -1      3927 9.15013E-05-2.23642E-05-2.96270E-05-6.58917E-06 7.82441E-19-1.38219E-18
 -1      3928 1.00974E-04-3.87134E-05-2.66840E-05 1.56322E-05-1.43728E-18-1.58973E-18
 -1      3929 9.99106E-05-3.93510E-05-2.60059E-05 1.79093E-05-1.55600E-18-2.20831E-18
 -1      3930 9.79672E-05-3.53323E-05-2.67307E-05 1.52263E-05-1.07264E-18-1.65251E-18
 -1      3931 8.61287E-05-1.66940E-05-2.97604E-05-2.69544E-06 8.73882E-19-1.85771E-18
 -1      3932 8.53409E-05-1.60805E-05-2.97033E-05-1.99360E-06 8.22550E-19-2.12189E-18
 -1      3933 8.47579E-05-1.64093E-05-2.92636E-05-1.74505E-06 6.26029E-19-1.91326E-18
 -1      3934 8.48293E-05-1.56472E-05-2.96648E-05-8.76401E-07 6.88125E-19-2.20818E-18
 -1      3935 7.94892E-05-2.64498E-05-2.27831E-05-2.04557E-05-6.08037E-19-1.97721E-18
 -1      3936 8.70739E-05-2.86163E-05-2.49147E-05-1.79768E-05-3.29033E-19-1.45100E-18
 -1      3937 9.52524E-05-2.85505E-05-2.85866E-05-1.65147E-08 1.17345E-18 2.31469E-18
 -1      3938 9.52520E-05-2.85401E-05-2.85906E-05-9.70057E-09 1.34459E-18 2.77735E-18
 -1      3939 9.52522E-05-2.85375E-05-2.85920E-05 8.33715E-09 3.24365E-18-2.86079E-19
 -1      3940 9.52515E-05-2.85292E-05-2.85954E-05 7.78308E-10 1.66842E-18 1.10511E-18
 -1      3941 9.52515E-05-2.85292E-05-2.85954E-05-1.11185E-09 1.20766E-18-1.01361E-18
 -1      3942 8.91874E-05-2.77128E-05-2.64284E-05 1.35804E-05-1.45692E-18-2.14417E-19
 -1      3943 9.26747E-05-2.99773E-05-2.68537E-05 1.36253E-05-1.73489E-18-1.12921E-18
 -1      3944 9.44046E-05-3.22404E-05-2.66290E-05 1.46036E-05-1.23747E-18-1.14219E-18
 -1      3945 8.97866E-05-2.15578E-05-2.92324E-05-6.92824E-06 7.21364E-19-1.55813E-18
 -1      3946 5.65967E-05-1.52792E-05-1.76301E-05-1.06056E-05-3.10610E-19 3.00368E-18
 -1      3947 5.93707E-05-1.77704E-05-1.73530E-05-1.74133E-05-4.45433E-19 3.46876E-18
 -1      3948 8.47848E-05-1.54154E-05-2.97363E-05-1.48655E-07 4.81800E-19-2.15374E-18
 -1      3949 7.00809E-05-2.00386E-05-2.14461E-05 1.46123E-05-9.59530E-19 6.47649E-19
 -1      3950 6.50206E-05-1.71323E-05-2.02786E-05 1.19860E-05-5.88757E-19 6.60103E-19
 -1      3951 9.52518E-05-2.85305E-05-2.85950E-05-2.01279E-09 5.53464E-19-2.70157E-18
 -1      3952 9.52520E-05-2.85319E-05-2.85944E-05-4.05343E-09-1.21192E-19-2.73141E-18
 -1      3953 9.52485E-05-2.85151E-05-2.85997E-05-4.47758E-10 6.31764E-19-1.25598E-18
 -1      3954 9.52529E-05-2.85356E-05-2.85932E-05-5.56443E-09 1.52814E-19-1.81767E-18
 -1      3955 9.52529E-05-2.85381E-05-2.85920E-05-8.04476E-09 9.89838E-19 1.82393E-19
 -1      3956 9.52498E-05-2.85204E-05-2.85982E-05-1.71196E-09-5.37602E-19-2.54120E-18
 -1      3957 7.59322E-05-2.32204E-05-2.25877E-05-1.76091E-05-2.64310E-19-2.03519E-18
 -1      3958 6.65162E-05-2.24467E-05-1.87126E-05-2.07922E-05 3.37900E-19 3.43207E-18
 -1      3959 6.38068E-05-1.59123E-05-2.05398E-05 7.45275E-06 9.91955E-20 4.81750E-19
 -1      3960 6.48975E-05-1.52995E-05-2.11038E-05 1.39349E-06 4.19737E-19-2.36653E-18
 -1      3961 9.52523E-05-2.85322E-05-2.85944E-05 3.92986E-09 2.90084E-18-5.99182E-19
 -1      3962 9.52520E-05-2.85307E-05-2.85950E-05 1.59507E-09 2.22439E-18 1.30970E-18
 -1      3963 9.52486E-05-2.85152E-05-2.85997E-05-1.04935E-10 1.04545E-18 1.43933E-18
 -1      3964 9.52522E-05-2.85317E-05-2.85946E-05 3.95423E-09 3.72261E-18-2.67377E-18
 -1      3965 9.52504E-05-2.85278E-05-2.85954E-05-3.16369E-09 6.65872E-19 2.13345E-18
 -1      3966 9.52540E-05-2.85468E-05-2.85889E-05-1.21210E-08 2.09671E-18 2.31748E-18
 -1      3967 8.83306E-05-1.84415E-05-2.99513E-05-3.86703E-06 1.00653E-18-1.67682E-18
 -1      3968 8.70796E-05-1.74457E-05-2.98635E-05-3.38547E-06 9.34247E-19-1.65743E-18
 -1      3969 8.63628E-05-1.76531E-05-2.94202E-05-3.66446E-06 8.85151E-19-1.74308E-18
 -1      3970 8.85512E-05-1.93456E-05-2.96549E-05-4.85321E-06 9.25289E-19-1.64112E-18
 -1      3971 8.07537E-05-1.99583E-05-2.61310E-05 9.51163E-06 4.65035E-19-1.75674E-18
 -1      3972 7.98333E-05-2.06394E-05-2.53849E-05 1.13174E-05 6.66248E-19-1.65030E-18
 -1      3973 8.42209E-05-1.70075E-05-2.88092E-05-2.72664E-06 5.54852E-19-1.75591E-18
 -1      3974 8.36279E-05-1.65664E-05-2.87608E-05-1.49365E-06 3.17821E-19-1.77667E-18
 -1      3975 7.72587E-05-2.29637E-05-2.32326E-05-1.54858E-05 5.09643E-19 1.96179E-18
 -1      3976 7.76811E-05-2.15996E-05-2.40886E-05-1.31158E-05 5.80615E-20 2.00618E-18
 -1      3977 7.98245E-05-2.14063E-05-2.49976E-05-1.11764E-05-1.88698E-19 1.51876E-18
 -1      3978 8.05547E-05-2.09490E-05-2.56081E-05-9.62688E-06 3.59460E-19 1.00441E-18
 -1      3979 7.53831E-05-1.93253E-05-2.39468E-05-1.02158E-05-2.06813E-19 2.22764E-18
 -1      3980 8.22588E-05-2.09961E-05-2.62402E-05-8.42332E-06 3.36454E-19 1.11004E-19
 -1      3981 8.30790E-05-2.09184E-05-2.66853E-05-7.36317E-06 1.77353E-19-4.29493E-19
 -1      3982 7.91935E-05-1.95011E-05-2.55301E-05-7.42426E-06-5.65632E-19 1.14377E-18
 -1      3983 8.44694E-05-2.11576E-05-2.71283E-05-6.54323E-06 4.43488E-19-1.48405E-18
 -1      3984 8.52821E-05-2.13219E-05-2.74434E-05-5.78405E-06 9.37124E-19-1.72826E-18
 -1      3985 8.22559E-05-2.00203E-05-2.66329E-05-5.63416E-06-1.52780E-19-4.34658E-19
 -1      3986 8.64299E-05-2.16780E-05-2.77501E-05-5.20553E-06 1.38696E-18-2.54199E-18
 -1      3987 8.71769E-05-2.19746E-05-2.79667E-05-4.63242E-06 9.61170E-19-2.01911E-18
 -1      3988 8.47685E-05-2.07653E-05-2.73998E-05-4.40652E-06 6.34204E-19-2.44770E-18
 -1      3989 8.81272E-05-2.23880E-05-2.81752E-05-4.19782E-06 6.55417E-21-2.02564E-18
 -1      3990 8.87859E-05-2.27490E-05-2.83186E-05-3.74228E-06 1.22420E-19-1.43255E-18
 -1      3991 8.68423E-05-2.16252E-05-2.79269E-05-3.52778E-06 7.04444E-19-2.77053E-18
 -1      3992 8.95745E-05-2.31809E-05-2.84562E-05-3.39763E-06 3.96050E-19-1.47306E-18
 -1      3993 9.01393E-05-2.35624E-05-2.85461E-05-3.02239E-06 2.65129E-19-1.30605E-18
 -1      3994 8.85609E-05-2.25269E-05-2.82819E-05-2.85142E-06 3.25006E-19-1.85804E-18
 -1      3995 9.07915E-05-2.39851E-05-2.86330E-05-2.74095E-06 3.35012E-19-1.48436E-18
 -1      3996 9.12643E-05-2.43569E-05-2.86851E-05-2.42656E-06-3.90647E-20-7.83695E-19
 -1      3997 8.99856E-05-2.34213E-05-2.85132E-05-2.30468E-06 2.52942E-19-1.93501E-18
 -1      3998 9.17987E-05-2.47515E-05-2.87359E-05-2.19195E-06-3.48316E-19-1.64160E-19
 -1      3999 9.21879E-05-2.50975E-05-2.87614E-05-1.92783E-06-1.32606E-19 4.07369E-19
 -1      4000 9.11592E-05-2.42680E-05-2.86562E-05-1.85264E-06 2.89323E-19-1.26716E-18
 -1      4001 9.26192E-05-2.54515E-05-2.87871E-05-1.73431E-06-7.58746E-19 6.68033E-19
 -1      4002 9.29326E-05-2.57600E-05-2.87949E-05-1.51280E-06-9.81714E-19 1.12447E-18
 -1      4003 9.21158E-05-2.50422E-05-2.87366E-05-1.47282E-06-2.70772E-19-2.35083E-19
 -1      4004 9.32773E-05-2.60690E-05-2.88041E-05-1.35297E-06-1.53425E-18 1.31030E-18
 -1      4005 9.35252E-05-2.63355E-05-2.88010E-05-1.16968E-06-2.21214E-18 1.50726E-18
 -1      4006 9.28829E-05-2.57256E-05-2.87743E-05-1.15634E-06-7.51973E-19 2.43781E-19
 -1      4007 9.37966E-05-2.65979E-05-2.87997E-05-1.03836E-06-2.53854E-18 1.76718E-18
 -1      4008 9.39900E-05-2.68231E-05-2.87902E-05-8.88497E-07-1.53064E-18 1.32136E-18
 -1      4009 9.34918E-05-2.63154E-05-2.87843E-05-8.94511E-07-2.18700E-18 9.89793E-19
 -1      4010 9.42010E-05-2.70419E-05-2.87825E-05-7.82879E-07-1.23747E-18 1.60800E-18
 -1      4011 9.43492E-05-2.72280E-05-2.87697E-05-6.62489E-07-1.25843E-18 6.95260E-19
 -1      4012 9.39693E-05-2.68130E-05-2.87769E-05-6.78578E-07-1.48640E-18 1.60638E-18
 -1      4013 9.45099E-05-2.74064E-05-2.87586E-05-5.79033E-07-1.52165E-18 2.66206E-19
 -1      4014 9.46214E-05-2.75571E-05-2.87446E-05-4.83851E-07-9.35115E-19 1.15403E-20
 -1      4015 9.43371E-05-2.72245E-05-2.87593E-05-5.05648E-07-1.94514E-18 1.14478E-18
 -1      4016 9.47417E-05-2.76997E-05-2.87322E-05-4.18818E-07-3.63521E-19-1.16075E-18
 -1      4017 9.48239E-05-2.78194E-05-2.87183E-05-3.44782E-07-8.67002E-22-1.05571E-18
 -1      4018 9.46151E-05-2.75575E-05-2.87366E-05-3.68872E-07-1.45147E-18-8.64132E-19
 -1      4019 9.49122E-05-2.79314E-05-2.87059E-05-2.94936E-07 3.94995E-19-1.35349E-18
 -1      4020 9.49714E-05-2.80248E-05-2.86930E-05-2.38318E-07-4.34499E-19-9.62688E-19
 -1      4021 9.48214E-05-2.78221E-05-2.87122E-05-2.62355E-07 6.03372E-20-2.38485E-18
 -1      4022 9.50348E-05-2.81113E-05-2.86813E-05-2.00789E-07-8.29401E-19-6.42564E-19
 -1      4023 9.50763E-05-2.81829E-05-2.86698E-05-1.58260E-07-3.16894E-20-3.33710E-19
 -1      4024 9.49713E-05-2.80287E-05-2.86884E-05-1.80822E-07-4.33944E-19-2.19108E-18
 -1      4025 9.51205E-05-2.82484E-05-2.86593E-05-1.30542E-07-3.85995E-20-2.22785E-19
 -1      4026 9.51486E-05-2.83023E-05-2.86493E-05-9.92139E-08 5.14578E-19-4.37245E-19
 -1      4027 9.50775E-05-2.81872E-05-2.86664E-05-1.19546E-07 8.29703E-20 7.10339E-19
 -1      4028 9.51784E-05-2.83511E-05-2.86401E-05-7.91797E-08 8.80903E-19-5.30528E-19
 -1      4029 9.51966E-05-2.83910E-05-2.86316E-05-5.66039E-08 7.66992E-19 1.90407E-19
 -1      4030 9.51504E-05-2.83066E-05-2.86468E-05-7.43901E-08 4.95796E-19 6.44314E-19
 -1      4031 9.52156E-05-2.84265E-05-2.86237E-05-4.25773E-08 5.68179E-19 7.01305E-19
 -1      4032 9.52266E-05-2.84556E-05-2.86166E-05-2.65758E-08 6.34254E-19-1.08367E-19
 -1      4033 9.51986E-05-2.83951E-05-2.86297E-05-4.19649E-08 9.02347E-19 1.44002E-18
 -1      4034 9.52381E-05-2.84813E-05-2.86099E-05-1.70914E-08 4.52206E-19-6.20117E-19
 -1      4035 9.52441E-05-2.85020E-05-2.86040E-05-6.43074E-09 1.40163E-18-1.22142E-18
 -1      4036 9.52283E-05-2.84595E-05-2.86151E-05-1.91859E-08 5.35554E-19 3.35388E-19
 -1      4037 9.06433E-05-2.40134E-05-2.85691E-05 3.75023E-06-1.13139E-18 4.60732E-19
 -1      4038 9.02317E-05-2.37549E-05-2.84869E-05 4.21561E-06-7.91919E-19 5.76959E-19
 -1      4039 8.95789E-05-2.34565E-05-2.83548E-05 4.70445E-06-9.04385E-19-7.63453E-20
 -1      4040 8.91528E-05-2.32787E-05-2.82257E-05 5.27334E-06-8.50462E-19-5.82743E-19
 -1      4041 8.91028E-05-2.30460E-05-2.82963E-05 3.88942E-06-1.42178E-18 1.29399E-18
 -1      4042 6.80047E-05-1.58847E-05-2.24353E-05 4.41862E-06 5.21865E-19-1.96222E-18
 -1      4043 6.69266E-05-1.52883E-05-2.20236E-05-2.97946E-06 2.27690E-19-2.44509E-18
 -1      4044 8.72256E-05-2.29864E-05-2.75576E-05 7.44091E-06 2.27591E-19-4.66033E-19
 -1      4045 8.69447E-05-2.32162E-05-2.72927E-05 8.35237E-06-1.07477E-19-2.60361E-19
 -1      4046 8.57920E-05-2.63170E-05-2.54767E-05-1.58788E-05-2.18923E-19-1.43209E-18
 -1      4047 9.15827E-05-2.46390E-05-2.87010E-05 2.97637E-06-8.40250E-19 9.05130E-19
 -1      4048 9.12102E-05-2.43483E-05-2.86535E-05 3.36097E-06-1.12151E-18 8.28263E-19
 -1      4049 9.03140E-05-2.37365E-05-2.85218E-05 3.07267E-06-1.26066E-18 1.85965E-18
 -1      4050 9.23845E-05-2.52655E-05-2.87739E-05 2.34394E-06-3.90077E-19 1.18697E-18
 -1      4051 9.20627E-05-2.49750E-05-2.87509E-05 2.66348E-06-5.99601E-19 9.43482E-19
 -1      4052 9.13539E-05-2.44507E-05-2.86626E-05 2.42426E-06-8.19677E-19 1.15272E-18
 -1      4053 9.30526E-05-2.58559E-05-2.88056E-05 1.82577E-06-4.57013E-19 8.30309E-19
 -1      4054 9.27833E-05-2.55827E-05-2.87994E-05 2.08976E-06-3.86409E-19 7.04821E-19
 -1      4055 9.22259E-05-2.51394E-05-2.87429E-05 1.89795E-06-2.25522E-19 2.21172E-19
 -1      4056 9.35965E-05-2.63863E-05-2.88102E-05 1.40352E-06-5.72266E-19 4.03623E-19
 -1      4057 9.33771E-05-2.61415E-05-2.88146E-05 1.61998E-06-5.97289E-19 3.12055E-19
 -1      4058 9.29419E-05-2.57717E-05-2.87808E-05 1.47119E-06-3.96308E-19 2.50282E-20
 -1      4059 9.40305E-05-2.68463E-05-2.87979E-05 1.06294E-06-9.45424E-19 7.95320E-20
 -1      4060 9.38562E-05-2.66351E-05-2.88085E-05 1.23846E-06-9.63646E-19 5.20750E-19
 -1      4061 9.35202E-05-2.63302E-05-2.87907E-05 1.12701E-06-6.41961E-19-8.33681E-19
 -1      4062 9.43705E-05-2.72347E-05-2.87762E-05 7.91186E-07-5.46477E-19-1.59068E-19
 -1      4063 9.42348E-05-2.70570E-05-2.87900E-05 9.31509E-07-7.65415E-19-6.21409E-20
 -1      4064 9.39795E-05-2.68099E-05-2.87830E-05 8.50102E-07-4.97517E-19-1.87397E-18
 -1      4065 9.46313E-05-2.75548E-05-2.87501E-05 5.77547E-07-4.97443E-20 7.21947E-19
 -1      4066 9.45280E-05-2.74088E-05-2.87649E-05 6.88101E-07 2.95342E-19 9.28224E-19
 -1      4067 9.43374E-05-2.72123E-05-2.87649E-05 6.30652E-07-3.08506E-19-7.34418E-19
 -1      4068 9.48273E-05-2.78127E-05-2.87228E-05 4.11947E-07-3.41168E-19-2.40410E-19
 -1      4069 9.47503E-05-2.76954E-05-2.87373E-05 4.97736E-07-3.45690E-19 4.72719E-19
 -1      4070 9.46107E-05-2.75417E-05-2.87416E-05 4.58891E-07 6.51148E-20 4.47761E-19
 -1      4071 9.49713E-05-2.80165E-05-2.86966E-05 2.85513E-07 8.30365E-19-1.65559E-18
 -1      4072 9.49153E-05-2.79242E-05-2.87101E-05 3.51035E-07 1.45011E-19-5.19271E-19
 -1      4073 9.48152E-05-2.78059E-05-2.87166E-05 3.26186E-07 3.03085E-19 1.42688E-18
 -1      4074 9.50744E-05-2.81744E-05-2.86727E-05 1.90561E-07 3.62111E-19-1.57395E-19
 -1      4075 9.50348E-05-2.81031E-05-2.86847E-05 2.39760E-07 4.11333E-19-1.07420E-18
 -1      4076 9.49648E-05-2.80137E-05-2.86921E-05 2.25153E-07 3.30849E-19 7.19507E-19
 -1      4077 9.51461E-05-2.82946E-05-2.86516E-05 1.20527E-07-1.44692E-19 9.73565E-19
 -1      4078 9.51190E-05-2.82405E-05-2.86619E-05 1.56788E-07 9.02315E-20 5.94718E-19
 -1      4079 9.50716E-05-2.81742E-05-2.86695E-05 1.49468E-07 4.47017E-20 2.21779E-18
 -1      4080 9.51941E-05-2.83843E-05-2.86334E-05 6.99383E-08 6.84582E-21 1.00190E-18
 -1      4081 9.51764E-05-2.83441E-05-2.86422E-05 9.60956E-08 1.97170E-19 3.00849E-19
 -1      4082 9.51456E-05-2.82958E-05-2.86493E-05 9.37657E-08 1.32719E-19 3.02530E-18
 -1      4083 9.52244E-05-2.84500E-05-2.86181E-05 3.42479E-08-1.48668E-18 2.18332E-18
 -1      4084 9.52136E-05-2.84205E-05-2.86254E-05 5.27746E-08-8.65279E-19 1.20965E-18
 -1      4085 9.51948E-05-2.83864E-05-2.86318E-05 5.37546E-08-5.20352E-19 2.39522E-18
 -1      4086 9.52425E-05-2.84976E-05-2.86052E-05 9.83028E-09 1.45588E-18 1.06144E-18
 -1      4087 9.52364E-05-2.84763E-05-2.86113E-05 2.25395E-08 4.96829E-19 1.46837E-18
 -1      4088 9.52255E-05-2.84524E-05-2.86169E-05 2.55984E-08 1.10959E-20 1.39890E-20
 -1      4089 9.52519E-05-2.85333E-05-2.85937E-05-6.75785E-09 2.78793E-19 5.02878E-19
 -1      4090 9.52492E-05-2.85186E-05-2.85987E-05 1.30020E-09 5.57692E-19 4.02171E-19
 -1      4091 9.52486E-05-2.85156E-05-2.85997E-05-8.45563E-10 2.47939E-18-9.32870E-19
 -1      4092 9.52416E-05-2.84970E-05-2.86050E-05 1.33035E-09 8.46644E-19 1.17312E-18
 -1      4093 9.52423E-05-2.84984E-05-2.86047E-05 1.70038E-09 1.08756E-19-1.28861E-18
 -1      4094 9.55545E-05-3.93469E-05-2.40916E-05 2.28383E-05-1.68942E-18-9.05875E-19
 -1      4095 8.81124E-05-3.38512E-05-2.32011E-05 2.27486E-05-1.96646E-18-2.47459E-19
 -1      4096 9.77944E-05-3.91641E-05-2.50731E-05 2.00526E-05-1.73634E-18-1.74419E-18
 -1      4097 5.82704E-05-1.41886E-05-1.86028E-05-5.23829E-06-5.53577E-19 2.02870E-18
 -1      4098 6.26581E-05-1.61350E-05-1.99203E-05-9.40880E-06-4.68932E-19 3.16563E-18
 -1      4099 6.12661E-05-1.45581E-05-1.99826E-05-5.98202E-07-5.65083E-19 1.65831E-18
 -1      4100 8.45669E-05-1.60539E-05-2.93314E-05 5.25972E-07 2.49221E-19-1.88751E-18
 -1      4101 8.50400E-05-1.54768E-05-2.98376E-05 8.30370E-07 4.06047E-19-2.09387E-18
 -1      4102 8.55396E-05-1.56633E-05-2.99454E-05 1.40364E-06 1.62671E-19-2.17719E-18
 -1      4103 8.83030E-05-2.04973E-05-2.90720E-05-6.45654E-06 6.12344E-19-1.60717E-18
 -1      4104 7.60538E-05-2.30673E-05-2.25657E-05 1.69247E-05-1.77050E-18 7.54610E-19
 -1      4105 7.34806E-05-2.04201E-05-2.28068E-05 1.29092E-05-1.11131E-18-8.41342E-20
 -1      4106 7.15793E-05-1.97069E-05-2.22234E-05-1.41313E-05-3.69646E-20-2.23135E-18
 -1      4107 7.66508E-05-2.12173E-05-2.36535E-05-1.36666E-05-1.97587E-19-1.96808E-18
 -1      4108 6.81737E-05-1.67009E-05-2.20961E-05-8.26092E-06 1.82622E-19-2.30114E-18
 -1      4109 8.54599E-05-1.84977E-05-2.87039E-05 5.03233E-06 1.32042E-19-2.04651E-18
 -1      4110 8.47327E-05-1.89834E-05-2.81818E-05 6.06635E-06 2.31647E-19-1.95934E-18
 -1      4111 8.71478E-05-2.49858E-05-2.65909E-05-1.30524E-05-3.63629E-20-1.60428E-18
 -1      4112 8.67292E-05-2.35631E-05-2.70929E-05-1.14948E-05 3.59398E-20-1.69130E-18
 -1      4113 6.80631E-05-1.65638E-05-2.20793E-05 6.44863E-06-1.25014E-19 3.27001E-19
 -1      4114 6.40329E-05-1.49259E-05-2.08780E-05 3.60486E-06-2.36163E-19 1.48016E-18
 -1      4115 6.56202E-05-1.54416E-05-2.15562E-05-5.29778E-07-4.17524E-19 2.15168E-18
 -1      4116 7.49112E-05-1.98477E-05-2.35942E-05 1.24009E-05 7.89858E-19-1.87322E-18
 -1      4117 8.61092E-05-2.34071E-05-2.69046E-05 9.48680E-06-6.11754E-19-4.05617E-19
 -1      4118 8.62545E-05-2.41251E-05-2.65940E-05 1.06448E-05-8.41177E-19-6.34355E-19
 -1      4119 8.45658E-05-2.20532E-05-2.67655E-05 8.19118E-06-3.92828E-19-1.02326E-18
 -1      4120 8.84180E-05-2.30657E-05-2.80290E-05 5.90089E-06-1.00480E-19-9.69356E-19
 -1      4121 8.80251E-05-2.30403E-05-2.78388E-05 6.61120E-06 2.00300E-19-3.64894E-19
 -1      4122 8.77217E-05-2.24556E-05-2.79552E-05 4.93204E-06-7.81549E-19-3.75996E-19
 -1      4123 8.42099E-05-3.04824E-05-2.29478E-05 2.18539E-05-2.18680E-18 4.03863E-19
 -1      4124 7.81635E-05-2.56599E-05-2.25127E-05 1.90820E-05-2.33097E-18 8.97431E-19
 -1      4125 8.10748E-05-2.55888E-05-2.38200E-05 1.68150E-05-2.17353E-18 3.04307E-19
 -1      4126 8.75874E-05-3.15487E-05-2.40313E-05 1.99314E-05-2.05765E-18 1.14482E-20
 -1      4127 8.34451E-05-1.92590E-05-2.75501E-05 6.97793E-06 1.95805E-19-1.82895E-18
 -1      4128 8.25678E-05-1.97078E-05-2.69311E-05 8.26612E-06 3.00439E-19-1.78713E-18
 -1      4129 7.96120E-05-1.83088E-05-2.61967E-05 7.13563E-06 4.74301E-19-1.63769E-18
 -1      4130 8.26283E-05-1.80208E-05-2.76603E-05 5.17300E-06 3.10393E-19-1.99451E-18
 -1      4131 8.74252E-05-2.27150E-05-2.77040E-05-9.89212E-06 1.01513E-19-1.63099E-18
 -1      4132 8.74488E-05-2.17510E-05-2.81648E-05-8.58778E-06 3.57485E-19-1.49412E-18
 -1      4133 8.46111E-05-2.14638E-05-2.70286E-05-9.93351E-06 1.87512E-19-1.80865E-18
 -1      4134 8.23269E-05-2.34531E-05-2.52563E-05-1.43750E-05-2.54907E-19-1.76379E-18
 -1      4135 7.31068E-05-1.76416E-05-2.36526E-05 8.79549E-06 6.33339E-19-1.67594E-18
 -1      4136 7.68322E-05-2.08188E-05-2.39842E-05 1.14990E-05-9.15757E-19-5.31530E-20
 -1      4137 7.23106E-05-1.81736E-05-2.30235E-05 9.26066E-06-6.76268E-19-2.49776E-19
 -1      4138 8.51057E-05-1.76918E-05-2.89264E-05-3.92383E-06 7.02314E-19-1.79633E-18
 -1      4139 8.40384E-05-1.76737E-05-2.84126E-05-3.77228E-06 5.23312E-19-1.55879E-18
 -1      4140 8.61585E-05-1.83937E-05-2.90329E-05-4.67391E-06 8.10667E-19-1.73963E-18
 -1      4141 8.28335E-05-1.67770E-05-2.82752E-05-7.44486E-07 2.99184E-19-1.79021E-18
 -1      4142 8.34522E-05-1.64062E-05-2.87537E-05 2.16933E-07 3.38927E-19-1.88959E-18
 -1      4143 9.43574E-05-3.51333E-05-2.52347E-05 1.88561E-05-1.68029E-18-1.57227E-18
 -1      4144 6.88868E-05-2.14068E-05-2.03318E-05-1.81114E-05-6.20650E-20 2.81824E-18
 -1      4145 7.43141E-05-2.63577E-05-2.02487E-05-2.32371E-05 7.42730E-19 2.60145E-18
 -1      4146 9.52440E-05-2.85017E-05-2.86039E-05-4.22055E-09 1.31883E-18 5.62340E-19
 -1      4147 7.12409E-05-1.66751E-05-2.32636E-05-4.97703E-06 2.33704E-19-2.23336E-18
 -1      4148 8.57462E-05-1.66216E-05-2.95996E-05 2.36517E-06 2.02018E-20-2.08138E-18
 -1      4149 7.36374E-05-1.69369E-05-2.43260E-05 4.72193E-06 5.31387E-19-1.61057E-18
 -1      4150 9.28696E-05-3.22970E-05-2.60339E-05 1.61159E-05-1.33444E-18-8.67322E-19
 -1      4151 8.61875E-05-2.20725E-05-2.74598E-05 6.30774E-06 3.40287E-19-3.18229E-19
 -1      4152 9.52442E-05-2.85029E-05-2.86034E-05 5.31148E-09 9.67993E-19-1.74187E-18
 -1      4153 7.12484E-05-1.72059E-05-2.32578E-05 5.66857E-06-6.45131E-19 1.06038E-19
 -1      4154 9.52417E-05-2.84971E-05-2.86050E-05-1.78995E-09 1.06066E-18 1.52934E-18
 -1      4155 9.52345E-05-2.84770E-05-2.86102E-05 2.00490E-10 1.42320E-18 1.67042E-18
 -1      4156 9.52424E-05-2.84984E-05-2.86047E-05-2.17954E-09 1.69469E-18 1.64623E-18
 -1      4157 8.38088E-05-1.64798E-05-2.88658E-05 1.27677E-06 1.69992E-19-1.82326E-18
 -1      4158 7.84083E-05-2.02074E-05-2.49493E-05-1.10545E-05-1.44317E-19-1.95609E-18
 -1      4159 8.53263E-05-1.75326E-05-2.90461E-05 3.67831E-06 7.18125E-20-2.15970E-18
 -1      4160 9.52429E-05-2.84989E-05-2.86047E-05 5.61954E-09 5.84988E-19-2.79643E-18
 -1      4161 9.52357E-05-2.84777E-05-2.86103E-05 9.06968E-09 9.96965E-19-1.77417E-18
 -1      4162 8.14628E-05-2.26038E-05-2.52108E-05 1.19469E-05-7.93637E-19-3.37610E-19
 -1      4163 8.41850E-05-2.48076E-05-2.54456E-05 1.34108E-05-1.06878E-18-2.39929E-19
 -1      4164 6.82043E-05-1.72544E-05-2.18589E-05-8.80691E-06-5.72263E-19 2.50663E-18
 -1      4165 6.82899E-05-1.84149E-05-2.11447E-05-1.30967E-05-1.78125E-20 2.93682E-18
 -1      4166 8.71305E-05-2.04401E-05-2.85705E-05-6.90375E-06 5.82196E-19-1.65056E-18
 -1      4167 8.50124E-05-1.95575E-05-2.80881E-05-6.70678E-06 4.60704E-19-1.68448E-18
 -1      4168 8.46896E-05-2.63719E-05-2.49441E-05 1.52432E-05-1.58143E-18 2.28438E-19
 -1      4169 8.34848E-05-1.83934E-05-2.78727E-05-5.26310E-06 5.37949E-19-1.53807E-18
 -1      4170 8.23658E-05-1.77298E-05-2.77365E-05-4.04995E-06 4.33922E-19-1.49758E-18
 -1      4171 8.33865E-05-1.94907E-05-2.74017E-05-7.17661E-06 3.43349E-19-1.57515E-18
 -1      4172 8.14498E-05-1.69666E-05-2.76363E-05-1.83742E-06 4.38508E-19-1.76581E-18
 -1      4173 8.12188E-05-1.68006E-05-2.76305E-05 1.81306E-08 3.60089E-19-1.84741E-18
 -1      4174 8.08214E-05-1.75641E-05-2.70613E-05-3.46165E-06 4.89460E-19-1.59296E-18
 -1      4175 9.04780E-05-3.21625E-05-2.49654E-05 1.81882E-05-1.74108E-18-4.47824E-19
 -1      4176 7.39155E-05-2.19456E-05-2.23040E-05-1.62863E-05 3.53822E-19 2.15207E-18
 -1      4177 9.52371E-05-2.84812E-05-2.86094E-05-7.41393E-09 1.22502E-18 6.28006E-19
 -1      4178 7.66714E-05-1.84660E-05-2.49666E-05-5.46510E-06-9.17434E-19 1.65580E-18
 -1      4179 7.84048E-05-1.87500E-05-2.56380E-05-4.63085E-06-1.04557E-18 1.28316E-18
 -1      4180 8.04150E-05-1.92108E-05-2.62476E-05-4.09280E-06-1.06440E-18 8.32113E-19
 -1      4181 8.18447E-05-1.96168E-05-2.67121E-05-3.52183E-06-6.05983E-19-2.24926E-19
 -1      4182 7.84826E-05-1.81327E-05-2.57452E-05-2.17766E-06-1.45629E-18 1.65335E-18
 -1      4183 8.33860E-05-2.01304E-05-2.71279E-05-3.20613E-06-1.54456E-19-4.27073E-19
 -1      4184 8.45578E-05-2.05796E-05-2.74490E-05-2.81340E-06 4.29394E-19-1.20702E-18
 -1      4185 8.20202E-05-1.93345E-05-2.67789E-05-1.72723E-06-9.04967E-19 8.80921E-19
 -1      4186 8.57699E-05-2.10872E-05-2.77350E-05-2.58170E-06 4.85825E-19-1.85227E-18
 -1      4187 8.67327E-05-2.15557E-05-2.79541E-05-2.28705E-06 1.41653E-19-1.98735E-18
 -1      4188 8.47201E-05-2.04349E-05-2.74877E-05-1.43486E-06-1.04823E-19-4.21121E-19
 -1      4189 8.77121E-05-2.20575E-05-2.81483E-05-2.10506E-06 4.65609E-19-1.97144E-18
 -1      4190 8.85081E-05-2.25254E-05-2.82939E-05-1.86754E-06 7.37386E-19-1.33147E-18
 -1      4191 8.68816E-05-2.14985E-05-2.79741E-05-1.20327E-06 5.11064E-19-8.01446E-19
 -1      4192 8.93064E-05-2.30074E-05-2.84220E-05-1.71813E-06 2.67891E-19-1.17044E-18
 -1      4193 8.99648E-05-2.34575E-05-2.85148E-05-1.51764E-06 3.91333E-19-6.09068E-19
 -1      4194 8.86392E-05-2.25206E-05-2.83013E-05-1.01026E-06 5.57461E-19-1.19620E-18
 -1      4195 9.06173E-05-2.39063E-05-2.85964E-05-1.39168E-06 4.55609E-19-2.66396E-19
 -1      4196 9.11635E-05-2.43243E-05-2.86518E-05-1.21463E-06 2.52402E-19-3.48076E-19
 -1      4197 9.00711E-05-2.34900E-05-2.85143E-05-8.48333E-07 7.76712E-19 6.60983E-20
 -1      4198 9.16898E-05-2.47368E-05-2.86987E-05-1.12670E-06 3.98689E-19-3.39173E-19
 -1      4199 9.21216E-05-2.51049E-05-2.87280E-05-9.78600E-07 1.72407E-19-2.92176E-19
 -1      4200 9.12737E-05-2.43978E-05-2.86486E-05-7.05797E-07 4.19567E-19-9.07445E-19
 -1      4201 9.25506E-05-2.54664E-05-2.87528E-05-8.91430E-07-8.80552E-19-5.52248E-20
 -1      4202 9.28924E-05-2.57904E-05-2.87646E-05-7.69845E-07-1.44954E-18-3.16769E-19
 -1      4203 9.22067E-05-2.51629E-05-2.87220E-05-5.59807E-07 7.55922E-20-2.81157E-19
 -1      4204 9.32318E-05-2.60979E-05-2.87742E-05-6.93294E-07-1.50695E-18-5.04356E-19
 -1      4205 9.35053E-05-2.63744E-05-2.87748E-05-5.89189E-07-1.96535E-18-4.18790E-19
 -1      4206 9.29533E-05-2.58290E-05-2.87564E-05-4.32360E-07-1.57836E-18-2.30251E-18
 -1      4207 9.37714E-05-2.66369E-05-2.87741E-05-5.31074E-07-1.77556E-18-1.71605E-19
 -1      4208 9.39846E-05-2.68679E-05-2.87678E-05-4.46106E-07-1.17095E-18 1.25140E-19
 -1      4209 9.35617E-05-2.64171E-05-2.87663E-05-3.35992E-07-1.49556E-18-1.46303E-18
 -1      4210 9.41889E-05-2.70835E-05-2.87611E-05-3.99691E-07-1.72589E-18 7.45909E-19
 -1      4211 9.43514E-05-2.72722E-05-2.87509E-05-3.31164E-07-2.06674E-18 3.14974E-19
 -1      4212 9.40290E-05-2.69052E-05-2.87596E-05-2.56821E-07-1.23779E-18-6.01917E-19
 -1      4213 9.45061E-05-2.74465E-05-2.87410E-05-2.94607E-07-2.37816E-18 9.02335E-19
 -1      4214 9.46279E-05-2.75978E-05-2.87292E-05-2.40135E-07-1.28387E-18-7.58347E-20
 -1      4215 9.43860E-05-2.73043E-05-2.87435E-05-1.91632E-07-1.99277E-18 4.25288E-19
 -1      4216 9.47430E-05-2.77362E-05-2.87180E-05-2.11943E-07-1.35998E-18-7.88342E-19
 -1      4217 9.48324E-05-2.78554E-05-2.87059E-05-1.69377E-07-1.37027E-18-1.78775E-18
 -1      4218 9.46546E-05-2.76249E-05-2.87228E-05-1.39402E-07-1.86666E-18 1.14695E-18
 -1      4219 9.49163E-05-2.79635E-05-2.86946E-05-1.48081E-07 5.69191E-19-1.90609E-18
 -1      4220 9.49806E-05-2.80557E-05-2.86832E-05-1.15408E-07 3.62296E-19-1.25481E-18
 -1      4221 9.48527E-05-2.78778E-05-2.87005E-05-9.85169E-08-3.66900E-19-8.67842E-19
 -1      4222 9.50402E-05-2.81385E-05-2.86725E-05-9.96572E-08 1.18643E-19-6.80806E-19
 -1      4223 9.50850E-05-2.82087E-05-2.86621E-05-7.50397E-08 6.41537E-19 5.82231E-20
 -1      4224 9.49956E-05-2.80738E-05-2.86786E-05-6.71906E-08 2.42221E-19-8.38180E-19
 -1      4225 9.51261E-05-2.82710E-05-2.86524E-05-6.36443E-08 2.02930E-19-2.83974E-19
 -1      4226 9.51563E-05-2.83234E-05-2.86432E-05-4.54563E-08 5.26666E-19-2.77376E-19
 -1      4227 9.50959E-05-2.82231E-05-2.86583E-05-4.37133E-08-2.45577E-20-1.42205E-18
 -1      4228 9.51835E-05-2.83695E-05-2.86347E-05-3.73232E-08 1.33005E-18-1.06972E-19
 -1      4229 9.52029E-05-2.84078E-05-2.86268E-05-2.44708E-08 1.43919E-18 1.55493E-19
 -1      4230 9.51637E-05-2.83347E-05-2.86401E-05-2.65503E-08 1.11980E-18-1.18895E-18
 -1      4231 9.52164E-05-2.84334E-05-2.86212E-05-1.96645E-08 7.56440E-19-1.48542E-19
 -1      4232 9.52284E-05-2.84620E-05-2.86144E-05-1.10699E-08 1.00886E-18-2.46333E-19
 -1      4233 9.52266E-05-2.84577E-05-2.86152E-05-6.82265E-09 1.75089E-18 1.89658E-18
 -1      4234 9.52038E-05-2.84087E-05-2.86260E-05-1.45070E-08 1.47290E-18 6.18160E-19
 -1      4235 9.12207E-05-2.43970E-05-2.86486E-05 1.77836E-06-2.83817E-19-2.12672E-19
 -1      4236 9.07334E-05-2.40251E-05-2.85930E-05 2.03002E-06-5.73234E-19-8.86934E-21
 -1      4237 8.24449E-05-2.01522E-05-2.67427E-05-8.65389E-06 1.58859E-19-1.73185E-18
 -1      4238 9.21406E-05-2.51257E-05-2.87283E-05 1.38240E-06-2.20412E-19-6.03207E-19
 -1      4239 9.17377E-05-2.47778E-05-2.86987E-05 1.59338E-06-1.18808E-19-2.98939E-19
 -1      4240 9.12256E-05-2.43642E-05-2.86392E-05 1.23493E-06 7.42622E-20-1.47055E-18
 -1      4241 9.28834E-05-2.57764E-05-2.87674E-05 1.06757E-06-6.19936E-20-6.58765E-19
 -1      4242 9.25646E-05-2.54690E-05-2.87553E-05 1.24320E-06 6.92939E-20 1.29325E-19
 -1      4243 9.21618E-05-2.51301E-05-2.87183E-05 9.43798E-07-4.87179E-19-1.13714E-18
 -1      4244 9.34853E-05-2.63497E-05-2.87785E-05 8.09424E-07 1.13630E-19-1.36953E-18
 -1      4245 9.32287E-05-2.60822E-05-2.87779E-05 9.49077E-07-3.38996E-19-1.00856E-18
 -1      4246 9.29000E-05-2.57812E-05-2.87558E-05 7.26915E-07 2.70138E-19-1.81097E-18
 -1      4247 9.39607E-05-2.68368E-05-2.87722E-05 6.05858E-07-6.40720E-19-1.85808E-18
 -1      4248 9.37584E-05-2.66097E-05-2.87787E-05 7.17508E-07-1.24159E-19-2.06335E-18
 -1      4249 9.35095E-05-2.63592E-05-2.87680E-05 5.53975E-07 2.15960E-19-1.88950E-18
 -1      4250 9.43282E-05-2.72406E-05-2.87556E-05 4.46219E-07-8.54228E-19-9.04638E-19
 -1      4251 9.41725E-05-2.70529E-05-2.87660E-05 5.34762E-07-1.30716E-18-1.58939E-18
 -1      4252 9.39843E-05-2.68504E-05-2.87629E-05 4.14478E-07-1.12898E-18-1.38858E-18
 -1      4253 9.46073E-05-2.75686E-05-2.87338E-05 3.22061E-07-1.54696E-19-7.82113E-20
 -1      4254 9.44899E-05-2.74167E-05-2.87458E-05 3.91501E-07-2.37775E-19-3.67201E-19
 -1      4255 9.43492E-05-2.72559E-05-2.87476E-05 3.04449E-07-1.07976E-18-1.13744E-18
 -1      4256 9.48152E-05-2.78300E-05-2.87101E-05 2.26757E-07-6.04363E-20 1.32476E-18
 -1      4257 9.47285E-05-2.77095E-05-2.87225E-05 2.80481E-07-3.20588E-19 6.10581E-19
 -1      4258 9.46252E-05-2.75838E-05-2.87271E-05 2.19021E-07-8.71536E-19-1.22548E-18
 -1      4259 9.49668E-05-2.80345E-05-2.86869E-05 1.54688E-07-4.06557E-19 1.35000E-18
 -1      4260 9.49043E-05-2.79406E-05-2.86987E-05 1.95630E-07-3.96743E-19 1.30078E-18
 -1      4261 9.48300E-05-2.78441E-05-2.87046E-05 1.53667E-07-3.10006E-19 3.23726E-19
 -1      4262 9.50745E-05-2.81915E-05-2.86653E-05 1.01079E-07 4.03621E-19 2.13593E-18
 -1      4263 9.50306E-05-2.81198E-05-2.86760E-05 1.31772E-07 5.50363E-20 1.70719E-18
 -1      4264 9.49785E-05-2.80469E-05-2.86825E-05 1.04422E-07-7.61566E-19 1.08293E-18
 -1      4265 9.51485E-05-2.83099E-05-2.86460E-05 6.19119E-08 2.63908E-19 2.49639E-18
 -1      4266 9.51188E-05-2.82560E-05-2.86554E-05 8.45142E-08 8.87902E-19 2.68080E-18
 -1      4267 9.50835E-05-2.82021E-05-2.86617E-05 6.79303E-08-1.52305E-19 1.31164E-18
 -1      4268 9.51974E-05-2.83975E-05-2.86291E-05 3.39938E-08 1.07248E-19 8.13756E-19
 -1      4269 9.51783E-05-2.83579E-05-2.86372E-05 5.00312E-08 2.54841E-19 2.31434E-18
 -1      4270 9.51550E-05-2.83185E-05-2.86431E-05 4.13211E-08 5.98567E-19 1.45356E-18
 -1      4271 9.52255E-05-2.84559E-05-2.86159E-05 1.44841E-08 1.72403E-18-2.00271E-18
 -1      4272 9.52135E-05-2.84264E-05-2.86228E-05 2.52581E-08 1.21970E-18-2.15583E-20
 -1      4273 9.51986E-05-2.83986E-05-2.86280E-05 2.09811E-08 2.06348E-18-2.34257E-20
 -1      4274 9.52249E-05-2.84542E-05-2.86158E-05 7.84916E-09 2.28184E-18-6.83221E-19
 -1      4275 7.28157E-05-1.63637E-05-2.42359E-05-2.32894E-06 3.78680E-19-2.03727E-18
 -1      4276 7.41395E-05-1.75686E-05-2.42815E-05-7.25055E-06 1.39259E-19-2.03213E-18
 -1      4277 7.73960E-05-2.70469E-05-2.13880E-05-2.20056E-05 5.66136E-19 2.45102E-18
 -1      4278 8.53421E-05-2.13906E-05-2.74459E-05 4.79275E-06-7.22178E-20 6.97817E-19
 -1      4279 8.45431E-05-2.11957E-05-2.71443E-05 5.49127E-06-3.02688E-19 2.30904E-19
 -1      4280 7.94382E-05-2.05375E-05-2.53301E-05 8.95840E-06-4.80442E-19-3.66686E-19
 -1      4281 8.43170E-05-1.69991E-05-2.88713E-05 2.83038E-06 1.73693E-19-1.91964E-18
 -1      4282 6.80325E-05-1.58791E-05-2.21898E-05-4.53219E-06-4.99978E-19 2.26379E-18
 -1      4283 7.20532E-05-1.78970E-05-2.32164E-05-8.01238E-06-3.82093E-19 2.21478E-18
 -1      4284 7.42280E-05-1.79928E-05-2.41774E-05-6.45392E-06-3.87941E-19 1.97856E-18
 -1      4285 6.99624E-05-1.63093E-05-2.29569E-05-8.37128E-07-4.22484E-19 1.94747E-18
 -1      4286 8.32191E-05-1.71837E-05-2.82784E-05 2.65756E-06 2.98678E-19-1.88484E-18
 -1      4287 8.13045E-05-1.69270E-05-2.75992E-05 1.75962E-06 4.28484E-19-1.79264E-18
 -1      4288 8.17496E-05-1.74204E-05-2.76049E-05 3.44631E-06 3.68916E-19-1.89258E-18
 -1      4289 8.03859E-05-1.75878E-05-2.69335E-05 4.27052E-06 3.15671E-19-1.77688E-18
 -1      4290 7.98248E-05-1.69345E-05-2.69201E-05 7.13183E-07 4.15142E-19-1.86618E-18
 -1      4291 8.31791E-05-2.09382E-05-2.67352E-05 6.27612E-06-1.32333E-19-5.86633E-19
 -1      4292 8.24363E-05-2.09126E-05-2.63419E-05 7.23952E-06-5.02775E-19-4.74317E-19
 -1      4293 8.26374E-05-2.00631E-05-2.67248E-05 4.70592E-06-1.07235E-18 5.95984E-19
 -1      4294 8.71877E-05-2.20480E-05-2.79444E-05 3.71674E-06-1.07398E-18 1.21245E-18
 -1      4295 8.64566E-05-2.17425E-05-2.77336E-05 4.23385E-06-7.26968E-20 1.03403E-18
 -1      4296 8.50401E-05-2.08487E-05-2.74389E-05 3.53918E-06-7.42759E-19 1.37205E-18
 -1      4297 8.72018E-05-2.86857E-05-2.49452E-05 1.69688E-05-1.97175E-18 1.76822E-19
 -1      4298 7.96192E-05-1.94254E-05-2.57501E-05-8.41506E-06 2.13446E-20-1.88829E-18
 -1      4299 9.00931E-05-2.36081E-05-2.85088E-05 2.27830E-06-6.03879E-19 5.89639E-19
 -1      4300 8.95299E-05-2.32276E-05-2.84169E-05 2.59646E-06-6.52081E-19 1.10512E-18
 -1      4301 9.00531E-05-2.34938E-05-2.84969E-05 1.62057E-06-1.55223E-19-1.09218E-18
 -1      4302 7.49717E-05-1.77069E-05-2.45603E-05 2.59951E-06-1.08414E-18 6.49544E-19
 -1      4303 7.23061E-05-1.65258E-05-2.38124E-05-3.41211E-08-7.92244E-19 1.36562E-18
 -1      4304 8.87606E-05-2.28109E-05-2.82847E-05 2.90737E-06-1.53751E-18 1.08329E-18
 -1      4305 8.81126E-05-2.24494E-05-2.81423E-05 3.30629E-06-1.60572E-18 9.97998E-19
 -1      4306 8.86843E-05-2.26151E-05-2.82744E-05 2.09022E-06-9.26250E-19-1.10149E-19
 -1      4307 7.84304E-05-1.91998E-05-2.52980E-05 6.72276E-06-4.59353E-19-4.14484E-20
 -1      4308 7.89046E-05-1.76605E-05-2.62072E-05-5.23433E-06 4.07543E-19-1.59754E-18
 -1      4309 9.52254E-05-2.84571E-05-2.86153E-05-2.24147E-09 1.49247E-18 1.30497E-18
 -1      4310 9.52139E-05-2.84315E-05-2.86211E-05 2.00770E-09 2.34050E-18 6.75183E-19
 -1      4311 8.70276E-05-2.17174E-05-2.79360E-05 2.70505E-06-1.16025E-18 1.39169E-18
 -1      4312 7.81005E-05-1.84797E-05-2.56452E-05 1.72652E-06-1.28461E-18 9.52087E-19
 -1      4313 7.67773E-05-1.73831E-05-2.54976E-05 4.63578E-06 5.30731E-19-1.64457E-18
 -1      4314 7.35344E-05-1.60855E-05-2.45367E-05 6.45995E-07 5.01966E-19-1.84946E-18
 -1      4315 7.62195E-05-1.67736E-05-2.54455E-05-1.53612E-06 4.25260E-19-1.79795E-18
 -1      4316 7.86791E-05-1.73657E-05-2.63350E-05 3.64545E-06 3.60391E-19-1.65792E-18
 -1      4317 9.13078E-05-2.44700E-05-2.86506E-05 6.54309E-07-1.16903E-19-2.09677E-18
 -1      4318 9.07506E-05-2.40233E-05-2.85925E-05 7.81334E-07 6.56619E-19-2.43184E-18
 -1      4319 7.77375E-05-1.69056E-05-2.60991E-05-2.68942E-06 4.13633E-19-1.81195E-18
 -1      4320 8.01413E-05-1.90577E-05-2.62431E-05 1.75133E-06-1.21980E-18 1.33513E-18
 -1      4321 7.41578E-05-1.72574E-05-2.43628E-05-3.51128E-06-1.01569E-18 1.96521E-18
 -1      4322 8.16020E-05-1.95123E-05-2.66872E-05 1.19537E-06-1.40227E-18 1.53910E-18
 -1      4323 8.31721E-05-2.00340E-05-2.71074E-05 1.20851E-06-9.60228E-19 8.81368E-19
 -1      4324 8.43615E-05-2.05180E-05-2.74186E-05 8.33431E-07-9.48883E-19 1.02834E-18
 -1      4325 8.56020E-05-2.10314E-05-2.77087E-05 8.55555E-07-5.63137E-19 4.46724E-19
 -1      4326 8.65794E-05-2.15228E-05-2.79234E-05 5.85616E-07-2.26566E-19-3.78650E-19
 -1      4327 8.75807E-05-2.20263E-05-2.81212E-05 6.11699E-07-7.93320E-20-8.45302E-19
 -1      4328 8.83897E-05-2.25087E-05-2.82655E-05 4.13074E-07-7.16713E-20-1.36108E-18
 -1      4329 8.92084E-05-2.29921E-05-2.83968E-05 4.41881E-07 8.11319E-21-1.70128E-18
 -1      4330 9.07838E-05-2.40675E-05-2.85996E-05-2.98064E-07 8.20130E-19-1.89703E-18
 -1      4331 9.13286E-05-2.44853E-05-2.86549E-05-2.43414E-07 4.94554E-19-1.28879E-18
 -1      4332 9.19399E-05-2.49699E-05-2.87041E-05-1.75175E-07 2.57603E-19-2.53182E-18
 -1      4333 9.23445E-05-2.53135E-05-2.87278E-05-1.41246E-07-8.04297E-19-3.33750E-18
 -1      4334 9.28548E-05-2.57862E-05-2.87510E-05 1.03203E-07-7.21451E-19-3.02557E-18
 -1      4335 9.31963E-05-2.61001E-05-2.87614E-05 1.24554E-07-7.70074E-19-2.75231E-18
 -1      4336 9.34746E-05-2.63794E-05-2.87634E-05 6.66972E-08-8.47992E-19-2.20763E-18
 -1      4337 9.37414E-05-2.66387E-05-2.87635E-05 9.03405E-08-8.65364E-19-1.77645E-18
 -1      4338 9.39598E-05-2.68721E-05-2.87586E-05 4.41798E-08-1.09752E-18-1.45823E-18
 -1      4339 9.41659E-05-2.70857E-05-2.87526E-05 6.55385E-08-1.23610E-18-1.08349E-18
 -1      4340 9.43334E-05-2.72765E-05-2.87438E-05 2.90609E-08-1.40281E-18-3.81915E-19
 -1      4341 9.44898E-05-2.74494E-05-2.87345E-05 4.70678E-08-1.90624E-18-1.38024E-19
 -1      4342 9.46157E-05-2.76023E-05-2.87239E-05 1.86983E-08-1.53448E-18-5.87527E-20
 -1      4343 9.47321E-05-2.77396E-05-2.87131E-05 3.33400E-08-6.85420E-19-2.63775E-19
 -1      4344 9.48247E-05-2.78599E-05-2.87020E-05 1.15868E-08-5.97586E-19-1.62825E-21
 -1      4345 9.49095E-05-2.79671E-05-2.86910E-05 2.31757E-08-3.15842E-19 2.39070E-20
 -1      4346 9.49761E-05-2.80600E-05-2.86803E-05 6.74120E-09-6.97114E-19 2.95460E-19
 -1      4347 9.50363E-05-2.81422E-05-2.86699E-05 1.56926E-08-5.91797E-19-2.24463E-19
 -1      4348 9.50827E-05-2.82126E-05-2.86600E-05 3.49887E-09-4.83053E-19-3.34642E-19
 -1      4349 9.51243E-05-2.82745E-05-2.86505E-05 1.02511E-08-1.38423E-19-2.41606E-19
 -1      4350 9.51555E-05-2.83268E-05-2.86417E-05 1.44734E-09 9.62639E-19 4.84753E-20
 -1      4351 9.51829E-05-2.83724E-05-2.86333E-05 6.00594E-09 2.17370E-18-1.63355E-19
 -1      4352 9.52000E-05-2.84055E-05-2.86268E-05-1.89571E-09 2.85524E-18-2.97754E-19
 -1      4353 9.23244E-05-2.53086E-05-2.87273E-05 5.31302E-07-3.69309E-20-3.78381E-18
 -1      4354 9.19115E-05-2.49522E-05-2.87015E-05 6.38237E-07-9.67650E-19-2.98047E-18
 -1      4355 8.98755E-05-2.34411E-05-2.84898E-05 2.98535E-07 6.32769E-19-1.66393E-18
 -1      4356 7.81753E-05-1.67894E-05-2.63423E-05-1.67250E-08 4.49164E-19-1.81168E-18
 -1      4357 9.05367E-05-2.38927E-05-2.85731E-05 3.07822E-07 1.08884E-18-1.83887E-18
 -1      4358 7.83041E-05-1.68608E-05-2.63011E-05 1.78498E-06 3.91999E-19-1.78276E-18
 -1      4359 9.15639E-05-2.46556E-05-2.86689E-05 2.12766E-07 1.08584E-19-3.00596E-18
 -1      4360 9.25038E-05-2.54594E-05-2.87377E-05 1.61926E-07-3.18416E-19-2.96166E-18
 -1      4361 7.93072E-05-2.61883E-05-2.27336E-05-1.97166E-05 5.56408E-19 1.79005E-18
 -3
    1PSTEP                         4           1           1          
  100CL  101 1.000000000        4361                     0    1           1
 -4  ERROR       1    1
 -5  STR(%)      1    1    0    0
 -1         1 2.41675E+01
 -1         2 2.39315E+01
 -1         3 5.53916E-04
 -1         4 5.81247E-04
 -1         5 1.35141E+01
 -1         6 1.25996E+01
 -1         7 1.25996E+01
 -1         8 3.52544E+00
 -1         9 1.89859E+00
 -1        10 1.38940E+00
 -1        11 1.10171E+00
 -1        12 8.87359E-01
 -1        13 7.19176E-01
 -1        14 5.90884E-01
 -1        15 6.03673E-01
 -1        16 7.35533E-01
 -1        17 8.94880E-01
 -1        18 1.11568E+00
 -1        19 1.40902E+00
 -1        20 1.90730E+00
 -1        21 3.37770E+00
 -1        22 8.19974E+00
 -1        23 1.25996E+01
 -1        24 4.07467E+00
 -1        25 2.89095E+00
 -1        26 1.79533E+00
 -1        27 1.25311E+00
 -1        28 8.74479E-01
 -1        29 8.74479E-01
 -1        30 1.13281E+00
 -1        31 1.37084E+00
 -1        32 1.39183E+00
 -1        33 1.40036E+00
 -1        34 1.40036E+00
 -1        35 1.83540E+00
 -1        36 3.10097E+00
 -1        37 4.25851E+00
 -1        38 4.25851E+00
 -1        39 4.23120E+00
 -1        40 4.22573E+00
 -1        41 2.97145E+00
 -1        42 1.86881E+00
 -1        43 1.51691E+00
 -1        44 1.51691E+00
 -1        45 1.45695E+00
 -1        46 1.45695E+00
 -1        47 1.28326E+00
 -1        48 1.04205E+00
 -1        49 8.33512E-01
 -1        50 6.46800E-01
 -1        51 5.34027E-01
 -1        52 4.43059E-01
 -1        53 3.55419E-01
 -1        54 2.77095E-01
 -1        55 2.10529E-01
 -1        56 1.56012E-01
 -1        57 1.14342E-01
 -1        58 9.54488E-02
 -1        59 7.78225E-02
 -1        60 6.21094E-02
 -1        61 4.85521E-02
 -1        62 3.71396E-02
 -1        63 2.77117E-02
 -1        64 2.17022E-02
 -1        65 1.76784E-02
 -1        66 1.38786E-02
 -1        67 1.03393E-02
 -1        68 7.08871E-03
 -1        69 5.30054E-03
 -1        70 4.41722E-03
 -1        71 3.04054E-03
 -1        72 1.35141E+01
 -1        73 3.27562E+00
 -1        74 2.17893E+00
 -1        75 1.52956E+00
 -1        76 1.24737E+00
 -1        77 9.79502E-01
 -1        78 7.74812E-01
 -1        79 7.35769E-01
 -1        80 8.72883E-01
 -1        81 9.45414E-01
 -1        82 1.23509E+00
 -1        83 1.26611E+00
 -1        84 1.62058E+00
 -1        85 2.03925E+00
 -1        86 2.98711E+00
 -1        87 3.27606E+00
 -1        88 3.67993E+00
 -1        89 3.67993E+00
 -1        90 3.01473E+00
 -1        91 1.82610E+00
 -1        92 1.22434E+00
 -1        93 1.01610E+00
 -1        94 1.18463E+00
 -1        95 1.18463E+00
 -1        96 1.18297E+00
 -1        97 1.06285E+00
 -1        98 8.97830E-01
 -1        99 7.48817E-01
 -1       100 5.96647E-01
 -1       101 4.56833E-01
 -1       102 3.36858E-01
 -1       103 2.65126E-01
 -1       104 2.03906E-01
 -1       105 1.52647E-01
 -1       106 1.11182E-01
 -1       107 7.85892E-02
 -1       108 5.36137E-02
 -1       109 4.39530E-02
 -1       110 3.61856E-02
 -1       111 2.90875E-02
 -1       112 2.28246E-02
 -1       113 1.89511E-02
 -1       114 1.65856E-02
 -1       115 1.39425E-02
 -1       116 1.11793E-02
 -1       117 8.35078E-03
 -1       118 5.91121E-03
 -1       119 4.34542E-03
 -1       120 2.52976E-03
 -1       121 1.17973E-03
 -1       122 1.04262E-03
 -1       123 5.56157E-04
 -1       124 3.28046E-04
 -1       125 5.28341E-04
 -1       126 6.40352E-04
 -1       127 6.91207E-04
 -1       128 7.01829E-04
 -1       129 7.01829E-04
 -1       130 6.92027E-04
 -1       131 6.36131E-04
 -1       132 5.29352E-04
 -1       133 3.27217E-04
 -1       134 5.74474E-04
 -1       135 1.38289E-03
 -1       136 1.89545E-03
 -1       137 2.51879E+01
 -1       138 4.66407E+01
 -1       139 4.66407E+01
 -1       140 1.88982E+01
 -1       141 1.19234E+01
 -1       142 1.22216E+01
 -1       143 1.22216E+01
 -1       144 1.19511E+01
 -1       145 1.19511E+01
 -1       146 1.35532E+01
 -1       147 3.26967E+01
 -1       148 3.27911E+01
 -1       149 2.74132E+01
 -1       150 2.54236E+01
 -1       151 2.48433E+01
 -1       152 3.96008E+01
 -1       153 3.96008E+01
 -1       154 1.43342E+01
 -1       155 1.29163E+01
 -1       156 1.24396E+01
 -1       157 1.26700E+01
 -1       158 1.26700E+01
 -1       159 1.20787E+01
 -1       160 2.10059E+01
 -1       161 4.83235E+01
 -1       162 4.83235E+01
 -1       163 2.53769E+01
 -1       164 5.78831E+00
 -1       165 2.37729E+00
 -1       166 1.63502E+00
 -1       167 1.24563E+00
 -1       168 9.89077E-01
 -1       169 7.96929E-01
 -1       170 6.47368E-01
 -1       171 5.49200E-01
 -1       172 6.61743E-01
 -1       173 8.08445E-01
 -1       174 1.00617E+00
 -1       175 1.26543E+00
 -1       176 1.65546E+00
 -1       177 2.36550E+00
 -1       178 3.77980E+00
 -1       179 1.35141E+01
 -1       180 4.07467E+00
 -1       181 2.89095E+00
 -1       182 1.79533E+00
 -1       183 1.25311E+00
 -1       184 8.40946E-01
 -1       185 8.74479E-01
 -1       186 8.58653E-01
 -1       187 1.13281E+00
 -1       188 1.37084E+00
 -1       189 1.39183E+00
 -1       190 1.40036E+00
 -1       191 1.26365E+00
 -1       192 1.86617E+00
 -1       193 3.10097E+00
 -1       194 4.25851E+00
 -1       195 4.23120E+00
 -1       196 4.22573E+00
 -1       197 2.97145E+00
 -1       198 1.86881E+00
 -1       199 1.35099E+00
 -1       200 1.51691E+00
 -1       201 1.45369E+00
 -1       202 1.45695E+00
 -1       203 1.28326E+00
 -1       204 1.05979E+00
 -1       205 9.05025E-01
 -1       206 7.72648E-01
 -1       207 6.26660E-01
 -1       208 4.87301E-01
 -1       209 3.65042E-01
 -1       210 2.77095E-01
 -1       211 2.16292E-01
 -1       212 1.65802E-01
 -1       213 1.24238E-01
 -1       214 9.54488E-02
 -1       215 7.78225E-02
 -1       216 6.21094E-02
 -1       217 4.85521E-02
 -1       218 3.71396E-02
 -1       219 2.80676E-02
 -1       220 2.17022E-02
 -1       221 1.76784E-02
 -1       222 1.38786E-02
 -1       223 1.03393E-02
 -1       224 7.51700E-03
 -1       225 5.30054E-03
 -1       226 4.41722E-03
 -1       227 3.04054E-03
 -1       228 3.27562E+00
 -1       229 2.17893E+00
 -1       230 1.52956E+00
 -1       231 1.24737E+00
 -1       232 9.79502E-01
 -1       233 7.74812E-01
 -1       234 7.35769E-01
 -1       235 6.89758E-01
 -1       236 8.72883E-01
 -1       237 9.45414E-01
 -1       238 1.23509E+00
 -1       239 1.26611E+00
 -1       240 1.62058E+00
 -1       241 2.13224E+00
 -1       242 2.98711E+00
 -1       243 3.27606E+00
 -1       244 3.67993E+00
 -1       245 3.01473E+00
 -1       246 1.82610E+00
 -1       247 1.22434E+00
 -1       248 9.64586E-01
 -1       249 1.01610E+00
 -1       250 1.18463E+00
 -1       251 1.18297E+00
 -1       252 1.06285E+00
 -1       253 8.97830E-01
 -1       254 7.49791E-01
 -1       255 6.15612E-01
 -1       256 4.85324E-01
 -1       257 3.68922E-01
 -1       258 2.70749E-01
 -1       259 2.03906E-01
 -1       260 1.52647E-01
 -1       261 1.11972E-01
 -1       262 8.13694E-02
 -1       263 5.74378E-02
 -1       264 4.39530E-02
 -1       265 3.61856E-02
 -1       266 2.90875E-02
 -1       267 2.28246E-02
 -1       268 1.89511E-02
 -1       269 1.65856E-02
 -1       270 1.39425E-02
 -1       271 1.11793E-02
 -1       272 8.35078E-03
 -1       273 5.91121E-03
 -1       274 4.34542E-03
 -1       275 2.52976E-03
 -1       276 1.10306E-03
 -1       277 1.01530E-03
 -1       278 6.52192E-04
 -1       279 8.79093E-04
 -1       280 1.10523E-03
 -1       281 1.21573E-03
 -1       282 1.25385E-03
 -1       283 1.25405E-03
 -1       284 1.25405E-03
 -1       285 1.21409E-03
 -1       286 1.10853E-03
 -1       287 8.90511E-04
 -1       288 6.70760E-04
 -1       289 6.70760E-04
 -1       290 1.81179E-03
 -1       291 2.89293E+01
 -1       292 2.66734E+01
 -1       293 4.66407E+01
 -1       294 1.96371E+01
 -1       295 1.07515E+01
 -1       296 1.19234E+01
 -1       297 1.22216E+01
 -1       298 1.16615E+01
 -1       299 1.19511E+01
 -1       300 1.13741E+01
 -1       301 1.35532E+01
 -1       302 3.27911E+01
 -1       303 3.27911E+01
 -1       304 2.54918E+01
 -1       305 2.84902E+01
 -1       306 2.84902E+01
 -1       307 3.61281E+01
 -1       308 3.96008E+01
 -1       309 1.60758E+01
 -1       310 1.29163E+01
 -1       311 1.24396E+01
 -1       312 1.18272E+01
 -1       313 1.26700E+01
 -1       314 1.20787E+01
 -1       315 1.12585E+01
 -1       316 2.32937E+01
 -1       317 4.83235E+01
 -1       318 2.74412E+01
 -1       319 2.89293E+01
 -1       320 1.19989E+00
 -1       321 2.40542E+00
 -1       322 8.77079E-01
 -1       323 7.18858E-01
 -1       324 5.90218E-01
 -1       325 4.79507E-01
 -1       326 4.95103E-01
 -1       327 6.03897E-01
 -1       328 7.38178E-01
 -1       329 8.86968E-01
 -1       330 1.05734E+00
 -1       331 1.29785E+00
 -1       332 1.40653E+00
 -1       333 1.89342E+00
 -1       334 1.52565E+00
 -1       335 8.67433E+00
 -1       336 1.27220E+00
 -1       337 7.26008E-01
 -1       338 5.30422E-01
 -1       339 5.74738E-01
 -1       340 6.68227E-01
 -1       341 7.86869E-01
 -1       342 9.51519E-01
 -1       343 9.55812E-01
 -1       344 8.96148E-01
 -1       345 9.98739E-01
 -1       346 1.34187E+00
 -1       347 1.88667E+00
 -1       348 2.46315E+00
 -1       349 2.57124E+00
 -1       350 2.61651E+00
 -1       351 2.43740E+00
 -1       352 1.84097E+00
 -1       353 1.20924E+00
 -1       354 9.87235E-01
 -1       355 9.01741E-01
 -1       356 1.08933E+00
 -1       357 1.12941E+00
 -1       358 1.03868E+00
 -1       359 9.26766E-01
 -1       360 8.28483E-01
 -1       361 7.04612E-01
 -1       362 5.74015E-01
 -1       363 4.51342E-01
 -1       364 3.44022E-01
 -1       365 2.54660E-01
 -1       366 1.82992E-01
 -1       367 1.27262E-01
 -1       368 9.09430E-02
 -1       369 6.50726E-02
 -1       370 4.74451E-02
 -1       371 3.88303E-02
 -1       372 3.16732E-02
 -1       373 2.51860E-02
 -1       374 1.94760E-02
 -1       375 1.45523E-02
 -1       376 1.19625E-02
 -1       377 9.60747E-03
 -1       378 7.22598E-03
 -1       379 5.22289E-03
 -1       380 3.53808E-03
 -1       381 2.68960E-03
 -1       382 8.67968E-01
 -1       383 6.57980E-01
 -1       384 5.80523E-01
 -1       385 5.65913E-01
 -1       386 6.02098E-01
 -1       387 6.31076E-01
 -1       388 6.31076E-01
 -1       389 5.28768E-01
 -1       390 5.64257E-01
 -1       391 1.04353E+00
 -1       392 1.63757E+00
 -1       393 1.88637E+00
 -1       394 1.88637E+00
 -1       395 1.88274E+00
 -1       396 2.16079E+00
 -1       397 2.01048E+00
 -1       398 1.37827E+00
 -1       399 8.37138E-01
 -1       400 5.28521E-01
 -1       401 7.66690E-01
 -1       402 8.50683E-01
 -1       403 8.85403E-01
 -1       404 8.51743E-01
 -1       405 7.64387E-01
 -1       406 6.78049E-01
 -1       407 5.70617E-01
 -1       408 4.60376E-01
 -1       409 3.58257E-01
 -1       410 2.69712E-01
 -1       411 1.97004E-01
 -1       412 1.50121E-01
 -1       413 1.11972E-01
 -1       414 8.13694E-02
 -1       415 5.74378E-02
 -1       416 3.91518E-02
 -1       417 2.76084E-02
 -1       418 2.35606E-02
 -1       419 1.94583E-02
 -1       420 1.55460E-02
 -1       421 1.19581E-02
 -1       422 9.39978E-03
 -1       423 7.98085E-03
 -1       424 6.31316E-03
 -1       425 4.93471E-03
 -1       426 3.52138E-03
 -1       427 2.47891E-03
 -1       428 1.20785E-03
 -1       429 1.98783E-03
 -1       430 1.98783E-03
 -1       431 1.44024E-03
 -1       432 1.55669E-03
 -1       433 1.58782E-03
 -1       434 1.58782E-03
 -1       435 1.58672E-03
 -1       436 1.58672E-03
 -1       437 1.56232E-03
 -1       438 1.44977E-03
 -1       439 1.20271E-03
 -1       440 2.14106E-03
 -1       441 2.66734E+01
 -1       442 3.17392E+01
 -1       443 2.88909E+01
 -1       444 1.61920E+01
 -1       445 8.70363E+00
 -1       446 1.15072E+01
 -1       447 8.54849E+00
 -1       448 1.16908E+00
 -1       449 9.47654E+00
 -1       450 1.07018E+01
 -1       451 1.01213E+01
 -1       452 8.97179E+00
 -1       453 7.53009E+00
 -1       454 1.25933E+01
 -1       455 2.19742E+01
 -1       456 1.87707E+01
 -1       457 3.58023E+01
 -1       458 3.58023E+01
 -1       459 2.10534E+01
 -1       460 2.42096E+01
 -1       461 1.32000E+01
 -1       462 1.09014E+01
 -1       463 9.96306E+00
 -1       464 7.93282E+00
 -1       465 9.73971E+00
 -1       466 1.75338E+01
 -1       467 2.74412E+01
 -1       468 3.17392E+01
 -1       469 7.47518E+00
 -1       470 2.36400E+01
 -1       471 2.39576E+01
 -1       472 9.34187E+00
 -1       473 2.04905E+01
 -1       474 8.65139E-01
 -1       475 5.10965E-01
 -1       476 6.01254E-01
 -1       477 3.22167E-01
 -1       478 4.19458E-01
 -1       479 5.24797E-01
 -1       480 6.13091E-01
 -1       481 6.95319E-01
 -1       482 9.81240E-01
 -1       483 7.81927E-01
 -1       484 6.19394E+00
 -1       485 4.71073E-01
 -1       486 1.16908E+00
 -1       487 5.44027E-01
 -1       488 5.58749E-01
 -1       489 6.84302E-01
 -1       490 8.05066E-01
 -1       491 9.80575E-01
 -1       492 1.15229E+00
 -1       493 1.27587E+00
 -1       494 1.52167E+00
 -1       495 1.81115E+00
 -1       496 2.14885E+00
 -1       497 2.09592E+00
 -1       498 3.12200E+00
 -1       499 3.53638E+00
 -1       500 3.11669E+00
 -1       501 2.02658E+00
 -1       502 1.88911E+00
 -1       503 1.81170E+00
 -1       504 1.45315E+00
 -1       505 1.40000E+00
 -1       506 1.28163E+00
 -1       507 1.12114E+00
 -1       508 9.88476E-01
 -1       509 8.87681E-01
 -1       510 7.61147E-01
 -1       511 6.29393E-01
 -1       512 5.05113E-01
 -1       513 3.94993E-01
 -1       514 3.01619E-01
 -1       515 2.25055E-01
 -1       516 1.63971E-01
 -1       517 1.16388E-01
 -1       518 8.01348E-02
 -1       519 5.31137E-02
 -1       520 3.37373E-02
 -1       521 2.32715E-02
 -1       522 1.88363E-02
 -1       523 1.60551E-02
 -1       524 1.31638E-02
 -1       525 1.03562E-02
 -1       526 7.74912E-03
 -1       527 6.32622E-03
 -1       528 4.82862E-03
 -1       529 3.50083E-03
 -1       530 5.08124E-01
 -1       531 6.14411E-01
 -1       532 7.12895E-01
 -1       533 7.70640E-01
 -1       534 8.01841E-01
 -1       535 1.00209E+00
 -1       536 1.08477E+00
 -1       537 1.44221E+00
 -1       538 1.71370E+00
 -1       539 2.27601E+00
 -1       540 2.20273E+00
 -1       541 2.30094E+00
 -1       542 1.81403E+00
 -1       543 1.52015E+00
 -1       544 1.10445E+00
 -1       545 1.03017E+00
 -1       546 8.67140E-01
 -1       547 9.21094E-01
 -1       548 9.06031E-01
 -1       549 8.31752E-01
 -1       550 7.68423E-01
 -1       551 6.89737E-01
 -1       552 5.93861E-01
 -1       553 4.90698E-01
 -1       554 3.91777E-01
 -1       555 3.03469E-01
 -1       556 2.28486E-01
 -1       557 1.67211E-01
 -1       558 1.18697E-01
 -1       559 8.13453E-02
 -1       560 5.36803E-02
 -1       561 3.78168E-02
 -1       562 2.76084E-02
 -1       563 2.35606E-02
 -1       564 1.94583E-02
 -1       565 1.55460E-02
 -1       566 1.19581E-02
 -1       567 9.35998E-03
 -1       568 7.62424E-03
 -1       569 5.77925E-03
 -1       570 4.20177E-03
 -1       571 2.93517E-03
 -1       572 1.84680E-03
 -1       573 1.81769E-03
 -1       574 2.61593E-03
 -1       575 1.93352E-03
 -1       576 1.80707E-03
 -1       577 1.74033E-03
 -1       578 1.80624E-03
 -1       579 1.84166E-03
 -1       580 1.84166E-03
 -1       581 1.74902E-03
 -1       582 1.69054E-03
 -1       583 1.24136E+01
 -1       584 5.06512E+00
 -1       585 4.27240E-01
 -1       586 2.88909E+01
 -1       587 7.86048E+00
 -1       588 7.78656E+00
 -1       589 1.05529E+01
 -1       590 4.06449E-01
 -1       591 7.58957E+00
 -1       592 7.93895E+00
 -1       593 6.62684E+00
 -1       594 4.22344E+00
 -1       595 7.05981E+00
 -1       596 7.06160E+00
 -1       597 1.80728E+01
 -1       598 3.58023E+01
 -1       599 2.03604E+01
 -1       600 1.11780E+01
 -1       601 7.58721E+00
 -1       602 5.17581E+00
 -1       603 5.37934E+00
 -1       604 1.80752E+01
 -1       605 6.10855E+00
 -1       606 1.26774E+01
 -1       607 3.17392E+01
 -1       608 1.04897E+00
 -1       609 3.13996E+00
 -1       610 1.16908E+00
 -1       611 1.36732E+01
 -1       612 2.23789E-03
 -1       613 3.83886E+00
 -1       614 1.78587E+01
 -1       615 2.02634E+01
 -1       616 1.76975E+01
 -1       617 1.42882E+01
 -1       618 4.29301E+00
 -1       619 4.25911E-01
 -1       620 2.62916E-01
 -1       621 6.12284E-01
 -1       622 6.60214E-01
 -1       623 7.63544E-01
 -1       624 1.06277E+01
 -1       625 7.00889E-01
 -1       626 9.54941E-01
 -1       627 6.04252E-01
 -1       628 7.09460E-01
 -1       629 8.63828E-01
 -1       630 1.04221E+00
 -1       631 1.27314E+00
 -1       632 1.63606E+00
 -1       633 2.02776E+00
 -1       634 2.36722E+00
 -1       635 2.19223E+00
 -1       636 2.14885E+00
 -1       637 3.12200E+00
 -1       638 3.53638E+00
 -1       639 3.54592E+00
 -1       640 3.11669E+00
 -1       641 2.51170E+00
 -1       642 2.76895E+00
 -1       643 2.26163E+00
 -1       644 1.86069E+00
 -1       645 1.49304E+00
 -1       646 1.28163E+00
 -1       647 1.12114E+00
 -1       648 9.64735E-01
 -1       649 8.05635E-01
 -1       650 6.52977E-01
 -1       651 5.16416E-01
 -1       652 3.99591E-01
 -1       653 3.02801E-01
 -1       654 2.26480E-01
 -1       655 1.67167E-01
 -1       656 1.20729E-01
 -1       657 8.50199E-02
 -1       658 5.91972E-02
 -1       659 4.03501E-02
 -1       660 2.64761E-02
 -1       661 1.64928E-02
 -1       662 1.11718E-02
 -1       663 9.43397E-03
 -1       664 8.45792E-03
 -1       665 7.12854E-03
 -1       666 5.65545E-03
 -1       667 4.30499E-03
 -1       668 3.31045E-03
 -1       669 7.91626E-01
 -1       670 1.49162E+01
 -1       671 6.51252E-01
 -1       672 1.10745E+00
 -1       673 1.21401E+00
 -1       674 1.63671E+00
 -1       675 1.77123E+00
 -1       676 2.49209E+00
 -1       677 4.96931E+00
 -1       678 5.91445E+00
 -1       679 6.04942E+00
 -1       680 3.42238E+00
 -1       681 3.11352E+00
 -1       682 2.37283E+00
 -1       683 1.76695E+00
 -1       684 1.39431E+00
 -1       685 1.27397E+00
 -1       686 1.14052E+00
 -1       687 9.74858E-01
 -1       688 8.43079E-01
 -1       689 7.49134E-01
 -1       690 6.39928E-01
 -1       691 5.29707E-01
 -1       692 4.26938E-01
 -1       693 3.36019E-01
 -1       694 2.58621E-01
 -1       695 1.94713E-01
 -1       696 1.43292E-01
 -1       697 1.02864E-01
 -1       698 7.17632E-02
 -1       699 4.83521E-02
 -1       700 3.11307E-02
 -1       701 1.89997E-02
 -1       702 1.32465E-02
 -1       703 1.19836E-02
 -1       704 1.02740E-02
 -1       705 8.37463E-03
 -1       706 6.46033E-03
 -1       707 4.95666E-03
 -1       708 3.74506E-03
 -1       709 3.28279E-03
 -1       710 1.75550E-03
 -1       711 2.03974E-03
 -1       712 1.75958E-03
 -1       713 1.92903E-03
 -1       714 5.54388E-01
 -1       715 1.94339E-03
 -1       716 2.11287E-03
 -1       717 2.14275E-03
 -1       718 5.04180E+00
 -1       719 6.04942E+00
 -1       720 6.50937E+00
 -1       721 7.82201E+00
 -1       722 5.07873E+00
 -1       723 2.37873E-03
 -1       724 1.17278E+01
 -1       725 4.25548E+00
 -1       726 2.68048E+00
 -1       727 5.45027E-01
 -1       728 5.31404E-01
 -1       729 1.86664E+01
 -1       730 4.96931E+00
 -1       731 7.35658E+00
 -1       732 9.05307E+00
 -1       733 1.47499E+01
 -1       734 5.91445E+00
 -1       735 7.42525E+00
 -1       736 4.34408E-01
 -1       737 3.63765E+00
 -1       738 2.93851E+00
 -1       739 6.04942E+00
 -1       740 7.50485E-01
 -1       741 2.40140E-01
 -1       742 8.55333E+00
 -1       743 7.39946E+00
 -1       744 2.50774E-03
 -1       745 3.11352E+00
 -1       746 1.22849E+01
 -1       747 3.89568E+00
 -1       748 1.09454E+01
 -1       749 3.44348E+00
 -1       750 1.20645E+01
 -1       751 1.25038E+01
 -1       752 5.45091E+00
 -1       753 2.12720E-03
 -1       754 4.01074E-01
 -1       755 1.07017E+00
 -1       756 2.45206E-03
 -1       757 4.91079E+00
 -1       758 6.67181E-01
 -1       759 3.42238E+00
 -1       760 1.32372E+00
 -1       761 7.06135E-01
 -1       762 8.34687E-01
 -1       763 1.09081E+00
 -1       764 1.44368E+00
 -1       765 1.87113E+00
 -1       766 2.38996E+00
 -1       767 3.33113E+00
 -1       768 3.24078E+00
 -1       769 2.76895E+00
 -1       770 3.41179E+00
 -1       771 2.33367E+00
 -1       772 1.85691E+00
 -1       773 1.48723E+00
 -1       774 1.15754E+00
 -1       775 9.09014E-01
 -1       776 7.12662E-01
 -1       777 5.66809E-01
 -1       778 4.45331E-01
 -1       779 3.42306E-01
 -1       780 2.58448E-01
 -1       781 1.93805E-01
 -1       782 1.42558E-01
 -1       783 1.02634E-01
 -1       784 7.20633E-02
 -1       785 4.99798E-02
 -1       786 3.40610E-02
 -1       787 2.23904E-02
 -1       788 1.40230E-02
 -1       789 8.18720E-03
 -1       790 5.27884E-03
 -1       791 4.83592E-03
 -1       792 4.37859E-03
 -1       793 3.66497E-03
 -1       794 3.02215E-03
 -1       795 1.02244E+00
 -1       796 1.13110E+01
 -1       797 1.75958E-03
 -1       798 2.06434E+00
 -1       799 3.35178E+00
 -1       800 2.60394E+00
 -1       801 2.19847E+00
 -1       802 1.94044E+00
 -1       803 1.53288E+00
 -1       804 1.20420E+00
 -1       805 1.03028E+00
 -1       806 8.55207E-01
 -1       807 7.00564E-01
 -1       808 5.63554E-01
 -1       809 4.44450E-01
 -1       810 3.44840E-01
 -1       811 2.65986E-01
 -1       812 2.02209E-01
 -1       813 1.51282E-01
 -1       814 1.11170E-01
 -1       815 8.00301E-02
 -1       816 5.62303E-02
 -1       817 3.83597E-02
 -1       818 2.52060E-02
 -1       819 1.57445E-02
 -1       820 9.12668E-03
 -1       821 6.66482E-03
 -1       822 6.42218E-03
 -1       823 5.67925E-03
 -1       824 4.66355E-03
 -1       825 3.52256E-03
 -1       826 3.01546E-03
 -1       827 7.06176E-01
 -1       828 7.26780E+00
 -1       829 1.65018E-03
 -1       830 3.18591E+00
 -1       831 2.14275E-03
 -1       832 1.00174E+01
 -1       833 4.56015E+00
 -1       834 1.02409E+01
 -1       835 1.94339E-03
 -1       836 8.52795E-01
 -1       837 7.22773E-01
 -1       838 3.12806E+00
 -1       839 1.17278E+01
 -1       840 1.68164E+00
 -1       841 4.08320E-01
 -1       842 4.99477E-01
 -1       843 7.63544E-01
 -1       844 8.13671E+00
 -1       845 6.24708E+00
 -1       846 3.53681E-01
 -1       847 7.98372E+00
 -1       848 2.57547E-03
 -1       849 8.71915E+00
 -1       850 4.13728E+00
 -1       851 4.17067E+00
 -1       852 2.98544E+00
 -1       853 1.98160E-03
 -1       854 4.72947E-01
 -1       855 3.04207E+00
 -1       856 1.75550E-03
 -1       857 7.56188E+00
 -1       858 5.41993E-01
 -1       859 7.90902E+00
 -1       860 8.77398E+00
 -1       861 5.99263E-01
 -1       862 3.24078E+00
 -1       863 6.96039E+00
 -1       864 2.03974E-03
 -1       865 5.35174E-01
 -1       866 6.79529E-01
 -1       867 3.71410E-01
 -1       868 1.04983E+00
 -1       869 1.41138E+00
 -1       870 2.00356E+00
 -1       871 2.80418E+00
 -1       872 5.16780E+00
 -1       873 5.33754E+00
 -1       874 4.20894E+00
 -1       875 2.91182E+00
 -1       876 2.00477E+00
 -1       877 1.44766E+00
 -1       878 1.09843E+00
 -1       879 8.92627E-01
 -1       880 7.12662E-01
 -1       881 5.60850E-01
 -1       882 4.35581E-01
 -1       883 3.33738E-01
 -1       884 2.51941E-01
 -1       885 1.87055E-01
 -1       886 1.36322E-01
 -1       887 9.72392E-02
 -1       888 6.75825E-02
 -1       889 4.66858E-02
 -1       890 3.11666E-02
 -1       891 1.98761E-02
 -1       892 1.19171E-02
 -1       893 6.50302E-03
 -1       894 3.28970E-03
 -1       895 3.29266E-03
 -1       896 3.35533E-03
 -1       897 3.54933E+00
 -1       898 2.19847E+00
 -1       899 1.33677E+00
 -1       900 1.01145E+00
 -1       901 7.96894E-01
 -1       902 6.38027E-01
 -1       903 5.22760E-01
 -1       904 4.17803E-01
 -1       905 3.26775E-01
 -1       906 2.50464E-01
 -1       907 1.88070E-01
 -1       908 1.38131E-01
 -1       909 9.90381E-02
 -1       910 6.94491E-02
 -1       911 4.80406E-02
 -1       912 3.20519E-02
 -1       913 2.03778E-02
 -1       914 1.22008E-02
 -1       915 6.68939E-03
 -1       916 3.93811E-03
 -1       917 3.85130E-03
 -1       918 3.79478E-03
 -1       919 3.32649E-03
 -1       920 2.62293E+00
 -1       921 1.61780E-03
 -1       922 8.59506E-01
 -1       923 1.79194E+00
 -1       924 2.27466E+00
 -1       925 6.50525E+00
 -1       926 7.24618E+00
 -1       927 8.50587E+00
 -1       928 1.91527E+00
 -1       929 2.59084E-03
 -1       930 8.71915E+00
 -1       931 6.41999E-01
 -1       932 1.13994E+00
 -1       933 1.50592E+00
 -1       934 8.69517E-01
 -1       935 6.86448E+00
 -1       936 6.07717E+00
 -1       937 3.02215E-03
 -1       938 4.37589E+00
 -1       939 7.40660E-01
 -1       940 5.57522E-01
 -1       941 5.81822E-01
 -1       942 1.59133E-03
 -1       943 7.39650E-01
 -1       944 2.57547E-03
 -1       945 6.50608E+00
 -1       946 6.57909E+00
 -1       947 1.84699E-03
 -1       948 6.83349E-01
 -1       949 2.27036E-03
 -1       950 5.47565E+00
 -1       951 5.34384E-01
 -1       952 2.19038E-03
 -1       953 2.55088E+00
 -1       954 1.41138E+00
 -1       955 1.95828E+00
 -1       956 4.37865E+00
 -1       957 1.49101E+00
 -1       958 3.78298E+00
 -1       959 4.19425E+00
 -1       960 2.67207E+00
 -1       961 1.92097E+00
 -1       962 1.44766E+00
 -1       963 1.09843E+00
 -1       964 8.37803E-01
 -1       965 6.42105E-01
 -1       966 4.92890E-01
 -1       967 3.77183E-01
 -1       968 2.86595E-01
 -1       969 2.15565E-01
 -1       970 1.60012E-01
 -1       971 1.16958E-01
 -1       972 8.38025E-02
 -1       973 5.85736E-02
 -1       974 3.99828E-02
 -1       975 2.70340E-02
 -1       976 1.75490E-02
 -1       977 1.07524E-02
 -1       978 6.01194E-03
 -1       979 2.92203E-03
 -1       980 2.37158E-03
 -1       981 7.96894E-01
 -1       982 9.92632E-01
 -1       983 1.26779E+00
 -1       984 6.33561E-01
 -1       985 4.98318E-01
 -1       986 3.87670E-01
 -1       987 2.97982E-01
 -1       988 2.26182E-01
 -1       989 1.68936E-01
 -1       990 1.24032E-01
 -1       991 8.92234E-02
 -1       992 6.25688E-02
 -1       993 4.28714E-02
 -1       994 2.90010E-02
 -1       995 1.88239E-02
 -1       996 1.15247E-02
 -1       997 6.43063E-03
 -1       998 3.10712E-03
 -1       999 2.28760E-03
 -1      1000 2.60036E+00
 -1      1001 5.25125E+00
 -1      1002 5.34384E-01
 -1      1003 2.86787E+00
 -1      1004 5.47565E+00
 -1      1005 1.03795E+00
 -1      1006 6.34742E-01
 -1      1007 5.83257E+00
 -1      1008 4.66136E+00
 -1      1009 5.79319E+00
 -1      1010 2.53686E+00
 -1      1011 1.16637E+00
 -1      1012 9.41678E-01
 -1      1013 8.07941E-01
 -1      1014 3.26213E+00
 -1      1015 7.93045E-01
 -1      1016 8.13831E-01
 -1      1017 3.63892E+00
 -1      1018 2.55346E-03
 -1      1019 1.64306E-03
 -1      1020 3.10084E+00
 -1      1021 5.21067E+00
 -1      1022 4.20880E+00
 -1      1023 1.64306E-03
 -1      1024 1.70703E-03
 -1      1025 1.50029E-03
 -1      1026 9.12081E-01
 -1      1027 3.94029E+00
 -1      1028 1.14854E+00
 -1      1029 4.28222E+00
 -1      1030 2.67207E+00
 -1      1031 1.81213E+00
 -1      1032 1.26196E+00
 -1      1033 9.07336E-01
 -1      1034 6.70120E-01
 -1      1035 5.04828E-01
 -1      1036 3.83983E-01
 -1      1037 2.91654E-01
 -1      1038 2.20229E-01
 -1      1039 1.65988E-01
 -1      1040 1.23244E-01
 -1      1041 8.99958E-02
 -1      1042 6.43057E-02
 -1      1043 4.49287E-02
 -1      1044 3.04654E-02
 -1      1045 2.06481E-02
 -1      1046 1.35727E-02
 -1      1047 8.69267E-03
 -1      1048 5.18179E-03
 -1      1049 2.75859E-03
 -1      1050 5.55827E-01
 -1      1051 7.29375E-01
 -1      1052 3.83355E+00
 -1      1053 1.26779E+00
 -1      1054 4.25300E-01
 -1      1055 3.23736E-01
 -1      1056 2.45168E-01
 -1      1057 1.84319E-01
 -1      1058 1.37234E-01
 -1      1059 1.00427E-01
 -1      1060 7.19306E-02
 -1      1061 5.03516E-02
 -1      1062 3.42334E-02
 -1      1063 2.31490E-02
 -1      1064 1.51349E-02
 -1      1065 9.37178E-03
 -1      1066 5.47183E-03
 -1      1067 3.04841E-03
 -1      1068 2.88054E-03
 -1      1069 3.44588E+00
 -1      1070 5.31274E+00
 -1      1071 9.41678E-01
 -1      1072 3.64147E+00
 -1      1073 3.60166E+00
 -1      1074 1.29926E+00
 -1      1075 3.53358E+00
 -1      1076 3.51711E+00
 -1      1077 2.60036E+00
 -1      1078 9.62261E-01
 -1      1079 3.44776E+00
 -1      1080 1.82355E+00
 -1      1081 1.45423E+00
 -1      1082 3.00545E+00
 -1      1083 1.16637E+00
 -1      1084 1.23532E+00
 -1      1085 5.19753E+00
 -1      1086 2.41535E-03
 -1      1087 2.10652E+00
 -1      1088 2.10652E+00
 -1      1089 2.97510E+00
 -1      1090 1.51156E+00
 -1      1091 1.07496E+00
 -1      1092 7.85178E-01
 -1      1093 5.83157E-01
 -1      1094 4.26694E-01
 -1      1095 3.05459E-01
 -1      1096 2.72692E-01
 -1      1097 1.85896E-01
 -1      1098 1.40953E-01
 -1      1099 1.03829E-01
 -1      1100 7.60382E-02
 -1      1101 5.48519E-02
 -1      1102 3.86888E-02
 -1      1103 2.66173E-02
 -1      1104 1.82868E-02
 -1      1105 1.20290E-02
 -1      1106 7.37647E-03
 -1      1107 3.46482E-03
 -1      1108 4.26694E-01
 -1      1109 2.57046E-01
 -1      1110 1.86977E-01
 -1      1111 1.76827E-01
 -1      1112 1.38900E-01
 -1      1113 1.03829E-01
 -1      1114 7.54840E-02
 -1      1115 5.35658E-02
 -1      1116 3.76726E-02
 -1      1117 2.59178E-02
 -1      1118 1.71416E-02
 -1      1119 1.05509E-02
 -1      1120 5.03225E-03
 -1      1121 3.53358E+00
 -1      1122 1.51156E+00
 -1      1123 3.16845E+00
 -1      1124 1.29926E+00
 -1      1125 2.41675E+00
 -1      1126 1.07496E+00
 -1      1127 5.83157E-01
 -1      1128 7.85178E-01
 -1      1129 2.43826E+00
 -1      1130 2.72692E-01
 -1      1131 2.72692E-01
 -1      1132 1.25996E+01
 -1      1133 8.06252E+00
 -1      1134 2.71202E+00
 -1      1135 1.64400E+00
 -1      1136 1.24556E+00
 -1      1137 9.94537E-01
 -1      1138 8.03267E-01
 -1      1139 6.55030E-01
 -1      1140 5.97279E-01
 -1      1141 6.69603E-01
 -1      1142 8.15207E-01
 -1      1143 1.00528E+00
 -1      1144 1.26235E+00
 -1      1145 1.65816E+00
 -1      1146 2.64250E+00
 -1      1147 5.78872E+00
 -1      1148 1.08569E+01
 -1      1149 1.25996E+01
 -1      1150 8.33713E+00
 -1      1151 3.48281E+00
 -1      1152 2.34314E+00
 -1      1153 1.52422E+00
 -1      1154 1.06380E+00
 -1      1155 8.74479E-01
 -1      1156 1.00364E+00
 -1      1157 1.25182E+00
 -1      1158 1.38133E+00
 -1      1159 1.39610E+00
 -1      1160 1.40036E+00
 -1      1161 1.61788E+00
 -1      1162 2.46819E+00
 -1      1163 3.67974E+00
 -1      1164 4.25851E+00
 -1      1165 4.24485E+00
 -1      1166 4.22846E+00
 -1      1167 3.59859E+00
 -1      1168 2.42013E+00
 -1      1169 1.69286E+00
 -1      1170 1.51691E+00
 -1      1171 1.48693E+00
 -1      1172 1.45695E+00
 -1      1173 1.37010E+00
 -1      1174 1.16265E+00
 -1      1175 9.37781E-01
 -1      1176 7.40156E-01
 -1      1177 5.90414E-01
 -1      1178 4.88543E-01
 -1      1179 3.99239E-01
 -1      1180 3.16257E-01
 -1      1181 2.43812E-01
 -1      1182 1.83270E-01
 -1      1183 1.35177E-01
 -1      1184 1.04895E-01
 -1      1185 8.66357E-02
 -1      1186 6.99660E-02
 -1      1187 5.53307E-02
 -1      1188 4.28458E-02
 -1      1189 3.24256E-02
 -1      1190 2.47069E-02
 -1      1191 1.96903E-02
 -1      1192 1.57785E-02
 -1      1193 1.21090E-02
 -1      1194 8.71400E-03
 -1      1195 6.19462E-03
 -1      1196 4.85888E-03
 -1      1197 3.72888E-03
 -1      1198 1.81089E-03
 -1      1199 1.35141E+01
 -1      1200 8.39488E+00
 -1      1201 2.72728E+00
 -1      1202 1.85425E+00
 -1      1203 1.38847E+00
 -1      1204 1.11344E+00
 -1      1205 8.77157E-01
 -1      1206 7.55291E-01
 -1      1207 8.04326E-01
 -1      1208 9.09149E-01
 -1      1209 1.09025E+00
 -1      1210 1.25060E+00
 -1      1211 1.44334E+00
 -1      1212 1.82991E+00
 -1      1213 2.51318E+00
 -1      1214 3.13158E+00
 -1      1215 3.47799E+00
 -1      1216 3.67993E+00
 -1      1217 3.34733E+00
 -1      1218 2.42041E+00
 -1      1219 1.52522E+00
 -1      1220 1.12022E+00
 -1      1221 1.10037E+00
 -1      1222 1.18463E+00
 -1      1223 1.18380E+00
 -1      1224 1.12291E+00
 -1      1225 9.80341E-01
 -1      1226 8.23324E-01
 -1      1227 6.72732E-01
 -1      1228 5.26740E-01
 -1      1229 3.96845E-01
 -1      1230 3.00992E-01
 -1      1231 2.34516E-01
 -1      1232 1.78277E-01
 -1      1233 1.31915E-01
 -1      1234 9.48856E-02
 -1      1235 6.61014E-02
 -1      1236 4.87833E-02
 -1      1237 4.00693E-02
 -1      1238 3.26365E-02
 -1      1239 2.59560E-02
 -1      1240 2.08878E-02
 -1      1241 1.77684E-02
 -1      1242 1.52641E-02
 -1      1243 1.25609E-02
 -1      1244 9.76504E-03
 -1      1245 7.13099E-03
 -1      1246 5.12831E-03
 -1      1247 3.43759E-03
 -1      1248 1.54184E-03
 -1      1249 8.66822E-04
 -1      1250 1.11118E-03
 -1      1251 7.99389E-04
 -1      1252 4.42101E-04
 -1      1253 4.28193E-04
 -1      1254 5.84346E-04
 -1      1255 6.65779E-04
 -1      1256 6.96518E-04
 -1      1257 7.01829E-04
 -1      1258 6.96928E-04
 -1      1259 6.64079E-04
 -1      1260 5.82741E-04
 -1      1261 4.28284E-04
 -1      1262 4.50845E-04
 -1      1263 9.78680E-04
 -1      1264 1.63917E-03
 -1      1265 1.23835E-03
 -1      1266 2.45597E+01
 -1      1267 3.59143E+01
 -1      1268 4.66407E+01
 -1      1269 3.27695E+01
 -1      1270 1.54108E+01
 -1      1271 1.20725E+01
 -1      1272 1.22216E+01
 -1      1273 1.20864E+01
 -1      1274 1.19511E+01
 -1      1275 1.27522E+01
 -1      1276 2.31250E+01
 -1      1277 3.27439E+01
 -1      1278 3.01021E+01
 -1      1279 2.64184E+01
 -1      1280 2.47955E+01
 -1      1281 2.45054E+01
 -1      1282 3.22220E+01
 -1      1283 3.96008E+01
 -1      1284 2.69675E+01
 -1      1285 1.36253E+01
 -1      1286 1.26780E+01
 -1      1287 1.25548E+01
 -1      1288 1.26700E+01
 -1      1289 1.23744E+01
 -1      1290 1.65423E+01
 -1      1291 3.46647E+01
 -1      1292 4.83235E+01
 -1      1293 3.68502E+01
 -1      1294 2.46542E+01
 -1      1295 1.25996E+01
 -1      1296 4.65687E+00
 -1      1297 9.19395E+00
 -1      1298 2.13794E+00
 -1      1299 2.95137E+00
 -1      1300 4.08280E+00
 -1      1301 1.51221E+00
 -1      1302 1.76680E+00
 -1      1303 2.00616E+00
 -1      1304 1.17367E+00
 -1      1305 1.31752E+00
 -1      1306 1.44033E+00
 -1      1307 9.38218E-01
 -1      1308 1.04540E+00
 -1      1309 1.11735E+00
 -1      1310 7.58052E-01
 -1      1311 8.42144E-01
 -1      1312 8.93003E-01
 -1      1313 6.19126E-01
 -1      1314 6.83272E-01
 -1      1315 7.22148E-01
 -1      1316 5.76437E-01
 -1      1317 5.70042E-01
 -1      1318 5.98284E-01
 -1      1319 6.98638E-01
 -1      1320 6.32708E-01
 -1      1321 6.05471E-01
 -1      1322 8.51663E-01
 -1      1323 7.71989E-01
 -1      1324 7.35094E-01
 -1      1325 1.06093E+00
 -1      1326 9.50527E-01
 -1      1327 9.07310E-01
 -1      1328 1.33723E+00
 -1      1329 1.19056E+00
 -1      1330 1.13580E+00
 -1      1331 1.78138E+00
 -1      1332 1.53224E+00
 -1      1333 1.46045E+00
 -1      1334 2.87160E+00
 -1      1335 2.13640E+00
 -1      1336 2.01048E+00
 -1      1337 5.98977E+00
 -1      1338 3.57875E+00
 -1      1339 3.07265E+00
 -1      1340 1.35141E+01
 -1      1341 1.08569E+01
 -1      1342 8.64697E+00
 -1      1343 1.35141E+01
 -1      1344 8.33713E+00
 -1      1345 4.07467E+00
 -1      1346 3.48281E+00
 -1      1347 2.89095E+00
 -1      1348 3.48281E+00
 -1      1349 2.34314E+00
 -1      1350 1.79533E+00
 -1      1351 2.34314E+00
 -1      1352 1.52422E+00
 -1      1353 1.25311E+00
 -1      1354 1.52422E+00
 -1      1355 1.04703E+00
 -1      1356 8.57713E-01
 -1      1357 1.04703E+00
 -1      1358 8.74479E-01
 -1      1359 8.74479E-01
 -1      1360 8.57713E-01
 -1      1361 8.66566E-01
 -1      1362 9.95732E-01
 -1      1363 8.66566E-01
 -1      1364 1.13281E+00
 -1      1365 1.25182E+00
 -1      1366 9.95732E-01
 -1      1367 1.37084E+00
 -1      1368 1.38133E+00
 -1      1369 1.25182E+00
 -1      1370 1.39183E+00
 -1      1371 1.39610E+00
 -1      1372 1.38133E+00
 -1      1373 1.40036E+00
 -1      1374 1.40036E+00
 -1      1375 1.39610E+00
 -1      1376 1.33200E+00
 -1      1377 1.54953E+00
 -1      1378 1.33200E+00
 -1      1379 1.85079E+00
 -1      1380 2.48357E+00
 -1      1381 1.56491E+00
 -1      1382 3.10097E+00
 -1      1383 3.67974E+00
 -1      1384 2.48357E+00
 -1      1385 4.25851E+00
 -1      1386 4.25851E+00
 -1      1387 3.67974E+00
 -1      1388 4.24485E+00
 -1      1389 4.23120E+00
 -1      1390 4.24485E+00
 -1      1391 4.22846E+00
 -1      1392 4.22573E+00
 -1      1393 4.22846E+00
 -1      1394 3.59859E+00
 -1      1395 2.97145E+00
 -1      1396 3.59859E+00
 -1      1397 2.42013E+00
 -1      1398 1.86881E+00
 -1      1399 2.42013E+00
 -1      1400 1.60990E+00
 -1      1401 1.43395E+00
 -1      1402 1.60990E+00
 -1      1403 1.51691E+00
 -1      1404 1.51691E+00
 -1      1405 1.43395E+00
 -1      1406 1.48530E+00
 -1      1407 1.45532E+00
 -1      1408 1.48530E+00
 -1      1409 1.45695E+00
 -1      1410 1.45695E+00
 -1      1411 1.45532E+00
 -1      1412 1.37010E+00
 -1      1413 1.28326E+00
 -1      1414 1.37010E+00
 -1      1415 1.17153E+00
 -1      1416 1.05092E+00
 -1      1417 1.17153E+00
 -1      1418 9.73538E-01
 -1      1419 8.69268E-01
 -1      1420 9.82409E-01
 -1      1421 8.03080E-01
 -1      1422 7.09724E-01
 -1      1423 8.38836E-01
 -1      1424 6.36730E-01
 -1      1425 5.80344E-01
 -1      1426 6.99654E-01
 -1      1427 5.10664E-01
 -1      1428 4.65180E-01
 -1      1429 5.56981E-01
 -1      1430 4.04051E-01
 -1      1431 3.60231E-01
 -1      1432 4.26172E-01
 -1      1433 3.16257E-01
 -1      1434 2.77095E-01
 -1      1435 3.21069E-01
 -1      1436 2.46693E-01
 -1      1437 2.13410E-01
 -1      1438 2.46693E-01
 -1      1439 1.88166E-01
 -1      1440 1.60907E-01
 -1      1441 1.91047E-01
 -1      1442 1.40125E-01
 -1      1443 1.19290E-01
 -1      1444 1.45020E-01
 -1      1445 1.04895E-01
 -1      1446 9.54488E-02
 -1      1447 1.09843E-01
 -1      1448 8.66357E-02
 -1      1449 7.78225E-02
 -1      1450 8.66357E-02
 -1      1451 6.99660E-02
 -1      1452 6.21094E-02
 -1      1453 6.99660E-02
 -1      1454 5.53307E-02
 -1      1455 4.85521E-02
 -1      1456 5.53307E-02
 -1      1457 4.28458E-02
 -1      1458 3.71396E-02
 -1      1459 4.28458E-02
 -1      1460 3.26036E-02
 -1      1461 2.78896E-02
 -1      1462 3.26036E-02
 -1      1463 2.47069E-02
 -1      1464 2.17022E-02
 -1      1465 2.48849E-02
 -1      1466 1.96903E-02
 -1      1467 1.76784E-02
 -1      1468 1.96903E-02
 -1      1469 1.57785E-02
 -1      1470 1.38786E-02
 -1      1471 1.57785E-02
 -1      1472 1.21090E-02
 -1      1473 1.03393E-02
 -1      1474 1.21090E-02
 -1      1475 8.92815E-03
 -1      1476 7.30285E-03
 -1      1477 8.92815E-03
 -1      1478 6.19462E-03
 -1      1479 5.30054E-03
 -1      1480 6.40877E-03
 -1      1481 4.85888E-03
 -1      1482 4.41722E-03
 -1      1483 4.85888E-03
 -1      1484 3.72888E-03
 -1      1485 3.04054E-03
 -1      1486 3.72888E-03
 -1      1487 2.46799E-03
 -1      1488 2.46799E-03
 -1      1489 3.27562E+00
 -1      1490 8.39488E+00
 -1      1491 8.39488E+00
 -1      1492 2.17893E+00
 -1      1493 2.72728E+00
 -1      1494 2.72728E+00
 -1      1495 1.52956E+00
 -1      1496 1.85425E+00
 -1      1497 1.85425E+00
 -1      1498 1.24737E+00
 -1      1499 1.38847E+00
 -1      1500 1.38847E+00
 -1      1501 9.79502E-01
 -1      1502 1.11344E+00
 -1      1503 1.11344E+00
 -1      1504 7.74812E-01
 -1      1505 8.77157E-01
 -1      1506 8.77157E-01
 -1      1507 7.35769E-01
 -1      1508 7.55291E-01
 -1      1509 7.55291E-01
 -1      1510 7.81321E-01
 -1      1511 7.12764E-01
 -1      1512 7.12764E-01
 -1      1513 9.09149E-01
 -1      1514 8.72883E-01
 -1      1515 7.81321E-01
 -1      1516 1.09025E+00
 -1      1517 9.45414E-01
 -1      1518 9.09149E-01
 -1      1519 1.25060E+00
 -1      1520 1.23509E+00
 -1      1521 1.09025E+00
 -1      1522 1.44334E+00
 -1      1523 1.26611E+00
 -1      1524 1.25060E+00
 -1      1525 1.82991E+00
 -1      1526 1.62058E+00
 -1      1527 1.44334E+00
 -1      1528 2.55968E+00
 -1      1529 2.08575E+00
 -1      1530 1.87641E+00
 -1      1531 3.13158E+00
 -1      1532 2.98711E+00
 -1      1533 2.55968E+00
 -1      1534 3.47799E+00
 -1      1535 3.27606E+00
 -1      1536 3.13158E+00
 -1      1537 3.67993E+00
 -1      1538 3.67993E+00
 -1      1539 3.47799E+00
 -1      1540 3.01473E+00
 -1      1541 3.34733E+00
 -1      1542 3.34733E+00
 -1      1543 1.82610E+00
 -1      1544 2.42041E+00
 -1      1545 2.42041E+00
 -1      1546 1.22434E+00
 -1      1547 1.52522E+00
 -1      1548 1.52522E+00
 -1      1549 9.90344E-01
 -1      1550 1.09446E+00
 -1      1551 1.09446E+00
 -1      1552 1.10037E+00
 -1      1553 1.01610E+00
 -1      1554 9.90344E-01
 -1      1555 1.18463E+00
 -1      1556 1.18463E+00
 -1      1557 1.10037E+00
 -1      1558 1.18297E+00
 -1      1559 1.18380E+00
 -1      1560 1.18380E+00
 -1      1561 1.06285E+00
 -1      1562 1.12291E+00
 -1      1563 1.12291E+00
 -1      1564 8.97830E-01
 -1      1565 9.80341E-01
 -1      1566 9.80341E-01
 -1      1567 7.49304E-01
 -1      1568 8.23811E-01
 -1      1569 8.23811E-01
 -1      1570 6.06130E-01
 -1      1571 6.82214E-01
 -1      1572 6.82702E-01
 -1      1573 4.71078E-01
 -1      1574 5.40985E-01
 -1      1575 5.50468E-01
 -1      1576 3.52890E-01
 -1      1577 4.12877E-01
 -1      1578 4.27123E-01
 -1      1579 2.67937E-01
 -1      1580 3.03803E-01
 -1      1581 3.19835E-01
 -1      1582 2.03906E-01
 -1      1583 2.34516E-01
 -1      1584 2.37327E-01
 -1      1585 1.52647E-01
 -1      1586 1.78277E-01
 -1      1587 1.78277E-01
 -1      1588 1.11577E-01
 -1      1589 1.32310E-01
 -1      1590 1.32310E-01
 -1      1591 7.99793E-02
 -1      1592 9.62758E-02
 -1      1593 9.66707E-02
 -1      1594 5.55257E-02
 -1      1595 6.80135E-02
 -1      1596 6.94036E-02
 -1      1597 4.39530E-02
 -1      1598 4.87833E-02
 -1      1599 5.06954E-02
 -1      1600 3.61856E-02
 -1      1601 4.00693E-02
 -1      1602 4.00693E-02
 -1      1603 2.90875E-02
 -1      1604 3.26365E-02
 -1      1605 3.26365E-02
 -1      1606 2.28246E-02
 -1      1607 2.59560E-02
 -1      1608 2.59560E-02
 -1      1609 1.89511E-02
 -1      1610 2.08878E-02
 -1      1611 2.08878E-02
 -1      1612 1.65856E-02
 -1      1613 1.77684E-02
 -1      1614 1.77684E-02
 -1      1615 1.39425E-02
 -1      1616 1.52641E-02
 -1      1617 1.52641E-02
 -1      1618 1.11793E-02
 -1      1619 1.25609E-02
 -1      1620 1.25609E-02
 -1      1621 8.35078E-03
 -1      1622 9.76504E-03
 -1      1623 9.76504E-03
 -1      1624 5.91121E-03
 -1      1625 7.13099E-03
 -1      1626 7.13099E-03
 -1      1627 4.34542E-03
 -1      1628 5.12831E-03
 -1      1629 5.12831E-03
 -1      1630 2.52976E-03
 -1      1631 3.43759E-03
 -1      1632 3.43759E-03
 -1      1633 1.85475E-03
 -1      1634 1.07284E-03
 -1      1635 1.14139E-03
 -1      1636 7.85730E-04
 -1      1637 1.02896E-03
 -1      1638 1.05918E-03
 -1      1639 4.90119E-04
 -1      1640 6.04174E-04
 -1      1641 8.33748E-04
 -1      1642 7.03717E-04
 -1      1643 6.03569E-04
 -1      1644 7.65643E-04
 -1      1645 8.72792E-04
 -1      1646 8.16787E-04
 -1      1647 9.92163E-04
 -1      1648 9.53470E-04
 -1      1649 9.28042E-04
 -1      1650 1.16048E-03
 -1      1651 9.77838E-04
 -1      1652 9.72526E-04
 -1      1653 1.23479E-03
 -1      1654 9.77941E-04
 -1      1655 9.77941E-04
 -1      1656 1.25395E-03
 -1      1657 9.73040E-04
 -1      1658 9.77941E-04
 -1      1659 1.25405E-03
 -1      1660 9.25111E-04
 -1      1661 9.53059E-04
 -1      1662 1.23407E-03
 -1      1663 8.18944E-04
 -1      1664 8.72333E-04
 -1      1665 1.16131E-03
 -1      1666 6.08864E-04
 -1      1667 7.09931E-04
 -1      1668 9.99523E-04
 -1      1669 6.22617E-04
 -1      1670 4.98988E-04
 -1      1671 7.80635E-04
 -1      1672 1.02682E-03
 -1      1673 6.22617E-04
 -1      1674 6.70760E-04
 -1      1675 1.85362E-03
 -1      1676 1.59734E-03
 -1      1677 1.24128E-03
 -1      1678 2.42617E-03
 -1      1679 2.70586E+01
 -1      1680 2.64304E+01
 -1      1681 3.66571E+01
 -1      1682 2.59307E+01
 -1      1683 4.66407E+01
 -1      1684 4.66407E+01
 -1      1685 1.92677E+01
 -1      1686 3.31389E+01
 -1      1687 1.13374E+01
 -1      1688 1.48249E+01
 -1      1689 1.20725E+01
 -1      1690 1.19234E+01
 -1      1691 1.22216E+01
 -1      1692 1.22216E+01
 -1      1693 1.18063E+01
 -1      1694 1.19416E+01
 -1      1695 1.19511E+01
 -1      1696 1.19511E+01
 -1      1697 1.24637E+01
 -1      1698 1.16626E+01
 -1      1699 2.31250E+01
 -1      1700 1.35532E+01
 -1      1701 3.27911E+01
 -1      1702 3.27439E+01
 -1      1703 3.01021E+01
 -1      1704 3.27911E+01
 -1      1705 2.54577E+01
 -1      1706 2.64525E+01
 -1      1707 2.63288E+01
 -1      1708 2.69569E+01
 -1      1709 2.66667E+01
 -1      1710 2.63288E+01
 -1      1711 3.78645E+01
 -1      1712 3.04857E+01
 -1      1713 3.96008E+01
 -1      1714 3.96008E+01
 -1      1715 1.52050E+01
 -1      1716 2.78383E+01
 -1      1717 1.29163E+01
 -1      1718 1.36253E+01
 -1      1719 1.44961E+01
 -1      1720 1.24396E+01
 -1      1721 1.26780E+01
 -1      1722 1.22486E+01
 -1      1723 1.21334E+01
 -1      1724 1.26700E+01
 -1      1725 1.26700E+01
 -1      1726 1.20787E+01
 -1      1727 1.23744E+01
 -1      1728 1.61322E+01
 -1      1729 1.16686E+01
 -1      1730 3.58086E+01
 -1      1731 2.21498E+01
 -1      1732 4.83235E+01
 -1      1733 4.83235E+01
 -1      1734 2.64091E+01
 -1      1735 3.78823E+01
 -1      1736 2.64304E+01
 -1      1737 2.71531E+01
 -1      1738 1.51943E+01
 -1      1739 3.31389E+01
 -1      1740 1.85475E-03
 -1      1741 1.81641E-03
 -1      1742 2.78014E+01
 -1      1743 3.66571E+01
 -1      1744 2.89293E+01
 -1      1745 1.13374E+01
 -1      1746 1.20725E+01
 -1      1747 1.19416E+01
 -1      1748 1.18063E+01
 -1      1749 1.16626E+01
 -1      1750 1.24637E+01
 -1      1751 2.31722E+01
 -1      1752 3.27911E+01
 -1      1753 2.91415E+01
 -1      1754 2.69910E+01
 -1      1755 2.84902E+01
 -1      1756 3.23092E+01
 -1      1757 3.78645E+01
 -1      1758 2.78383E+01
 -1      1759 1.21334E+01
 -1      1760 1.22486E+01
 -1      1761 1.23744E+01
 -1      1762 1.16686E+01
 -1      1763 1.72761E+01
 -1      1764 3.58086E+01
 -1      1765 3.78823E+01
 -1      1766 2.81853E+01
 -1      1767 9.19395E+00
 -1      1768 1.26780E+01
 -1      1769 1.41745E+00
 -1      1770 1.78859E+00
 -1      1771 2.39135E+00
 -1      1772 4.09686E+00
 -1      1773 1.80265E+00
 -1      1774 9.33078E-01
 -1      1775 1.06135E+00
 -1      1776 7.57894E-01
 -1      1777 8.53968E-01
 -1      1778 7.97968E-01
 -1      1779 6.18793E-01
 -1      1780 6.93573E-01
 -1      1781 6.54538E-01
 -1      1782 5.14354E-01
 -1      1783 5.63437E-01
 -1      1784 5.34863E-01
 -1      1785 5.78423E-01
 -1      1786 5.22152E-01
 -1      1787 4.87305E-01
 -1      1788 7.06171E-01
 -1      1789 6.32820E-01
 -1      1790 5.49500E-01
 -1      1791 8.72176E-01
 -1      1792 7.73311E-01
 -1      1793 6.71037E-01
 -1      1794 1.07620E+00
 -1      1795 9.46571E-01
 -1      1796 8.12573E-01
 -1      1797 1.35640E+00
 -1      1798 1.16138E+00
 -1      1799 9.72151E-01
 -1      1800 1.83167E+00
 -1      1801 1.47666E+00
 -1      1802 1.17759E+00
 -1      1803 2.59317E+00
 -1      1804 1.88601E+00
 -1      1805 1.35219E+00
 -1      1806 7.70377E+00
 -1      1807 2.83661E+00
 -1      1808 1.64997E+00
 -1      1809 2.58452E+00
 -1      1810 4.93149E+00
 -1      1811 1.85229E+00
 -1      1812 2.40064E+00
 -1      1813 1.70953E+00
 -1      1814 1.05569E+01
 -1      1815 1.07953E+01
 -1      1816 3.24005E+00
 -1      1817 2.08158E+00
 -1      1818 1.53376E+00
 -1      1819 1.26067E+00
 -1      1820 9.89560E-01
 -1      1821 9.99103E-01
 -1      1822 8.91768E-01
 -1      1823 6.85684E-01
 -1      1824 6.28215E-01
 -1      1825 7.07842E-01
 -1      1826 7.24608E-01
 -1      1827 5.52580E-01
 -1      1828 7.71353E-01
 -1      1829 7.63440E-01
 -1      1830 6.21482E-01
 -1      1831 8.22761E-01
 -1      1832 9.59840E-01
 -1      1833 7.27548E-01
 -1      1834 1.04217E+00
 -1      1835 1.16118E+00
 -1      1836 8.69194E-01
 -1      1837 1.16332E+00
 -1      1838 1.17382E+00
 -1      1839 9.53666E-01
 -1      1840 1.14399E+00
 -1      1841 1.14825E+00
 -1      1842 9.25980E-01
 -1      1843 1.19955E+00
 -1      1844 1.13119E+00
 -1      1845 9.47444E-01
 -1      1846 1.30276E+00
 -1      1847 1.60402E+00
 -1      1848 1.17030E+00
 -1      1849 1.87642E+00
 -1      1850 2.49382E+00
 -1      1851 1.61427E+00
 -1      1852 2.78206E+00
 -1      1853 3.36083E+00
 -1      1854 2.17491E+00
 -1      1855 3.41488E+00
 -1      1856 3.40122E+00
 -1      1857 2.51720E+00
 -1      1858 3.42385E+00
 -1      1859 3.42112E+00
 -1      1860 2.59387E+00
 -1      1861 3.33156E+00
 -1      1862 2.70442E+00
 -1      1863 2.52695E+00
 -1      1864 2.40621E+00
 -1      1865 1.85489E+00
 -1      1866 2.13919E+00
 -1      1867 1.53903E+00
 -1      1868 1.28011E+00
 -1      1869 1.52511E+00
 -1      1870 1.16911E+00
 -1      1871 1.25207E+00
 -1      1872 1.09824E+00
 -1      1873 1.20932E+00
 -1      1874 1.17772E+00
 -1      1875 9.44488E-01
 -1      1876 1.27151E+00
 -1      1877 1.27314E+00
 -1      1878 9.95536E-01
 -1      1879 1.29318E+00
 -1      1880 1.20634E+00
 -1      1881 1.10937E+00
 -1      1882 1.16097E+00
 -1      1883 1.04923E+00
 -1      1884 1.08404E+00
 -1      1885 9.93279E-01
 -1      1886 9.15896E-01
 -1      1887 9.82721E-01
 -1      1888 8.66754E-01
 -1      1889 8.00566E-01
 -1      1890 8.77625E-01
 -1      1891 7.38630E-01
 -1      1892 6.65636E-01
 -1      1893 7.66548E-01
 -1      1894 6.00337E-01
 -1      1895 5.30658E-01
 -1      1896 6.39313E-01
 -1      1897 4.69321E-01
 -1      1898 4.08192E-01
 -1      1899 5.12678E-01
 -1      1900 3.54532E-01
 -1      1901 3.10559E-01
 -1      1902 3.97682E-01
 -1      1903 2.65878E-01
 -1      1904 2.35476E-01
 -1      1905 2.99341E-01
 -1      1906 1.99642E-01
 -1      1907 1.74397E-01
 -1      1908 2.18826E-01
 -1      1909 1.46532E-01
 -1      1910 1.25750E-01
 -1      1911 1.55127E-01
 -1      1912 1.07591E-01
 -1      1913 9.31959E-02
 -1      1914 1.09103E-01
 -1      1915 8.02607E-02
 -1      1916 7.14476E-02
 -1      1917 7.80078E-02
 -1      1918 6.26338E-02
 -1      1919 5.47773E-02
 -1      1920 5.62589E-02
 -1      1921 5.04699E-02
 -1      1922 4.36912E-02
 -1      1923 4.31377E-02
 -1      1924 4.01126E-02
 -1      1925 3.44064E-02
 -1      1926 3.52518E-02
 -1      1927 3.11628E-02
 -1      1928 2.66268E-02
 -1      1929 2.84296E-02
 -1      1930 2.37718E-02
 -1      1931 2.05891E-02
 -1      1932 2.23310E-02
 -1      1933 1.81272E-02
 -1      1934 1.61153E-02
 -1      1935 1.70141E-02
 -1      1936 1.48204E-02
 -1      1937 1.29206E-02
 -1      1938 1.32574E-02
 -1      1939 1.17430E-02
 -1      1940 9.97338E-03
 -1      1941 1.07850E-02
 -1      1942 8.78264E-03
 -1      1943 7.37149E-03
 -1      1944 8.41672E-03
 -1      1945 6.36994E-03
 -1      1946 5.26172E-03
 -1      1947 6.22444E-03
 -1      1948 4.41931E-03
 -1      1949 3.97765E-03
 -1      1950 4.38049E-03
 -1      1951 3.55341E-03
 -1      1952 2.86507E-03
 -1      1953 2.25070E-03
 -1      1954 3.11384E-03
 -1      1955 1.19877E+00
 -1      1956 1.52345E+00
 -1      1957 1.19681E+00
 -1      1958 9.52676E-01
 -1      1959 1.09377E+00
 -1      1960 7.62974E-01
 -1      1961 7.80013E-01
 -1      1962 9.13947E-01
 -1      1963 6.19252E-01
 -1      1964 6.70363E-01
 -1      1965 7.72708E-01
 -1      1966 5.73218E-01
 -1      1967 6.68934E-01
 -1      1968 6.88455E-01
 -1      1969 5.84006E-01
 -1      1970 6.60417E-01
 -1      1971 6.83423E-01
 -1      1972 6.16587E-01
 -1      1973 7.51980E-01
 -1      1974 6.60417E-01
 -1      1975 6.31076E-01
 -1      1976 7.37091E-01
 -1      1977 7.00826E-01
 -1      1978 5.79922E-01
 -1      1979 8.99674E-01
 -1      1980 7.54835E-01
 -1      1981 5.46512E-01
 -1      1982 1.15482E+00
 -1      1983 1.13931E+00
 -1      1984 8.03893E-01
 -1      1985 1.62908E+00
 -1      1986 1.45184E+00
 -1      1987 1.34055E+00
 -1      1988 2.00931E+00
 -1      1989 1.75348E+00
 -1      1990 1.76197E+00
 -1      1991 2.43674E+00
 -1      1992 2.00931E+00
 -1      1993 1.88637E+00
 -1      1994 2.57940E+00
 -1      1995 2.43492E+00
 -1      1996 1.88456E+00
 -1      1997 2.92036E+00
 -1      1998 2.71842E+00
 -1      1999 2.02176E+00
 -1      2000 2.51261E+00
 -1      2001 2.84521E+00
 -1      2002 2.08564E+00
 -1      2003 1.60218E+00
 -1      2004 2.19650E+00
 -1      2005 1.69438E+00
 -1      2006 1.03074E+00
 -1      2007 1.33162E+00
 -1      2008 1.10771E+00
 -1      2009 7.46553E-01
 -1      2010 8.76429E-01
 -1      2011 6.82830E-01
 -1      2012 8.91396E-01
 -1      2013 8.65638E-01
 -1      2014 6.47605E-01
 -1      2015 1.01766E+00
 -1      2016 9.33393E-01
 -1      2017 8.08686E-01
 -1      2018 1.03418E+00
 -1      2019 1.03502E+00
 -1      2020 8.68043E-01
 -1      2021 9.57297E-01
 -1      2022 1.01735E+00
 -1      2023 8.68573E-01
 -1      2024 8.31109E-01
 -1      2025 9.13619E-01
 -1      2026 8.08065E-01
 -1      2027 7.13920E-01
 -1      2028 7.87940E-01
 -1      2029 7.21218E-01
 -1      2030 5.93114E-01
 -1      2031 6.60204E-01
 -1      2032 6.24333E-01
 -1      2033 4.72850E-01
 -1      2034 5.37994E-01
 -1      2035 5.15496E-01
 -1      2036 3.63589E-01
 -1      2037 4.21790E-01
 -1      2038 4.09316E-01
 -1      2039 2.70230E-01
 -1      2040 3.19317E-01
 -1      2041 3.13984E-01
 -1      2042 2.00455E-01
 -1      2043 2.33876E-01
 -1      2044 2.33358E-01
 -1      2045 1.51384E-01
 -1      2046 1.77014E-01
 -1      2047 1.73563E-01
 -1      2048 1.11972E-01
 -1      2049 1.32310E-01
 -1      2050 1.31047E-01
 -1      2051 8.13694E-02
 -1      2052 9.66707E-02
 -1      2053 9.66707E-02
 -1      2054 5.74378E-02
 -1      2055 6.94036E-02
 -1      2056 6.94036E-02
 -1      2057 4.15524E-02
 -1      2058 4.82948E-02
 -1      2059 4.82948E-02
 -1      2060 3.18970E-02
 -1      2061 3.57807E-02
 -1      2062 3.33801E-02
 -1      2063 2.63241E-02
 -1      2064 2.98731E-02
 -1      2065 2.55845E-02
 -1      2066 2.11415E-02
 -1      2067 2.42729E-02
 -1      2068 2.15095E-02
 -1      2069 1.72486E-02
 -1      2070 1.91853E-02
 -1      2071 1.75022E-02
 -1      2072 1.42718E-02
 -1      2073 1.54546E-02
 -1      2074 1.37520E-02
 -1      2075 1.16711E-02
 -1      2076 1.29927E-02
 -1      2077 1.06789E-02
 -1      2078 9.58007E-03
 -1      2079 1.09617E-02
 -1      2080 8.69031E-03
 -1      2081 7.33197E-03
 -1      2082 8.74623E-03
 -1      2083 7.14701E-03
 -1      2084 5.42296E-03
 -1      2085 6.64274E-03
 -1      2086 5.62393E-03
 -1      2087 3.93340E-03
 -1      2088 4.71629E-03
 -1      2089 4.22804E-03
 -1      2090 2.50434E-03
 -1      2091 3.41216E-03
 -1      2092 3.00015E-03
 -1      2093 1.79098E-03
 -1      2094 1.04347E-03
 -1      2095 9.30023E-04
 -1      2096 1.32001E-03
 -1      2097 1.50157E-03
 -1      2098 1.59784E-03
 -1      2099 1.50157E-03
 -1      2100 1.54544E-03
 -1      2101 2.23337E-03
 -1      2102 1.98783E-03
 -1      2103 1.27274E-03
 -1      2104 1.15967E-03
 -1      2105 1.32405E-03
 -1      2106 1.38621E-03
 -1      2107 1.33096E-03
 -1      2108 1.49846E-03
 -1      2109 1.42083E-03
 -1      2110 1.40177E-03
 -1      2111 1.57225E-03
 -1      2112 1.42094E-03
 -1      2113 1.42083E-03
 -1      2114 1.58782E-03
 -1      2115 1.42039E-03
 -1      2116 1.42039E-03
 -1      2117 1.58727E-03
 -1      2118 1.40041E-03
 -1      2119 1.42039E-03
 -1      2120 1.58672E-03
 -1      2121 1.33543E-03
 -1      2122 1.38820E-03
 -1      2123 1.57452E-03
 -1      2124 1.17014E-03
 -1      2125 1.27916E-03
 -1      2126 1.50605E-03
 -1      2127 9.36735E-04
 -1      2128 1.04661E-03
 -1      2129 1.32624E-03
 -1      2130 1.40591E-03
 -1      2131 1.40591E-03
 -1      2132 1.67189E-03
 -1      2133 3.66571E+01
 -1      2134 2.66734E+01
 -1      2135 3.03342E+01
 -1      2136 3.03342E+01
 -1      2137 2.77822E+01
 -1      2138 2.89101E+01
 -1      2139 3.03150E+01
 -1      2140 1.79145E+01
 -1      2141 3.14163E+01
 -1      2142 1.08100E+01
 -1      2143 1.23897E+01
 -1      2144 1.20886E+01
 -1      2145 1.16672E+01
 -1      2146 9.64998E+00
 -1      2147 1.40928E+01
 -1      2148 1.20735E+00
 -1      2149 1.40205E+00
 -1      2150 1.18448E+00
 -1      2151 1.02308E+00
 -1      2152 1.08491E+01
 -1      2153 1.07000E+01
 -1      2154 1.11816E+01
 -1      2155 1.14617E+01
 -1      2156 1.10362E+01
 -1      2157 1.08914E+01
 -1      2158 1.01730E+01
 -1      2159 1.04615E+01
 -1      2160 1.05416E+01
 -1      2161 9.45211E+00
 -1      2162 2.26922E+01
 -1      2163 1.30732E+01
 -1      2164 2.73827E+01
 -1      2165 2.73827E+01
 -1      2166 2.21312E+01
 -1      2167 2.57809E+01
 -1      2168 3.21462E+01
 -1      2169 3.06470E+01
 -1      2170 3.21462E+01
 -1      2171 3.21462E+01
 -1      2172 2.85908E+01
 -1      2173 2.47718E+01
 -1      2174 3.19052E+01
 -1      2175 3.01689E+01
 -1      2176 1.46379E+01
 -1      2177 2.64004E+01
 -1      2178 1.87048E+01
 -1      2179 1.13643E+01
 -1      2180 1.16705E+01
 -1      2181 1.12043E+01
 -1      2182 1.10209E+01
 -1      2183 1.13166E+01
 -1      2184 9.59564E+00
 -1      2185 1.00058E+01
 -1      2186 1.65167E+01
 -1      2187 1.04991E+01
 -1      2188 3.29286E+01
 -1      2189 2.04137E+01
 -1      2190 2.74412E+01
 -1      2191 3.78823E+01
 -1      2192 2.24875E+01
 -1      2193 3.03342E+01
 -1      2194 2.95902E+01
 -1      2195 3.17392E+01
 -1      2196 9.69928E+00
 -1      2197 9.11333E+00
 -1      2198 8.68898E+00
 -1      2199 9.78789E+00
 -1      2200 2.64819E+00
 -1      2201 1.83881E+00
 -1      2202 2.51567E+01
 -1      2203 2.62655E+01
 -1      2204 2.51567E+01
 -1      2205 2.14327E+01
 -1      2206 1.97643E-03
 -1      2207 8.01184E+00
 -1      2208 1.23702E+01
 -1      2209 1.09518E+01
 -1      2210 2.56994E+01
 -1      2211 2.56994E+01
 -1      2212 2.78484E+01
 -1      2213 1.63178E+01
 -1      2214 9.54079E+00
 -1      2215 1.34378E+01
 -1      2216 8.83627E+00
 -1      2217 2.26315E+01
 -1      2218 2.84278E+01
 -1      2219 3.58023E+01
 -1      2220 2.29912E+01
 -1      2221 1.96306E+01
 -1      2222 2.81464E+01
 -1      2223 2.03724E+01
 -1      2224 1.07352E+01
 -1      2225 1.72837E+01
 -1      2226 1.00617E+01
 -1      2227 8.25094E+00
 -1      2228 9.54656E+00
 -1      2229 1.04115E+01
 -1      2230 1.00891E+01
 -1      2231 8.94794E+00
 -1      2232 8.47586E+00
 -1      2233 8.66553E-01
 -1      2234 1.19540E+00
 -1      2235 5.50592E-01
 -1      2236 6.14912E-01
 -1      2237 6.60056E-01
 -1      2238 7.39166E-01
 -1      2239 5.56110E-01
 -1      2240 4.08635E-01
 -1      2241 4.00837E-01
 -1      2242 5.11677E-01
 -1      2243 4.57281E-01
 -1      2244 3.70813E-01
 -1      2245 6.31487E-01
 -1      2246 5.64347E-01
 -1      2247 4.72127E-01
 -1      2248 7.50029E-01
 -1      2249 6.75635E-01
 -1      2250 5.68944E-01
 -1      2251 8.76327E-01
 -1      2252 7.91143E-01
 -1      2253 6.54205E-01
 -1      2254 1.13955E+00
 -1      2255 1.01929E+00
 -1      2256 8.38279E-01
 -1      2257 1.02706E+00
 -1      2258 7.53968E-01
 -1      2259 8.54769E+00
 -1      2260 7.43414E+00
 -1      2261 5.64526E-01
 -1      2262 6.69520E-01
 -1      2263 6.68106E-01
 -1      2264 1.78725E+00
 -1      2265 1.22064E+00
 -1      2266 9.75503E-01
 -1      2267 1.18448E+00
 -1      2268 6.35017E-01
 -1      2269 5.37224E-01
 -1      2270 6.62977E-01
 -1      2271 5.44585E-01
 -1      2272 5.66743E-01
 -1      2273 5.51388E-01
 -1      2274 6.29520E-01
 -1      2275 6.76264E-01
 -1      2276 6.21525E-01
 -1      2277 7.36647E-01
 -1      2278 7.95968E-01
 -1      2279 7.44684E-01
 -1      2280 8.83722E-01
 -1      2281 9.66047E-01
 -1      2282 8.92821E-01
 -1      2283 1.05190E+00
 -1      2284 1.05405E+00
 -1      2285 1.06643E+00
 -1      2286 1.11584E+00
 -1      2287 1.08601E+00
 -1      2288 1.21408E+00
 -1      2289 1.20891E+00
 -1      2290 1.26020E+00
 -1      2291 1.39877E+00
 -1      2292 1.40494E+00
 -1      2293 1.57651E+00
 -1      2294 1.66641E+00
 -1      2295 1.74536E+00
 -1      2296 2.01776E+00
 -1      2297 1.98000E+00
 -1      2298 1.99130E+00
 -1      2299 2.27954E+00
 -1      2300 2.12239E+00
 -1      2301 2.79258E+00
 -1      2302 2.84662E+00
 -1      2303 2.60896E+00
 -1      2304 3.05381E+00
 -1      2305 3.07644E+00
 -1      2306 3.32919E+00
 -1      2307 2.86660E+00
 -1      2308 2.77705E+00
 -1      2309 3.32654E+00
 -1      2310 2.23199E+00
 -1      2311 1.93378E+00
 -1      2312 2.57164E+00
 -1      2313 1.86504E+00
 -1      2314 1.54918E+00
 -1      2315 1.95785E+00
 -1      2316 1.51047E+00
 -1      2317 1.39947E+00
 -1      2318 1.85040E+00
 -1      2319 1.22019E+00
 -1      2320 1.17745E+00
 -1      2321 1.63242E+00
 -1      2322 1.15087E+00
 -1      2323 1.24466E+00
 -1      2324 1.42657E+00
 -1      2325 1.18548E+00
 -1      2326 1.20552E+00
 -1      2327 1.34081E+00
 -1      2328 1.12528E+00
 -1      2329 1.07991E+00
 -1      2330 1.20138E+00
 -1      2331 1.01358E+00
 -1      2332 9.57621E-01
 -1      2333 1.05481E+00
 -1      2334 9.07223E-01
 -1      2335 8.58082E-01
 -1      2336 9.38078E-01
 -1      2337 7.94815E-01
 -1      2338 7.32879E-01
 -1      2339 8.24414E-01
 -1      2340 6.67003E-01
 -1      2341 6.01704E-01
 -1      2342 6.95270E-01
 -1      2343 5.39564E-01
 -1      2344 4.78227E-01
 -1      2345 5.67253E-01
 -1      2346 4.23167E-01
 -1      2347 3.69508E-01
 -1      2348 4.50053E-01
 -1      2349 3.22821E-01
 -1      2350 2.78140E-01
 -1      2351 3.48306E-01
 -1      2352 2.39857E-01
 -1      2353 2.04023E-01
 -1      2354 2.63337E-01
 -1      2355 1.73481E-01
 -1      2356 1.45616E-01
 -1      2357 1.94513E-01
 -1      2358 1.21825E-01
 -1      2359 1.03666E-01
 -1      2360 1.40180E-01
 -1      2361 8.55389E-02
 -1      2362 7.26037E-02
 -1      2363 9.82615E-02
 -1      2364 5.90931E-02
 -1      2365 5.02794E-02
 -1      2366 6.66242E-02
 -1      2367 4.05912E-02
 -1      2368 3.62838E-02
 -1      2369 4.34255E-02
 -1      2370 3.10509E-02
 -1      2371 2.74723E-02
 -1      2372 2.85044E-02
 -1      2373 2.52548E-02
 -1      2374 2.20112E-02
 -1      2375 2.10539E-02
 -1      2376 2.06205E-02
 -1      2377 1.77655E-02
 -1      2378 1.74457E-02
 -1      2379 1.63199E-02
 -1      2380 1.38581E-02
 -1      2381 1.46095E-02
 -1      2382 1.24542E-02
 -1      2383 1.11593E-02
 -1      2384 1.17600E-02
 -1      2385 9.85581E-03
 -1      2386 8.67830E-03
 -1      2387 9.05265E-03
 -1      2388 7.96684E-03
 -1      2389 6.77610E-03
 -1      2390 7.03767E-03
 -1      2391 6.02730E-03
 -1      2392 5.02576E-03
 -1      2393 5.57742E-03
 -1      2394 4.36186E-03
 -1      2395 3.51946E-03
 -1      2396 4.16473E-03
 -1      2397 5.37019E-01
 -1      2398 5.44324E-01
 -1      2399 6.08254E-01
 -1      2400 5.90162E-01
 -1      2401 5.61268E-01
 -1      2402 6.71985E-01
 -1      2403 6.57496E-01
 -1      2404 6.63653E-01
 -1      2405 7.00858E-01
 -1      2406 7.00858E-01
 -1      2407 7.41767E-01
 -1      2408 6.65304E-01
 -1      2409 7.16459E-01
 -1      2410 7.86241E-01
 -1      2411 7.83173E-01
 -1      2412 7.65428E-01
 -1      2413 9.01965E-01
 -1      2414 1.06415E+00
 -1      2415 8.24512E-01
 -1      2416 1.04343E+00
 -1      2417 1.53989E+00
 -1      2418 1.24287E+00
 -1      2419 1.26349E+00
 -1      2420 1.80003E+00
 -1      2421 1.67563E+00
 -1      2422 1.57795E+00
 -1      2423 2.08119E+00
 -1      2424 2.08119E+00
 -1      2425 1.99485E+00
 -1      2426 2.04274E+00
 -1      2427 2.04455E+00
 -1      2428 2.23937E+00
 -1      2429 2.23086E+00
 -1      2430 2.09184E+00
 -1      2431 2.25184E+00
 -1      2432 1.91226E+00
 -1      2433 1.98741E+00
 -1      2434 2.05748E+00
 -1      2435 1.44921E+00
 -1      2436 1.76532E+00
 -1      2437 1.66709E+00
 -1      2438 9.70796E-01
 -1      2439 1.24136E+00
 -1      2440 1.31230E+00
 -1      2441 7.79345E-01
 -1      2442 9.33653E-01
 -1      2443 1.06731E+00
 -1      2444 8.16915E-01
 -1      2445 6.97830E-01
 -1      2446 9.48654E-01
 -1      2447 8.85889E-01
 -1      2448 8.43892E-01
 -1      2449 8.94117E-01
 -1      2450 8.95717E-01
 -1      2451 8.78357E-01
 -1      2452 9.13563E-01
 -1      2453 8.41747E-01
 -1      2454 8.58578E-01
 -1      2455 8.68892E-01
 -1      2456 7.66405E-01
 -1      2457 8.10083E-01
 -1      2458 8.00088E-01
 -1      2459 6.83893E-01
 -1      2460 7.27062E-01
 -1      2461 7.29080E-01
 -1      2462 5.82239E-01
 -1      2463 6.35955E-01
 -1      2464 6.41799E-01
 -1      2465 4.75537E-01
 -1      2466 5.30657E-01
 -1      2467 5.42279E-01
 -1      2468 3.75017E-01
 -1      2469 4.26077E-01
 -1      2470 4.41237E-01
 -1      2471 2.86591E-01
 -1      2472 3.30863E-01
 -1      2473 3.47623E-01
 -1      2474 2.12745E-01
 -1      2475 2.49099E-01
 -1      2476 2.65978E-01
 -1      2477 1.58666E-01
 -1      2478 1.82108E-01
 -1      2479 1.97848E-01
 -1      2480 1.15334E-01
 -1      2481 1.34409E-01
 -1      2482 1.42954E-01
 -1      2483 8.13574E-02
 -1      2484 9.66587E-02
 -1      2485 1.00021E-01
 -1      2486 5.55590E-02
 -1      2487 6.75248E-02
 -1      2488 6.75128E-02
 -1      2489 3.84843E-02
 -1      2490 4.76273E-02
 -1      2491 4.57485E-02
 -1      2492 2.76084E-02
 -1      2493 3.33801E-02
 -1      2494 3.27126E-02
 -1      2495 2.35606E-02
 -1      2496 2.55845E-02
 -1      2497 2.55845E-02
 -1      2498 1.94583E-02
 -1      2499 2.15095E-02
 -1      2500 2.15095E-02
 -1      2501 1.55460E-02
 -1      2502 1.75022E-02
 -1      2503 1.75022E-02
 -1      2504 1.19581E-02
 -1      2505 1.37520E-02
 -1      2506 1.37520E-02
 -1      2507 9.37988E-03
 -1      2508 1.06590E-02
 -1      2509 1.06590E-02
 -1      2510 7.80254E-03
 -1      2511 8.51201E-03
 -1      2512 8.49211E-03
 -1      2513 6.04620E-03
 -1      2514 6.88005E-03
 -1      2515 6.70174E-03
 -1      2516 4.56824E-03
 -1      2517 5.25746E-03
 -1      2518 4.99051E-03
 -1      2519 3.22828E-03
 -1      2520 3.93494E-03
 -1      2521 3.56847E-03
 -1      2522 2.75461E-03
 -1      2523 1.70174E-03
 -1      2524 1.64352E-03
 -1      2525 1.70275E-03
 -1      2526 1.68719E-03
 -1      2527 1.83224E-03
 -1      2528 1.91189E-03
 -1      2529 2.30188E-03
 -1      2530 1.68688E-03
 -1      2531 1.57069E-03
 -1      2532 2.27472E-03
 -1      2533 1.89016E-03
 -1      2534 1.69745E-03
 -1      2535 1.69745E-03
 -1      2536 1.81238E-03
 -1      2537 1.66352E-03
 -1      2538 1.66407E-03
 -1      2539 1.77370E-03
 -1      2540 1.69648E-03
 -1      2541 1.69648E-03
 -1      2542 1.77328E-03
 -1      2543 1.70199E-03
 -1      2544 1.71419E-03
 -1      2545 1.82395E-03
 -1      2546 1.64572E-03
 -1      2547 1.70199E-03
 -1      2548 1.84166E-03
 -1      2549 1.47587E-03
 -1      2550 1.59940E-03
 -1      2551 1.79534E-03
 -1      2552 1.91580E-03
 -1      2553 1.44663E-03
 -1      2554 1.71978E-03
 -1      2555 1.43028E+01
 -1      2556 1.95435E+01
 -1      2557 2.41533E-03
 -1      2558 6.27015E+00
 -1      2559 6.80681E+00
 -1      2560 5.03882E-01
 -1      2561 5.42610E-01
 -1      2562 4.67682E-01
 -1      2563 2.88909E+01
 -1      2564 3.03150E+01
 -1      2565 8.28205E+00
 -1      2566 1.05302E+01
 -1      2567 8.16753E+00
 -1      2568 1.19893E+01
 -1      2569 1.62636E+01
 -1      2570 1.15731E+01
 -1      2571 4.42978E-01
 -1      2572 4.98334E-01
 -1      2573 4.58707E-01
 -1      2574 3.64308E-01
 -1      2575 9.14566E+00
 -1      2576 8.53305E+00
 -1      2577 9.03014E+00
 -1      2578 9.32035E+00
 -1      2579 7.79932E+00
 -1      2580 8.37408E+00
 -1      2581 5.87677E+00
 -1      2582 6.59761E+00
 -1      2583 9.82654E+00
 -1      2584 7.29495E+00
 -1      2585 8.51233E+00
 -1      2586 9.28442E+00
 -1      2587 1.84217E+01
 -1      2588 2.00235E+01
 -1      2589 3.58023E+01
 -1      2590 3.58023E+01
 -1      2591 2.07069E+01
 -1      2592 2.80813E+01
 -1      2593 1.21890E+01
 -1      2594 1.76938E+01
 -1      2595 9.54722E+00
 -1      2596 9.24433E+00
 -1      2597 6.55431E+00
 -1      2598 7.56944E+00
 -1      2599 7.42794E+00
 -1      2600 6.42726E+00
 -1      2601 2.11424E+01
 -1      2602 1.95643E+01
 -1      2603 7.92413E+00
 -1      2604 7.02069E+00
 -1      2605 2.00593E+01
 -1      2606 1.51056E+01
 -1      2607 3.17392E+01
 -1      2608 3.17392E+01
 -1      2609 1.28731E+00
 -1      2610 1.47120E+00
 -1      2611 1.22775E+00
 -1      2612 9.57057E-01
 -1      2613 5.90715E+00
 -1      2614 5.92180E+00
 -1      2615 6.48446E+00
 -1      2616 8.85166E-01
 -1      2617 1.02308E+00
 -1      2618 1.16908E+00
 -1      2619 3.03150E+01
 -1      2620 1.17341E+00
 -1      2621 4.66695E+00
 -1      2622 1.46266E+01
 -1      2623 1.16908E+00
 -1      2624 5.64218E+00
 -1      2625 2.01733E+01
 -1      2626 1.86566E+01
 -1      2627 1.30434E+01
 -1      2628 6.42584E+00
 -1      2629 7.32441E+00
 -1      2630 2.46150E-03
 -1      2631 2.46150E-03
 -1      2632 9.51923E+00
 -1      2633 1.01001E+01
 -1      2634 2.46375E-03
 -1      2635 2.18948E-03
 -1      2636 1.96422E-03
 -1      2637 2.88799E-03
 -1      2638 1.92178E+01
 -1      2639 5.65702E+00
 -1      2640 4.45199E+00
 -1      2641 4.60910E+00
 -1      2642 4.49156E-01
 -1      2643 2.33748E+01
 -1      2644 2.33748E+01
 -1      2645 2.07494E+01
 -1      2646 2.80328E+01
 -1      2647 2.80328E+01
 -1      2648 2.03119E+01
 -1      2649 1.92816E+01
 -1      2650 2.47183E+01
 -1      2651 2.08275E+01
 -1      2652 2.47183E+01
 -1      2653 1.01511E+00
 -1      2654 2.08647E+01
 -1      2655 1.34828E+01
 -1      2656 1.91229E+01
 -1      2657 7.72521E+00
 -1      2658 1.10096E+01
 -1      2659 6.11871E+00
 -1      2660 8.80637E+00
 -1      2661 5.64162E+00
 -1      2662 5.42514E+00
 -1      2663 2.81464E+01
 -1      2664 1.43128E+01
 -1      2665 6.49832E+00
 -1      2666 6.07674E+00
 -1      2667 3.71648E+00
 -1      2668 6.89058E+00
 -1      2669 7.28289E+00
 -1      2670 2.86936E-03
 -1      2671 7.76426E+00
 -1      2672 2.77555E-03
 -1      2673 4.75354E-01
 -1      2674 4.22685E-01
 -1      2675 3.41187E-01
 -1      2676 2.92542E-01
 -1      2677 3.44414E-01
 -1      2678 6.53802E-01
 -1      2679 6.12688E-01
 -1      2680 8.20727E-01
 -1      2681 6.77766E-01
 -1      2682 6.36249E-01
 -1      2683 7.72736E-01
 -1      2684 6.53786E-01
 -1      2685 1.09028E+01
 -1      2686 1.43514E+01
 -1      2687 5.85981E-01
 -1      2688 7.83014E-01
 -1      2689 8.62791E-01
 -1      2690 8.33918E-01
 -1      2691 5.74139E-01
 -1      2692 5.81500E-01
 -1      2693 6.83898E-01
 -1      2694 6.34104E-01
 -1      2695 6.96881E-01
 -1      2696 6.56856E-01
 -1      2697 7.74065E-01
 -1      2698 8.34447E-01
 -1      2699 7.86644E-01
 -1      2700 9.23637E-01
 -1      2701 1.01139E+00
 -1      2702 9.53018E-01
 -1      2703 1.12686E+00
 -1      2704 1.21272E+00
 -1      2705 1.15768E+00
 -1      2706 1.39417E+00
 -1      2707 1.45596E+00
 -1      2708 1.45460E+00
 -1      2709 1.65181E+00
 -1      2710 1.77472E+00
 -1      2711 1.83191E+00
 -1      2712 1.94445E+00
 -1      2713 2.08918E+00
 -1      2714 2.19749E+00
 -1      2715 2.00169E+00
 -1      2716 2.17054E+00
 -1      2717 2.27972E+00
 -1      2718 2.14885E+00
 -1      2719 2.12239E+00
 -1      2720 2.17054E+00
 -1      2721 2.60896E+00
 -1      2722 3.12200E+00
 -1      2723 2.63542E+00
 -1      2724 3.32919E+00
 -1      2725 3.53638E+00
 -1      2726 3.32919E+00
 -1      2727 3.54115E+00
 -1      2728 3.33131E+00
 -1      2729 3.54115E+00
 -1      2730 3.11669E+00
 -1      2731 2.57164E+00
 -1      2732 3.33131E+00
 -1      2733 2.26914E+00
 -1      2734 2.20041E+00
 -1      2735 2.81420E+00
 -1      2736 2.32903E+00
 -1      2737 2.29032E+00
 -1      2738 2.64033E+00
 -1      2739 2.03666E+00
 -1      2740 1.85739E+00
 -1      2741 2.51529E+00
 -1      2742 1.65692E+00
 -1      2743 1.63034E+00
 -1      2744 2.06116E+00
 -1      2745 1.44652E+00
 -1      2746 1.38733E+00
 -1      2747 1.67687E+00
 -1      2748 1.28163E+00
 -1      2749 1.20138E+00
 -1      2750 1.38733E+00
 -1      2751 1.12114E+00
 -1      2752 1.05481E+00
 -1      2753 1.20138E+00
 -1      2754 9.76605E-01
 -1      2755 9.26208E-01
 -1      2756 1.04294E+00
 -1      2757 8.46658E-01
 -1      2758 7.83391E-01
 -1      2759 8.85185E-01
 -1      2760 7.07062E-01
 -1      2761 6.41185E-01
 -1      2762 7.29306E-01
 -1      2763 5.72904E-01
 -1      2764 5.10764E-01
 -1      2765 5.84696E-01
 -1      2766 4.52352E-01
 -1      2767 3.97292E-01
 -1      2768 4.58003E-01
 -1      2769 3.48897E-01
 -1      2770 3.02210E-01
 -1      2771 3.51196E-01
 -1      2772 2.64050E-01
 -1      2773 2.25767E-01
 -1      2774 2.64640E-01
 -1      2775 1.96111E-01
 -1      2776 1.65569E-01
 -1      2777 1.96824E-01
 -1      2778 1.42350E-01
 -1      2779 1.18559E-01
 -1      2780 1.43948E-01
 -1      2781 1.00704E-01
 -1      2782 8.25773E-02
 -1      2783 1.02874E-01
 -1      2784 6.96660E-02
 -1      2785 5.61554E-02
 -1      2786 7.21085E-02
 -1      2787 4.67319E-02
 -1      2788 3.70437E-02
 -1      2789 4.97736E-02
 -1      2790 3.01067E-02
 -1      2791 2.48738E-02
 -1      2792 3.34131E-02
 -1      2793 1.98821E-02
 -1      2794 1.76646E-02
 -1      2795 2.14844E-02
 -1      2796 1.50041E-02
 -1      2797 1.36135E-02
 -1      2798 1.38323E-02
 -1      2799 1.27445E-02
 -1      2800 1.12989E-02
 -1      2801 1.03029E-02
 -1      2802 1.08109E-02
 -1      2803 9.40704E-03
 -1      2804 8.94594E-03
 -1      2805 8.74235E-03
 -1      2806 7.43883E-03
 -1      2807 7.79323E-03
 -1      2808 6.70228E-03
 -1      2809 5.99083E-03
 -1      2810 6.39199E-03
 -1      2811 5.31560E-03
 -1      2812 4.56680E-03
 -1      2813 4.98022E-03
 -1      2814 4.06953E-03
 -1      2815 3.40564E-03
 -1      2816 3.80772E-03
 -1      2817 7.52260E-01
 -1      2818 7.03018E-01
 -1      2819 8.73284E-01
 -1      2820 1.64957E+01
 -1      2821 1.76383E+01
 -1      2822 6.32832E-01
 -1      2823 5.79688E-01
 -1      2824 7.21439E-01
 -1      2825 9.54646E-01
 -1      2826 9.39046E-01
 -1      2827 1.03120E+00
 -1      2828 1.10805E+00
 -1      2829 1.00793E+00
 -1      2830 1.16073E+00
 -1      2831 1.36074E+00
 -1      2832 1.31940E+00
 -1      2833 1.42536E+00
 -1      2834 1.60672E+00
 -1      2835 1.42800E+00
 -1      2836 1.70397E+00
 -1      2837 2.10289E+00
 -1      2838 1.96715E+00
 -1      2839 2.13166E+00
 -1      2840 3.62266E+00
 -1      2841 3.34151E+00
 -1      2842 3.73070E+00
 -1      2843 4.05859E+00
 -1      2844 4.09523E+00
 -1      2845 5.44188E+00
 -1      2846 4.17518E+00
 -1      2847 4.12608E+00
 -1      2848 5.98194E+00
 -1      2849 2.61820E+00
 -1      2850 2.86166E+00
 -1      2851 4.73590E+00
 -1      2852 2.31684E+00
 -1      2853 2.46377E+00
 -1      2854 3.26795E+00
 -1      2855 1.73864E+00
 -1      2856 1.94649E+00
 -1      2857 2.74318E+00
 -1      2858 1.39856E+00
 -1      2859 1.43570E+00
 -1      2860 2.06989E+00
 -1      2861 1.13072E+00
 -1      2862 1.21224E+00
 -1      2863 1.58063E+00
 -1      2864 1.09753E+00
 -1      2865 1.07056E+00
 -1      2866 1.33414E+00
 -1      2867 1.02328E+00
 -1      2868 1.03081E+00
 -1      2869 1.20725E+00
 -1      2870 9.03305E-01
 -1      2871 9.40445E-01
 -1      2872 1.05769E+00
 -1      2873 8.05751E-01
 -1      2874 8.37416E-01
 -1      2875 9.08969E-01
 -1      2876 7.19436E-01
 -1      2877 7.58779E-01
 -1      2878 7.96107E-01
 -1      2879 6.16894E-01
 -1      2880 6.64833E-01
 -1      2881 6.94531E-01
 -1      2882 5.10202E-01
 -1      2883 5.61784E-01
 -1      2884 5.84818E-01
 -1      2885 4.09358E-01
 -1      2886 4.58818E-01
 -1      2887 4.78323E-01
 -1      2888 3.19744E-01
 -1      2889 3.63898E-01
 -1      2890 3.81479E-01
 -1      2891 2.43554E-01
 -1      2892 2.81045E-01
 -1      2893 2.97320E-01
 -1      2894 1.80962E-01
 -1      2895 2.11600E-01
 -1      2896 2.26667E-01
 -1      2897 1.30994E-01
 -1      2898 1.55251E-01
 -1      2899 1.69003E-01
 -1      2900 9.21046E-02
 -1      2901 1.10780E-01
 -1      2902 1.23078E-01
 -1      2903 6.27218E-02
 -1      2904 7.65543E-02
 -1      2905 8.73135E-02
 -1      2906 4.30844E-02
 -1      2907 5.10162E-02
 -1      2908 6.00577E-02
 -1      2909 2.93696E-02
 -1      2910 3.44738E-02
 -1      2911 3.97414E-02
 -1      2912 2.12802E-02
 -1      2913 2.33041E-02
 -1      2914 2.50652E-02
 -1      2915 1.63524E-02
 -1      2916 1.84036E-02
 -1      2917 1.61231E-02
 -1      2918 1.37648E-02
 -1      2919 1.57209E-02
 -1      2920 1.26150E-02
 -1      2921 1.11160E-02
 -1      2922 1.29100E-02
 -1      2923 1.11288E-02
 -1      2924 8.86730E-03
 -1      2925 1.01663E-02
 -1      2926 9.32431E-03
 -1      2927 7.04228E-03
 -1      2928 7.91015E-03
 -1      2929 7.41748E-03
 -1      2930 5.36795E-03
 -1      2931 6.29045E-03
 -1      2932 5.70849E-03
 -1      2933 3.97341E-03
 -1      2934 4.76215E-03
 -1      2935 4.35086E-03
 -1      2936 3.10898E-03
 -1      2937 3.74228E-03
 -1      2938 3.51392E-03
 -1      2939 2.94936E-03
 -1      2940 1.74792E-03
 -1      2941 1.78129E-03
 -1      2942 1.92871E-03
 -1      2943 1.94327E-03
 -1      2944 1.78291E-03
 -1      2945 1.74995E-03
 -1      2946 1.75754E-03
 -1      2947 1.86805E-03
 -1      2948 1.87336E-03
 -1      2949 1.98438E-03
 -1      2950 1.84226E-03
 -1      2951 5.31256E-01
 -1      2952 4.90814E-01
 -1      2953 6.02820E-01
 -1      2954 1.89253E-03
 -1      2955 1.87482E-03
 -1      2956 1.85149E-03
 -1      2957 1.97726E-03
 -1      2958 1.97726E-03
 -1      2959 2.02813E-03
 -1      2960 1.94589E-03
 -1      2961 1.99220E-03
 -1      2962 2.12781E-03
 -1      2963 5.05346E+00
 -1      2964 6.41418E+00
 -1      2965 6.99418E+00
 -1      2966 6.81949E+00
 -1      2967 9.23189E-01
 -1      2968 7.14797E+00
 -1      2969 9.46150E+00
 -1      2970 1.02497E+01
 -1      2971 8.58194E+00
 -1      2972 7.21030E+00
 -1      2973 5.59364E+00
 -1      2974 6.45037E+00
 -1      2975 2.30831E-03
 -1      2976 2.03463E-03
 -1      2977 2.93978E-03
 -1      2978 2.03093E+01
 -1      2979 2.17335E+01
 -1      2980 5.65764E+00
 -1      2981 4.23946E+00
 -1      2982 4.39451E+00
 -1      2983 3.92814E+00
 -1      2984 5.79059E-01
 -1      2985 5.34912E-01
 -1      2986 4.85469E-01
 -1      2987 5.78656E-01
 -1      2988 5.21185E-01
 -1      2989 5.66329E-01
 -1      2990 2.72343E+01
 -1      2991 1.95784E+01
 -1      2992 4.59638E+00
 -1      2993 5.79808E+00
 -1      2994 7.60853E+00
 -1      2995 9.26728E+00
 -1      2996 1.35629E+01
 -1      2997 9.80300E+00
 -1      2998 1.76202E+01
 -1      2999 1.64113E+01
 -1      3000 1.67081E+01
 -1      3001 1.16908E+00
 -1      3002 6.27065E+00
 -1      3003 6.92670E+00
 -1      3004 5.44188E+00
 -1      3005 8.98909E+00
 -1      3006 7.24253E+00
 -1      3007 4.30824E-01
 -1      3008 4.52740E-01
 -1      3009 5.67648E-01
 -1      3010 4.94398E-01
 -1      3011 4.40673E+00
 -1      3012 5.34963E+00
 -1      3013 3.15906E+00
 -1      3014 4.56623E+00
 -1      3015 3.03924E+00
 -1      3016 6.81949E+00
 -1      3017 5.71438E+00
 -1      3018 6.75870E-01
 -1      3019 9.59782E-01
 -1      3020 6.40944E-01
 -1      3021 2.51528E-01
 -1      3022 2.81154E-01
 -1      3023 3.23295E-01
 -1      3024 2.84459E-03
 -1      3025 1.14208E+01
 -1      3026 1.06153E+01
 -1      3027 8.18767E+00
 -1      3028 1.27719E+01
 -1      3029 1.75898E+01
 -1      3030 5.98194E+00
 -1      3031 9.90654E+00
 -1      3032 1.05363E+01
 -1      3033 6.95442E+00
 -1      3034 2.56184E-03
 -1      3035 2.89527E-03
 -1      3036 2.22063E-03
 -1      3037 5.77558E+00
 -1      3038 4.08932E+00
 -1      3039 4.07766E+00
 -1      3040 3.47619E+00
 -1      3041 2.06387E-03
 -1      3042 6.04942E+00
 -1      3043 8.41064E-01
 -1      3044 4.94414E+00
 -1      3045 1.19015E+01
 -1      3046 1.79625E+01
 -1      3047 1.50718E+01
 -1      3048 1.29790E+01
 -1      3049 5.87808E+00
 -1      3050 5.62613E+00
 -1      3051 4.09434E+00
 -1      3052 2.13423E+01
 -1      3053 1.43214E+01
 -1      3054 1.13366E+01
 -1      3055 3.83346E+00
 -1      3056 4.20640E+00
 -1      3057 3.84948E+00
 -1      3058 1.80111E+01
 -1      3059 1.31763E+01
 -1      3060 1.48810E+01
 -1      3061 3.87961E+00
 -1      3062 5.84036E+00
 -1      3063 1.63836E+01
 -1      3064 2.41530E+01
 -1      3065 1.55851E+01
 -1      3066 6.25626E+00
 -1      3067 6.51906E+00
 -1      3068 1.47932E+01
 -1      3069 1.98700E-03
 -1      3070 2.03036E-03
 -1      3071 2.31747E-03
 -1      3072 2.08347E-03
 -1      3073 4.03761E-01
 -1      3074 4.56019E-01
 -1      3075 4.66239E-01
 -1      3076 3.20607E-01
 -1      3077 8.99214E+00
 -1      3078 6.80551E-01
 -1      3079 1.11962E+00
 -1      3080 1.11962E+00
 -1      3081 9.26048E-01
 -1      3082 9.10327E-01
 -1      3083 8.23916E+00
 -1      3084 9.16857E-01
 -1      3085 2.41539E-03
 -1      3086 2.10054E-03
 -1      3087 2.29740E-03
 -1      3088 2.88125E-03
 -1      3089 6.24900E+00
 -1      3090 5.55236E+00
 -1      3091 5.18085E+00
 -1      3092 3.92465E+00
 -1      3093 6.63698E-01
 -1      3094 6.39733E-01
 -1      3095 4.73590E+00
 -1      3096 3.63062E+00
 -1      3097 1.21559E+00
 -1      3098 1.13933E+00
 -1      3099 6.55193E-01
 -1      3100 7.07798E-01
 -1      3101 7.72074E-01
 -1      3102 8.49258E-01
 -1      3103 7.70411E-01
 -1      3104 9.77319E-01
 -1      3105 1.06651E+00
 -1      3106 9.62748E-01
 -1      3107 1.24294E+00
 -1      3108 1.35841E+00
 -1      3109 1.26724E+00
 -1      3110 1.57214E+00
 -1      3111 1.75360E+00
 -1      3112 1.65740E+00
 -1      3113 2.01301E+00
 -1      3114 2.20886E+00
 -1      3115 2.13054E+00
 -1      3116 2.67945E+00
 -1      3117 2.84917E+00
 -1      3118 2.86054E+00
 -1      3119 3.04395E+00
 -1      3120 3.02226E+00
 -1      3121 2.54368E+00
 -1      3122 3.03026E+00
 -1      3123 3.59179E+00
 -1      3124 3.37717E+00
 -1      3125 2.87624E+00
 -1      3126 3.00487E+00
 -1      3127 2.76895E+00
 -1      3128 2.51529E+00
 -1      3129 3.00487E+00
 -1      3130 2.83671E+00
 -1      3131 2.63624E+00
 -1      3132 3.09037E+00
 -1      3133 2.09718E+00
 -1      3134 1.91335E+00
 -1      3135 2.87273E+00
 -1      3136 1.67498E+00
 -1      3137 1.56927E+00
 -1      3138 2.09529E+00
 -1      3139 1.38443E+00
 -1      3140 1.30418E+00
 -1      3141 1.67207E+00
 -1      3142 1.13934E+00
 -1      3143 1.06114E+00
 -1      3144 1.32239E+00
 -1      3145 9.36874E-01
 -1      3146 8.57325E-01
 -1      3147 1.03328E+00
 -1      3148 7.59149E-01
 -1      3149 6.82819E-01
 -1      3150 8.10838E-01
 -1      3151 6.09893E-01
 -1      3152 5.41612E-01
 -1      3153 6.39735E-01
 -1      3154 4.80873E-01
 -1      3155 4.22461E-01
 -1      3156 5.06070E-01
 -1      3157 3.70948E-01
 -1      3158 3.22553E-01
 -1      3159 3.93818E-01
 -1      3160 2.80624E-01
 -1      3161 2.42464E-01
 -1      3162 3.00377E-01
 -1      3163 2.10142E-01
 -1      3164 1.80486E-01
 -1      3165 2.26126E-01
 -1      3166 1.54862E-01
 -1      3167 1.31644E-01
 -1      3168 1.68181E-01
 -1      3169 1.11682E-01
 -1      3170 9.38271E-02
 -1      3171 1.22596E-01
 -1      3172 7.85416E-02
 -1      3173 6.56303E-02
 -1      3174 8.73488E-02
 -1      3175 5.45885E-02
 -1      3176 4.51650E-02
 -1      3177 6.10216E-02
 -1      3178 3.72055E-02
 -1      3179 3.02685E-02
 -1      3180 4.20204E-02
 -1      3181 2.44332E-02
 -1      3182 1.94416E-02
 -1      3183 2.82257E-02
 -1      3184 1.52579E-02
 -1      3185 1.25974E-02
 -1      3186 1.82067E-02
 -1      3187 9.67951E-03
 -1      3188 8.81058E-03
 -1      3189 1.11051E-02
 -1      3190 7.35641E-03
 -1      3191 6.86838E-03
 -1      3192 6.73302E-03
 -1      3193 6.64692E-03
 -1      3194 5.98223E-03
 -1      3195 5.05738E-03
 -1      3196 5.75356E-03
 -1      3197 5.01702E-03
 -1      3198 4.60725E-03
 -1      3199 4.66021E-03
 -1      3200 3.98498E-03
 -1      3201 4.02178E-03
 -1      3202 3.66357E-03
 -1      3203 3.16630E-03
 -1      3204 2.73710E-03
 -1      3205 3.34356E-03
 -1      3206 9.88691E-01
 -1      3207 9.07033E-01
 -1      3208 1.17308E+00
 -1      3209 1.31136E+01
 -1      3210 1.57872E+01
 -1      3211 1.85149E-03
 -1      3212 1.75958E-03
 -1      3213 1.85053E+00
 -1      3214 1.63918E+00
 -1      3215 2.56151E+00
 -1      3216 2.49424E+00
 -1      3217 2.70806E+00
 -1      3218 2.54801E+00
 -1      3219 2.18759E+00
 -1      3220 2.97786E+00
 -1      3221 4.20640E+00
 -1      3222 2.96778E+00
 -1      3223 5.91445E+00
 -1      3224 5.44188E+00
 -1      3225 6.04942E+00
 -1      3226 5.98194E+00
 -1      3227 3.26795E+00
 -1      3228 3.42238E+00
 -1      3229 2.74318E+00
 -1      3230 3.11352E+00
 -1      3231 1.79639E+00
 -1      3232 1.98271E+00
 -1      3233 1.60721E+00
 -1      3234 1.66737E+00
 -1      3235 2.06946E+00
 -1      3236 1.33670E+00
 -1      3237 1.40342E+00
 -1      3238 1.73666E+00
 -1      3239 1.08953E+00
 -1      3240 1.17236E+00
 -1      3241 1.36854E+00
 -1      3242 9.36678E-01
 -1      3243 1.00257E+00
 -1      3244 1.11724E+00
 -1      3245 8.02171E-01
 -1      3246 8.49143E-01
 -1      3247 9.42742E-01
 -1      3248 6.70246E-01
 -1      3249 7.24849E-01
 -1      3250 7.77885E-01
 -1      3251 5.46630E-01
 -1      3252 6.01741E-01
 -1      3253 6.32059E-01
 -1      3254 4.35694E-01
 -1      3255 4.87079E-01
 -1      3256 5.04002E-01
 -1      3257 3.40430E-01
 -1      3258 3.85889E-01
 -1      3259 3.94645E-01
 -1      3260 2.62304E-01
 -1      3261 3.01003E-01
 -1      3262 3.05413E-01
 -1      3263 1.98461E-01
 -1      3264 2.30415E-01
 -1      3265 2.34098E-01
 -1      3266 1.47287E-01
 -1      3267 1.72998E-01
 -1      3268 1.76746E-01
 -1      3269 1.07017E-01
 -1      3270 1.27231E-01
 -1      3271 1.31226E-01
 -1      3272 7.58967E-02
 -1      3273 9.14470E-02
 -1      3274 9.56002E-02
 -1      3275 5.22912E-02
 -1      3276 6.39968E-02
 -1      3277 6.81302E-02
 -1      3278 3.47452E-02
 -1      3279 4.33559E-02
 -1      3280 4.72950E-02
 -1      3281 2.21029E-02
 -1      3282 2.81684E-02
 -1      3283 3.17828E-02
 -1      3284 1.44955E-02
 -1      3285 1.73721E-02
 -1      3286 2.04752E-02
 -1      3287 1.05551E-02
 -1      3288 1.11866E-02
 -1      3289 1.24356E-02
 -1      3290 8.46941E-03
 -1      3291 9.32419E-03
 -1      3292 7.89575E-03
 -1      3293 7.39841E-03
 -1      3294 8.34809E-03
 -1      3295 6.54350E-03
 -1      3296 6.06979E-03
 -1      3297 7.02694E-03
 -1      3298 6.05072E-03
 -1      3299 4.81010E-03
 -1      3300 5.56194E-03
 -1      3301 5.17140E-03
 -1      3302 3.63381E-03
 -1      3303 4.23961E-03
 -1      3304 4.09305E-03
 -1      3305 3.14912E-03
 -1      3306 3.38026E-03
 -1      3307 3.26901E-03
 -1      3308 2.76160E-03
 -1      3309 6.78714E-01
 -1      3310 6.30282E-01
 -1      3311 7.31219E+00
 -1      3312 8.94775E+00
 -1      3313 1.70488E-03
 -1      3314 1.70284E-03
 -1      3315 1.70488E-03
 -1      3316 4.11386E+00
 -1      3317 4.84764E+00
 -1      3318 2.14275E-03
 -1      3319 2.12781E-03
 -1      3320 1.43419E+01
 -1      3321 1.23837E+01
 -1      3322 6.04942E+00
 -1      3323 5.99270E+00
 -1      3324 4.40781E+00
 -1      3325 1.04343E+01
 -1      3326 1.25785E+01
 -1      3327 4.54428E+00
 -1      3328 2.02813E-03
 -1      3329 1.94339E-03
 -1      3330 1.85149E-03
 -1      3331 2.04307E-03
 -1      3332 8.22210E-01
 -1      3333 7.52024E-01
 -1      3334 7.79486E-01
 -1      3335 7.43159E-01
 -1      3336 6.63512E-01
 -1      3337 7.14454E-01
 -1      3338 3.13401E+00
 -1      3339 3.71054E+00
 -1      3340 1.47932E+01
 -1      3341 1.17278E+01
 -1      3342 1.44783E+00
 -1      3343 1.39455E+00
 -1      3344 1.50268E+00
 -1      3345 2.89858E+00
 -1      3346 4.01639E+00
 -1      3347 4.17116E-01
 -1      3348 3.35618E-01
 -1      3349 6.00183E-01
 -1      3350 5.79846E-01
 -1      3351 5.83329E-01
 -1      3352 4.66942E-01
 -1      3353 4.15976E+00
 -1      3354 2.96063E+00
 -1      3355 9.16857E-01
 -1      3356 7.63544E-01
 -1      3357 7.57015E-01
 -1      3358 2.59609E+00
 -1      3359 1.14433E+01
 -1      3360 8.59489E+00
 -1      3361 7.65007E+00
 -1      3362 6.83616E+00
 -1      3363 4.73590E+00
 -1      3364 3.08298E-01
 -1      3365 2.96911E-01
 -1      3366 3.81000E-01
 -1      3367 1.11359E+01
 -1      3368 8.26853E+00
 -1      3369 1.00241E+01
 -1      3370 3.26795E+00
 -1      3371 2.51376E-03
 -1      3372 2.35911E-03
 -1      3373 2.35911E-03
 -1      3374 2.79881E-03
 -1      3375 1.36928E+01
 -1      3376 9.36826E+00
 -1      3377 1.06115E+01
 -1      3378 1.19074E+01
 -1      3379 5.32333E+00
 -1      3380 5.76837E+00
 -1      3381 3.66160E+00
 -1      3382 3.18145E+00
 -1      3383 4.03317E+00
 -1      3384 5.76362E+00
 -1      3385 3.26894E+00
 -1      3386 4.22358E+00
 -1      3387 7.19189E+00
 -1      3388 9.37617E-01
 -1      3389 5.71923E+00
 -1      3390 1.87299E+00
 -1      3391 3.02371E+00
 -1      3392 5.40361E+00
 -1      3393 2.37619E+00
 -1      3394 2.67913E+00
 -1      3395 1.95531E-03
 -1      3396 2.01067E-03
 -1      3397 8.75435E+00
 -1      3398 4.37010E-01
 -1      3399 5.02175E-01
 -1      3400 4.04193E+00
 -1      3401 3.11399E+00
 -1      3402 3.07779E+00
 -1      3403 1.75550E-03
 -1      3404 1.84226E-03
 -1      3405 1.86855E-03
 -1      3406 1.70284E-03
 -1      3407 7.48067E+00
 -1      3408 1.06175E+01
 -1      3409 9.92338E+00
 -1      3410 9.07704E+00
 -1      3411 5.36699E-01
 -1      3412 6.46239E-01
 -1      3413 6.52769E-01
 -1      3414 5.07470E-01
 -1      3415 3.58204E+00
 -1      3416 3.42971E+00
 -1      3417 9.81839E+00
 -1      3418 9.42722E+00
 -1      3419 9.81839E+00
 -1      3420 1.32357E+01
 -1      3421 1.04192E+01
 -1      3422 9.85970E+00
 -1      3423 6.05774E-01
 -1      3424 5.72145E-01
 -1      3425 6.33222E-01
 -1      3426 5.53140E+00
 -1      3427 4.15976E+00
 -1      3428 7.75686E+00
 -1      3429 7.39120E+00
 -1      3430 5.10059E+00
 -1      3431 1.20063E+01
 -1      3432 7.43159E-01
 -1      3433 3.03329E+00
 -1      3434 3.24078E+00
 -1      3435 2.03974E-03
 -1      3436 2.08347E-03
 -1      3437 2.01067E-03
 -1      3438 5.40101E-01
 -1      3439 4.80543E-01
 -1      3440 4.71747E-01
 -1      3441 5.67219E-01
 -1      3442 3.51187E+00
 -1      3443 3.75090E+00
 -1      3444 4.49365E+00
 -1      3445 2.59196E+00
 -1      3446 6.16959E-01
 -1      3447 5.56969E-01
 -1      3448 5.89503E-01
 -1      3449 6.92853E-01
 -1      3450 3.05775E-01
 -1      3451 3.86242E-01
 -1      3452 4.22178E-01
 -1      3453 4.49842E+00
 -1      3454 9.42259E-01
 -1      3455 1.07032E+00
 -1      3456 1.25109E+00
 -1      3457 1.42753E+00
 -1      3458 1.23061E+00
 -1      3459 1.72362E+00
 -1      3460 1.93735E+00
 -1      3461 1.70747E+00
 -1      3462 2.33765E+00
 -1      3463 2.59706E+00
 -1      3464 2.40387E+00
 -1      3465 3.77888E+00
 -1      3466 4.24946E+00
 -1      3467 3.98599E+00
 -1      3468 6.73713E+00
 -1      3469 5.79231E+00
 -1      3470 3.81037E+00
 -1      3471 3.27130E+00
 -1      3472 2.62274E+00
 -1      3473 2.38437E+00
 -1      3474 3.56038E+00
 -1      3475 1.93084E+00
 -1      3476 1.74600E+00
 -1      3477 2.45830E+00
 -1      3478 1.46744E+00
 -1      3479 1.30260E+00
 -1      3480 1.72622E+00
 -1      3481 1.12799E+00
 -1      3482 1.00372E+00
 -1      3483 1.27304E+00
 -1      3484 9.00820E-01
 -1      3485 8.02644E-01
 -1      3486 9.95526E-01
 -1      3487 7.12662E-01
 -1      3488 6.39735E-01
 -1      3489 8.02644E-01
 -1      3490 5.63830E-01
 -1      3491 5.03091E-01
 -1      3492 6.36756E-01
 -1      3493 4.40456E-01
 -1      3494 3.88943E-01
 -1      3495 4.98216E-01
 -1      3496 3.38022E-01
 -1      3497 2.96093E-01
 -1      3498 3.84660E-01
 -1      3499 2.55195E-01
 -1      3500 2.22873E-01
 -1      3501 2.92840E-01
 -1      3502 1.90430E-01
 -1      3503 1.64807E-01
 -1      3504 2.19498E-01
 -1      3505 1.39440E-01
 -1      3506 1.19478E-01
 -1      3507 1.61689E-01
 -1      3508 9.99368E-02
 -1      3509 8.46513E-02
 -1      3510 1.16780E-01
 -1      3511 6.98229E-02
 -1      3512 5.87812E-02
 -1      3513 8.24109E-02
 -1      3514 4.83328E-02
 -1      3515 4.03734E-02
 -1      3516 5.71342E-02
 -1      3517 3.26138E-02
 -1      3518 2.67785E-02
 -1      3519 3.89262E-02
 -1      3520 2.11333E-02
 -1      3521 1.69496E-02
 -1      3522 2.55214E-02
 -1      3523 1.29701E-02
 -1      3524 1.00522E-02
 -1      3525 1.58966E-02
 -1      3526 7.34511E-03
 -1      3527 5.89093E-03
 -1      3528 9.21008E-03
 -1      3529 4.28427E-03
 -1      3530 4.06281E-03
 -1      3531 4.89636E-03
 -1      3532 4.06429E-03
 -1      3533 3.83562E-03
 -1      3534 3.29118E-03
 -1      3535 3.86696E-03
 -1      3536 3.51015E-03
 -1      3537 3.32400E-03
 -1      3538 5.29946E+00
 -1      3539 1.07760E+01
 -1      3540 3.45055E+00
 -1      3541 2.80684E+00
 -1      3542 4.96931E+00
 -1      3543 2.06946E+00
 -1      3544 2.19847E+00
 -1      3545 1.18352E+00
 -1      3546 1.27048E+00
 -1      3547 9.33327E-01
 -1      3548 1.02086E+00
 -1      3549 1.17411E+00
 -1      3550 7.48729E-01
 -1      3551 8.26051E-01
 -1      3552 9.04170E-01
 -1      3553 6.00790E-01
 -1      3554 6.69295E-01
 -1      3555 7.17460E-01
 -1      3556 4.83605E-01
 -1      3557 5.43157E-01
 -1      3558 5.80393E-01
 -1      3559 3.81322E-01
 -1      3560 4.31127E-01
 -1      3561 4.70281E-01
 -1      3562 2.96381E-01
 -1      3563 3.35808E-01
 -1      3564 3.72289E-01
 -1      3565 2.26336E-01
 -1      3566 2.58225E-01
 -1      3567 2.88619E-01
 -1      3568 1.69676E-01
 -1      3569 1.95139E-01
 -1      3570 2.19267E-01
 -1      3571 1.24651E-01
 -1      3572 1.44707E-01
 -1      3573 1.63100E-01
 -1      3574 8.95341E-02
 -1      3575 1.05104E-01
 -1      3576 1.18584E-01
 -1      3577 6.28397E-02
 -1      3578 7.47396E-02
 -1      3579 8.42436E-02
 -1      3580 4.32001E-02
 -1      3581 5.21354E-02
 -1      3582 5.87448E-02
 -1      3583 2.86289E-02
 -1      3584 3.52058E-02
 -1      3585 4.00462E-02
 -1      3586 1.80612E-02
 -1      3587 2.27919E-02
 -1      3588 2.62149E-02
 -1      3589 1.06638E-02
 -1      3590 1.39727E-02
 -1      3591 1.62893E-02
 -1      3592 6.67711E-03
 -1      3593 7.90804E-03
 -1      3594 9.44511E-03
 -1      3595 5.18015E-03
 -1      3596 5.30146E-03
 -1      3597 5.31375E-03
 -1      3598 4.76528E-03
 -1      3599 5.13674E-03
 -1      3600 3.89471E-03
 -1      3601 4.22916E-03
 -1      3602 4.73701E-03
 -1      3603 3.82304E-03
 -1      3604 3.42452E-03
 -1      3605 3.99502E-03
 -1      3606 3.56064E-03
 -1      3607 2.34364E+00
 -1      3608 2.15229E+00
 -1      3609 3.08613E+00
 -1      3610 6.21780E+00
 -1      3611 7.70435E+00
 -1      3612 1.68869E-03
 -1      3613 1.63399E-03
 -1      3614 8.56150E-01
 -1      3615 7.82841E-01
 -1      3616 1.49807E+00
 -1      3617 1.66241E+00
 -1      3618 1.56435E+00
 -1      3619 1.90377E+00
 -1      3620 2.10755E+00
 -1      3621 2.23657E+00
 -1      3622 2.03330E+00
 -1      3623 3.04948E+00
 -1      3624 8.26131E+00
 -1      3625 7.32098E+00
 -1      3626 8.74354E+00
 -1      3627 9.27859E+00
 -1      3628 1.03954E+01
 -1      3629 1.01168E+01
 -1      3630 4.89820E+00
 -1      3631 4.05474E+00
 -1      3632 1.79846E+00
 -1      3633 1.61949E+00
 -1      3634 2.26910E+00
 -1      3635 3.95596E+00
 -1      3636 2.35902E-03
 -1      3637 2.54929E-03
 -1      3638 2.80315E-03
 -1      3639 2.31529E-03
 -1      3640 3.00487E+00
 -1      3641 1.00151E+01
 -1      3642 1.06115E+01
 -1      3643 8.71915E+00
 -1      3644 7.02772E-01
 -1      3645 6.82386E-01
 -1      3646 5.91996E-01
 -1      3647 1.08119E+00
 -1      3648 9.96369E-01
 -1      3649 9.99725E-01
 -1      3650 1.41482E+00
 -1      3651 1.26418E+00
 -1      3652 1.71059E+00
 -1      3653 7.87826E-01
 -1      3654 8.52102E-01
 -1      3655 9.59675E-01
 -1      3656 4.86467E+00
 -1      3657 9.46448E+00
 -1      3658 7.42410E+00
 -1      3659 7.81923E+00
 -1      3660 6.74067E-01
 -1      3661 5.18609E+00
 -1      3662 4.44344E+00
 -1      3663 5.92140E+00
 -1      3664 7.47206E+00
 -1      3665 7.39816E+00
 -1      3666 8.04727E+00
 -1      3667 6.29121E+00
 -1      3668 3.34356E-03
 -1      3669 3.02215E-03
 -1      3670 2.79881E-03
 -1      3671 3.18874E-03
 -1      3672 5.88768E+00
 -1      3673 5.96888E+00
 -1      3674 4.25659E+00
 -1      3675 7.23418E-01
 -1      3676 7.10095E-01
 -1      3677 8.00083E-01
 -1      3678 4.82921E-01
 -1      3679 4.55601E-01
 -1      3680 5.58498E-01
 -1      3681 4.95071E-01
 -1      3682 5.69672E-01
 -1      3683 3.05670E-03
 -1      3684 5.58467E+00
 -1      3685 1.60457E-03
 -1      3686 1.62076E-03
 -1      3687 1.67342E-03
 -1      3688 8.03387E+00
 -1      3689 6.06298E-01
 -1      3690 6.40822E-01
 -1      3691 6.90825E-01
 -1      3692 2.57547E-03
 -1      3693 2.35911E-03
 -1      3694 2.79881E-03
 -1      3695 3.62545E-01
 -1      3696 9.11692E+00
 -1      3697 7.20755E+00
 -1      3698 7.98267E+00
 -1      3699 7.50597E+00
 -1      3700 7.24406E+00
 -1      3701 8.76225E+00
 -1      3702 7.67653E+00
 -1      3703 1.80124E-03
 -1      3704 1.91429E-03
 -1      3705 1.71916E-03
 -1      3706 7.55758E-01
 -1      3707 6.75265E-01
 -1      3708 6.41306E-01
 -1      3709 2.05867E-03
 -1      3710 2.12598E-03
 -1      3711 2.15505E-03
 -1      3712 5.32172E+00
 -1      3713 7.85827E+00
 -1      3714 6.36092E+00
 -1      3715 4.13991E+00
 -1      3716 1.32293E+00
 -1      3717 2.25943E-03
 -1      3718 2.63846E+00
 -1      3719 2.95867E-03
 -1      3720 5.03666E-01
 -1      3721 6.37017E-01
 -1      3722 4.52897E-01
 -1      3723 1.97498E-03
 -1      3724 1.90409E-03
 -1      3725 2.06689E-03
 -1      3726 2.37468E+00
 -1      3727 2.76816E+00
 -1      3728 2.37468E+00
 -1      3729 2.86840E+00
 -1      3730 3.34408E+00
 -1      3731 1.23061E+00
 -1      3732 1.41138E+00
 -1      3733 1.68483E+00
 -1      3734 1.98092E+00
 -1      3735 1.68483E+00
 -1      3736 3.19111E+00
 -1      3737 3.59141E+00
 -1      3738 3.16847E+00
 -1      3739 1.49846E+00
 -1      3740 1.31548E+00
 -1      3741 3.99596E+00
 -1      3742 3.34740E+00
 -1      3743 3.40859E+00
 -1      3744 3.05476E+00
 -1      3745 3.98024E+00
 -1      3746 2.79194E+00
 -1      3747 2.33842E+00
 -1      3748 3.22752E+00
 -1      3749 1.96287E+00
 -1      3750 1.68431E+00
 -1      3751 2.29652E+00
 -1      3752 1.44766E+00
 -1      3753 1.27304E+00
 -1      3754 1.68431E+00
 -1      3755 1.09843E+00
 -1      3756 9.95526E-01
 -1      3757 1.27304E+00
 -1      3758 8.65215E-01
 -1      3759 7.75232E-01
 -1      3760 9.68114E-01
 -1      3761 6.77383E-01
 -1      3762 6.01477E-01
 -1      3763 7.39954E-01
 -1      3764 5.26870E-01
 -1      3765 4.64235E-01
 -1      3766 5.67497E-01
 -1      3767 4.06382E-01
 -1      3768 3.55460E-01
 -1      3769 4.35036E-01
 -1      3770 3.10167E-01
 -1      3771 2.69268E-01
 -1      3772 3.31889E-01
 -1      3773 2.33753E-01
 -1      3774 2.01310E-01
 -1      3775 2.51080E-01
 -1      3776 1.73534E-01
 -1      3777 1.48167E-01
 -1      3778 1.87789E-01
 -1      3779 1.26640E-01
 -1      3780 1.07098E-01
 -1      3781 1.38485E-01
 -1      3782 9.05209E-02
 -1      3783 7.56925E-02
 -1      3784 1.00380E-01
 -1      3785 6.30781E-02
 -1      3786 5.26297E-02
 -1      3787 7.11881E-02
 -1      3788 4.33343E-02
 -1      3789 3.55747E-02
 -1      3790 4.92782E-02
 -1      3791 2.91003E-02
 -1      3792 2.34551E-02
 -1      3793 3.35084E-02
 -1      3794 1.87126E-02
 -1      3795 1.47331E-02
 -1      3796 2.22915E-02
 -1      3797 1.13348E-02
 -1      3798 8.62773E-03
 -1      3799 1.41507E-02
 -1      3800 6.25748E-03
 -1      3801 4.65082E-03
 -1      3802 8.38219E-03
 -1      3803 3.10587E-03
 -1      3804 3.10735E-03
 -1      3805 4.46699E-03
 -1      3806 2.83212E-03
 -1      3807 2.86346E-03
 -1      3808 2.64681E-03
 -1      3809 7.17460E-01
 -1      3810 7.96894E-01
 -1      3811 8.94763E-01
 -1      3812 1.00204E+00
 -1      3813 8.94763E-01
 -1      3814 1.13962E+00
 -1      3815 1.30228E+00
 -1      3816 1.13021E+00
 -1      3817 5.78160E-01
 -1      3818 6.35794E-01
 -1      3819 7.15227E-01
 -1      3820 4.58060E-01
 -1      3821 5.10539E-01
 -1      3822 5.65939E-01
 -1      3823 3.57223E-01
 -1      3824 4.02736E-01
 -1      3825 4.42994E-01
 -1      3826 2.74223E-01
 -1      3827 3.12379E-01
 -1      3828 3.42826E-01
 -1      3829 2.07126E-01
 -1      3830 2.38323E-01
 -1      3831 2.62082E-01
 -1      3832 1.53534E-01
 -1      3833 1.78503E-01
 -1      3834 1.97559E-01
 -1      3835 1.11535E-01
 -1      3836 1.31081E-01
 -1      3837 1.46484E-01
 -1      3838 7.93362E-02
 -1      3839 9.41308E-02
 -1      3840 1.06628E-01
 -1      3841 5.53047E-02
 -1      3842 6.60089E-02
 -1      3843 7.58961E-02
 -1      3844 3.74617E-02
 -1      3845 4.54560E-02
 -1      3846 5.27201E-02
 -1      3847 2.46894E-02
 -1      3848 3.05265E-02
 -1      3849 3.59362E-02
 -1      3850 1.55124E-02
 -1      3851 1.96009E-02
 -1      3852 2.39125E-02
 -1      3853 9.10706E-03
 -1      3854 1.18628E-02
 -1      3855 1.51743E-02
 -1      3856 5.18437E-03
 -1      3857 6.56001E-03
 -1      3858 8.97768E-03
 -1      3859 3.47921E-03
 -1      3860 3.52262E-03
 -1      3861 4.76888E-03
 -1      3862 3.04119E-03
 -1      3863 3.06945E-03
 -1      3864 2.69736E-03
 -1      3865 5.34975E+00
 -1      3866 4.76590E+00
 -1      3867 1.96856E+00
 -1      3868 2.19615E+00
 -1      3869 1.93408E+00
 -1      3870 2.79647E+00
 -1      3871 6.40656E+00
 -1      3872 6.87856E+00
 -1      3873 4.81357E+00
 -1      3874 3.01375E+00
 -1      3875 8.04584E-01
 -1      3876 4.44033E-01
 -1      3877 4.52897E-01
 -1      3878 5.34384E-01
 -1      3879 5.45953E-01
 -1      3880 2.70937E+00
 -1      3881 3.50257E+00
 -1      3882 3.62188E+00
 -1      3883 2.53317E+00
 -1      3884 6.36092E+00
 -1      3885 7.09740E+00
 -1      3886 6.73355E-01
 -1      3887 6.81439E-01
 -1      3888 9.53732E-01
 -1      3889 1.04389E+00
 -1      3890 1.22466E+00
 -1      3891 6.17002E-01
 -1      3892 5.84958E-01
 -1      3893 6.08282E-01
 -1      3894 2.68312E-03
 -1      3895 6.16932E+00
 -1      3896 6.87080E+00
 -1      3897 6.20583E+00
 -1      3898 6.58361E+00
 -1      3899 5.58372E+00
 -1      3900 4.95631E+00
 -1      3901 7.25617E+00
 -1      3902 7.25617E+00
 -1      3903 5.93518E+00
 -1      3904 6.09633E+00
 -1      3905 2.38293E-03
 -1      3906 2.22607E+00
 -1      3907 2.02139E+00
 -1      3908 3.36556E+00
 -1      3909 6.59045E-01
 -1      3910 1.15315E+00
 -1      3911 1.01294E+00
 -1      3912 1.32869E+00
 -1      3913 2.79843E-03
 -1      3914 8.40664E-01
 -1      3915 9.05598E-01
 -1      3916 9.89812E-01
 -1      3917 7.38031E-01
 -1      3918 5.88335E+00
 -1      3919 7.12005E-01
 -1      3920 5.47565E+00
 -1      3921 4.92715E+00
 -1      3922 2.01394E+00
 -1      3923 7.45645E-01
 -1      3924 7.21341E-01
 -1      3925 7.74300E-01
 -1      3926 2.96540E-03
 -1      3927 8.33723E-01
 -1      3928 2.73030E+00
 -1      3929 3.06500E+00
 -1      3930 2.76840E+00
 -1      3931 6.87433E-01
 -1      3932 6.75283E-01
 -1      3933 8.03438E-01
 -1      3934 6.85676E-01
 -1      3935 5.07209E+00
 -1      3936 3.91659E+00
 -1      3937 2.93998E-03
 -1      3938 3.17412E-03
 -1      3939 2.47353E-03
 -1      3940 1.63043E-03
 -1      3941 1.61720E-03
 -1      3942 2.85060E+00
 -1      3943 2.44639E+00
 -1      3944 2.68775E+00
 -1      3945 9.87153E-01
 -1      3946 5.89488E+00
 -1      3947 6.99232E+00
 -1      3948 6.74107E-01
 -1      3949 4.43508E+00
 -1      3950 5.35744E+00
 -1      3951 1.61720E-03
 -1      3952 1.74502E-03
 -1      3953 1.64306E-03
 -1      3954 1.77701E-03
 -1      3955 1.98869E-03
 -1      3956 1.67504E-03
 -1      3957 4.85805E+00
 -1      3958 6.03757E+00
 -1      3959 5.02069E+00
 -1      3960 5.63442E+00
 -1      3961 1.84533E-03
 -1      3962 1.55904E-03
 -1      3963 1.57167E-03
 -1      3964 2.28098E-03
 -1      3965 2.42053E-03
 -1      3966 2.41191E-03
 -1      3967 7.73411E-01
 -1      3968 7.46952E-01
 -1      3969 8.52563E-01
 -1      3970 8.60011E-01
 -1      3971 2.94929E+00
 -1      3972 4.15947E+00
 -1      3973 9.70794E-01
 -1      3974 9.81188E-01
 -1      3975 4.03260E+00
 -1      3976 3.47715E+00
 -1      3977 2.67207E+00
 -1      3978 2.29652E+00
 -1      3979 3.47715E+00
 -1      3980 1.86655E+00
 -1      3981 1.62989E+00
 -1      3982 2.24210E+00
 -1      3983 1.35481E+00
 -1      3984 1.18019E+00
 -1      3985 1.53704E+00
 -1      3986 1.00288E+00
 -1      3987 8.72569E-01
 -1      3988 1.08465E+00
 -1      3989 7.53962E-01
 -1      3990 6.56112E-01
 -1      3991 7.88728E-01
 -1      3992 5.73466E-01
 -1      3993 4.98859E-01
 -1      3994 5.87474E-01
 -1      3995 4.38436E-01
 -1      3996 3.80583E-01
 -1      3997 4.44406E-01
 -1      3998 3.34418E-01
 -1      3999 2.89125E-01
 -1      4000 3.37819E-01
 -1      4001 2.53412E-01
 -1      4002 2.17897E-01
 -1      4003 2.55941E-01
 -1      4004 1.90777E-01
 -1      4005 1.63000E-01
 -1      4006 1.93108E-01
 -1      4007 1.41628E-01
 -1      4008 1.20101E-01
 -1      4009 1.44616E-01
 -1      4010 1.03477E-01
 -1      4011 8.68991E-02
 -1      4012 1.06620E-01
 -1      4013 7.40541E-02
 -1      4014 6.14397E-02
 -1      4015 7.71507E-02
 -1      4016 5.17512E-02
 -1      4017 4.24557E-02
 -1      4018 5.46172E-02
 -1      4019 3.52241E-02
 -1      4020 2.87497E-02
 -1      4021 3.76970E-02
 -1      4022 2.38410E-02
 -1      4023 1.90985E-02
 -1      4024 2.55567E-02
 -1      4025 1.55608E-02
 -1      4026 1.21626E-02
 -1      4027 1.71104E-02
 -1      4028 9.72256E-03
 -1      4029 7.35230E-03
 -1      4030 1.11327E-02
 -1      4031 5.59687E-03
 -1      4032 4.05191E-03
 -1      4033 6.93723E-03
 -1      4034 2.84031E-03
 -1      4035 2.56509E-03
 -1      4036 3.97019E-03
 -1      4037 5.27072E-01
 -1      4038 5.94694E-01
 -1      4039 6.81468E-01
 -1      4040 7.63134E-01
 -1      4041 6.42601E-01
 -1      4042 4.65460E+00
 -1      4043 4.81337E+00
 -1      4044 1.13021E+00
 -1      4045 1.26779E+00
 -1      4046 3.08789E+00
 -1      4047 4.06485E-01
 -1      4048 4.61809E-01
 -1      4049 4.90563E-01
 -1      4050 3.10859E-01
 -1      4051 3.55703E-01
 -1      4052 3.74518E-01
 -1      4053 2.35675E-01
 -1      4054 2.71575E-01
 -1      4055 2.84452E-01
 -1      4056 1.76628E-01
 -1      4057 2.05251E-01
 -1      4058 2.14744E-01
 -1      4059 1.30633E-01
 -1      4060 1.53085E-01
 -1      4061 1.60777E-01
 -1      4062 9.48252E-02
 -1      4063 1.12229E-01
 -1      4064 1.18831E-01
 -1      4065 6.72497E-02
 -1      4066 8.05770E-02
 -1      4067 8.61788E-02
 -1      4068 4.66115E-02
 -1      4069 5.64602E-02
 -1      4070 6.11411E-02
 -1      4071 3.16172E-02
 -1      4072 3.85524E-02
 -1      4073 4.22925E-02
 -1      4074 2.09864E-02
 -1      4075 2.60750E-02
 -1      4076 2.86912E-02
 -1      4077 1.33298E-02
 -1      4078 1.69794E-02
 -1      4079 1.91419E-02
 -1      4080 7.90121E-03
 -1      4081 1.04483E-02
 -1      4082 1.22534E-02
 -1      4083 4.28948E-03
 -1      4084 5.95123E-03
 -1      4085 7.42180E-03
 -1      4086 2.66800E-03
 -1      4087 3.07777E-03
 -1      4088 4.26012E-03
 -1      4089 2.13025E-03
 -1      4090 1.99732E-03
 -1      4091 1.93593E-03
 -1      4092 2.26180E-03
 -1      4093 2.26180E-03
 -1      4094 3.91088E+00
 -1      4095 4.34856E+00
 -1      4096 3.15687E+00
 -1      4097 5.94591E+00
 -1      4098 5.26170E+00
 -1      4099 5.57265E+00
 -1      4100 8.77754E-01
 -1      4101 7.38031E-01
 -1      4102 7.38031E-01
 -1      4103 1.03922E+00
 -1      4104 4.15142E+00
 -1      4105 3.92514E+00
 -1      4106 4.83942E+00
 -1      4107 3.62029E+00
 -1      4108 4.69743E+00
 -1      4109 1.16860E+00
 -1      4110 1.35532E+00
 -1      4111 3.03522E+00
 -1      4112 2.51229E+00
 -1      4113 3.86296E+00
 -1      4114 4.67484E+00
 -1      4115 4.41492E+00
 -1      4116 4.92715E+00
 -1      4117 1.93408E+00
 -1      4118 2.60036E+00
 -1      4119 1.93408E+00
 -1      4120 8.79577E-01
 -1      4121 9.77446E-01
 -1      4122 8.45818E-01
 -1      4123 4.34950E+00
 -1      4124 4.05456E+00
 -1      4125 3.54461E+00
 -1      4126 3.44682E+00
 -1      4127 1.61747E+00
 -1      4128 1.89092E+00
 -1      4129 2.88192E+00
 -1      4130 1.56141E+00
 -1      4131 1.47262E+00
 -1      4132 1.31030E+00
 -1      4133 2.49390E+00
 -1      4134 3.58625E+00
 -1      4135 4.70797E+00
 -1      4136 3.32346E+00
 -1      4137 3.60713E+00
 -1      4138 9.79705E-01
 -1      4139 1.15746E+00
 -1      4140 1.03922E+00
 -1      4141 1.19193E+00
 -1      4142 1.02458E+00
 -1      4143 3.35400E+00
 -1      4144 5.20410E+00
 -1      4145 6.03101E+00
 -1      4146 2.12944E-03
 -1      4147 3.71761E+00
 -1      4148 9.41678E-01
 -1      4149 3.88692E+00
 -1      4150 3.18149E+00
 -1      4151 1.11503E+00
 -1      4152 2.37772E-03
 -1      4153 3.26128E+00
 -1      4154 2.02920E-03
 -1      4155 2.64795E-03
 -1      4156 1.95782E-03
 -1      4157 1.08850E+00
 -1      4158 3.56762E+00
 -1      4159 1.12047E+00
 -1      4160 2.34573E-03
 -1      4161 2.96448E-03
 -1      4162 3.12092E+00
 -1      4163 3.12092E+00
 -1      4164 4.79748E+00
 -1      4165 4.74645E+00
 -1      4166 1.16637E+00
 -1      4167 1.31030E+00
 -1      4168 3.37115E+00
 -1      4169 1.63644E+00
 -1      4170 1.62753E+00
 -1      4171 1.78038E+00
 -1      4172 1.62753E+00
 -1      4173 1.67092E+00
 -1      4174 2.10652E+00
 -1      4175 3.35495E+00
 -1      4176 4.73988E+00
 -1      4177 2.58697E-03
 -1      4178 2.82358E+00
 -1      4179 2.39361E+00
 -1      4180 1.66184E+00
 -1      4181 1.38676E+00
 -1      4182 2.24333E+00
 -1      4183 1.16846E+00
 -1      4184 9.91149E-01
 -1      4185 1.29326E+00
 -1      4186 8.46257E-01
 -1      4187 7.27649E-01
 -1      4188 9.30070E-01
 -1      4189 6.26639E-01
 -1      4190 5.43993E-01
 -1      4191 6.84168E-01
 -1      4192 4.65761E-01
 -1      4193 4.05339E-01
 -1      4194 5.04925E-01
 -1      4195 3.44721E-01
 -1      4196 2.98557E-01
 -1      4197 3.66076E-01
 -1      4198 2.82173E-01
 -1      4199 2.46461E-01
 -1      4200 2.89076E-01
 -1      4201 2.03062E-01
 -1      4202 1.75942E-01
 -1      4203 2.29294E-01
 -1      4204 1.53470E-01
 -1      4205 1.32098E-01
 -1      4206 1.63424E-01
 -1      4207 1.13537E-01
 -1      4208 9.69125E-02
 -1      4209 1.22391E-01
 -1      4210 8.30170E-02
 -1      4211 7.01719E-02
 -1      4212 8.99336E-02
 -1      4213 5.95788E-02
 -1      4214 4.98903E-02
 -1      4215 6.54451E-02
 -1      4216 4.18088E-02
 -1      4217 3.45771E-02
 -1      4218 4.67704E-02
 -1      4219 2.85413E-02
 -1      4220 2.36327E-02
 -1      4221 3.26531E-02
 -1      4222 1.94674E-02
 -1      4223 1.59297E-02
 -1      4224 2.24520E-02
 -1      4225 1.28008E-02
 -1      4226 1.03608E-02
 -1      4227 1.51579E-02
 -1      4228 8.03457E-03
 -1      4229 6.27913E-03
 -1      4230 9.70272E-03
 -1      4231 4.32331E-03
 -1      4232 3.11171E-03
 -1      4233 2.94009E-03
 -1      4234 5.42065E-03
 -1      4235 3.75215E-01
 -1      4236 4.25997E-01
 -1      4237 2.82005E+00
 -1      4238 2.51107E-01
 -1      4239 2.90391E-01
 -1      4240 3.41870E-01
 -1      4241 1.85648E-01
 -1      4242 2.16073E-01
 -1      4243 2.22011E-01
 -1      4244 1.57031E-01
 -1      4245 1.80573E-01
 -1      4246 1.81902E-01
 -1      4247 1.19664E-01
 -1      4248 1.38067E-01
 -1      4249 1.57864E-01
 -1      4250 8.78799E-02
 -1      4251 1.02128E-01
 -1      4252 1.21365E-01
 -1      4253 6.29178E-02
 -1      4254 7.37073E-02
 -1      4255 8.96566E-02
 -1      4256 4.38996E-02
 -1      4257 5.19587E-02
 -1      4258 6.45249E-02
 -1      4259 3.04108E-02
 -1      4260 3.59530E-02
 -1      4261 4.56192E-02
 -1      4262 2.05264E-02
 -1      4263 2.45334E-02
 -1      4264 3.17952E-02
 -1      4265 1.32567E-02
 -1      4266 1.61382E-02
 -1      4267 2.15297E-02
 -1      4268 8.01138E-03
 -1      4269 9.96136E-03
 -1      4270 1.38462E-02
 -1      4271 4.04033E-03
 -1      4272 5.25204E-03
 -1      4273 7.79159E-03
 -1      4274 3.95640E-03
 -1      4275 3.68357E+00
 -1      4276 3.56762E+00
 -1      4277 5.32373E+00
 -1      4278 1.23691E+00
 -1      4279 1.38968E+00
 -1      4280 2.80290E+00
 -1      4281 1.12047E+00
 -1      4282 4.24059E+00
 -1      4283 3.72534E+00
 -1      4284 2.92026E+00
 -1      4285 3.34278E+00
 -1      4286 1.26729E+00
 -1      4287 1.26729E+00
 -1      4288 1.29926E+00
 -1      4289 1.56141E+00
 -1      4290 1.70289E+00
 -1      4291 1.84227E+00
 -1      4292 2.50856E+00
 -1      4293 1.96416E+00
 -1      4294 9.02169E-01
 -1      4295 1.01861E+00
 -1      4296 1.29326E+00
 -1      4297 3.27430E+00
 -1      4298 3.53358E+00
 -1      4299 5.04229E-01
 -1      4300 5.69492E-01
 -1      4301 5.04925E-01
 -1      4302 2.99027E+00
 -1      4303 3.24610E+00
 -1      4304 6.70502E-01
 -1      4305 7.57276E-01
 -1      4306 6.84168E-01
 -1      4307 2.71110E+00
 -1      4308 2.82005E+00
 -1      4309 3.17268E-03
 -1      4310 4.24854E-03
 -1      4311 9.30070E-01
 -1      4312 2.69593E+00
 -1      4313 3.18928E+00
 -1      4314 3.13591E+00
 -1      4315 2.98592E+00
 -1      4316 2.13091E+00
 -1      4317 2.64869E-01
 -1      4318 3.49693E-01
 -1      4319 2.82005E+00
 -1      4320 1.96416E+00
 -1      4321 3.07177E+00
 -1      4322 1.51156E+00
 -1      4323 1.29326E+00
 -1      4324 1.07496E+00
 -1      4325 9.30070E-01
 -1      4326 7.85178E-01
 -1      4327 6.84168E-01
 -1      4328 5.83157E-01
 -1      4329 5.04925E-01
 -1      4330 2.89076E-01
 -1      4331 2.72692E-01
 -1      4332 2.72692E-01
 -1      4333 2.29294E-01
 -1      4334 1.81361E-01
 -1      4335 1.58890E-01
 -1      4336 1.39926E-01
 -1      4337 1.21365E-01
 -1      4338 1.03829E-01
 -1      4339 8.99336E-02
 -1      4340 7.57611E-02
 -1      4341 6.51680E-02
 -1      4342 5.42089E-02
 -1      4343 4.61273E-02
 -1      4344 3.81807E-02
 -1      4345 3.21450E-02
 -1      4346 2.62675E-02
 -1      4347 2.21023E-02
 -1      4348 1.77142E-02
 -1      4349 1.45853E-02
 -1      4350 1.12900E-02
 -1      4351 8.96371E-03
 -1      4352 6.20436E-03
 -1      4353 2.29835E-01
 -1      4354 2.64869E-01
 -1      4355 4.26694E-01
 -1      4356 2.27239E+00
 -1      4357 3.66076E-01
 -1      4358 1.86876E+00
 -1      4359 2.72692E-01
 -1      4360 1.86437E-01
 -1      4361 4.49025E+00
 -3
 9999
